coord_x,coord_y,stress_xx,stress_yy,tau_xy,velocity_x,velocity_y,stress_1,eps,damage,lx,ly
4.9989644e+0, 1.2571932e+2, -1937750.5, -1677487.4, 5313.8286, 0.004028689, -0.5308051, -1677378.9, 30522.621, 0.000055290777, 9.997845, 10.001294 
4.9990153e+0, 1.3572091e+2, -1837405.8, -1637788.0, 6887.9307, -0.004438651, -0.45055762, -1637550.6, -27664.063, 0.000019222676, 9.998118, 10.000762 
4.9990994e+0, 1.4572091e+2, -1707664.4, -1512769.4, 2365.6497, -0.004433621, -0.53022337, -1512740.6, -853.50336, 0.000002703532, 9.998285, 10.000863 
4.999178e+0, 1.5572232e+2, -1595784.0, -1406373.4, -626.17584, -0.000969046, -0.47948483, -1406371.3, 7502.9443, 0.000000021272871, 9.998374, 10.000878 
4.9992615e+0, 1.6572343e+2, -1471701.5, -1291165.4, 17.631662, -0.0005279008, -0.4580396, -1291165.4, 24698.982, 0.0, 9.998532, 10.000921 
4.999353e+0, 1.7572416e+2, -1339667.5, -1173143.4, -659.38446, -0.002271916, -0.48032302, -1173140.8, 44717.64, 0.0, 9.998751, 10.000953 
4.9994668e+0, 1.8572535e+2, -1201892.1, -1038245.3, -981.9949, -0.0007354434, -0.46689567, -1038239.44, 81609.19, 0.0, 9.998948, 10.001112 
4.9995977e+0, 1.9572692e+2, -1078516.0, -929644.2, 232.34874, 0.0032716955, -0.4237164, -929643.9, 92191.19, 0.0, 9.999129, 10.001098 
4.9997225e+0, 2.057281e+2, -967804.7, -864775.1, 1567.4681, 0.0029527284, -0.39409226, -864751.3, 59073.902, 0.0, 9.999386, 10.000747 
4.9998417e+0, 2.1572901e+2, -826705.25, -749812.1, -1162.5969, -0.00072132394, -0.38155425, -749794.56, 76023.695, 0.0, 9.999698, 10.000712 
4.999996e+0, 2.2572953e+2, -731566.9, -725427.2, -3561.9043, 0.0001434244, -0.36688972, -723794.75, 4019.9045, 0.0, 9.9999895, 10.000066 
5.000178e+0, 2.3572977e+2, -596666.8, -614919.6, -4613.1475, 0.0045594177, -0.3523688, -595567.1, 34246.133, 0.0, 10.000265, 10.000019 
5.000325e+0, 2.4572946e+2, -510150.0, -610794.06, -5538.02, 0.004100586, -0.34134167, -509846.2, 21970.73, 0.0, 10.000567, 9.999229 
5.000444e+0, 2.5572875e+2, -367600.88, -495290.97, -7711.2275, -0.00012934007, -0.33827084, -367136.9, 66687.4, 0.0, 10.00089, 9.999194 
5.000617e+0, 2.657275e+2, -267143.66, -473396.0, -7038.8145, -0.0003058376, -0.34867474, -266903.72, 68932.8, 0.0, 10.00124, 9.998503 
5.000832e+0, 2.7572578e+2, -116537.94, -352604.16, -5933.218, 0.0026022661, -0.3717132, -116388.91, 121463.16, 0.0, 10.001613, 9.99848 
5.0010335e+0, 2.8572395e+2, -1236.9178, -308213.13, -7975.4854, 0.0033977097, -0.3708184, -1029.8481, 138837.53, 0.000000004221918, 10.001998, 9.997926 
5.0012213e+0, 2.9572204e+2, 152364.84, -186431.92, -13085.852, 0.0024542033, -0.35995644, 152869.52, 194752.34, 0.0000065845143, 10.002393, 9.997899 
5.0013405e+0, 3.0571792e+2, 208937.67, -201138.14, -14258.623, -0.0027135534, -0.5283332, 209432.86, 209432.86, 0.00007539241, 10.002735, 9.9973 
5.001464e+0, 3.1571618e+2, 326059.25, -27910.025, -8004.6753, -0.0055548036, -0.43361196, 326240.16, 326240.16, 0.00026927676, 10.003037, 9.998344 
1.4996892e+1, 1.257193e+2, -1936082.9, -1673608.3, 14108.676, 0.011934807, -0.53494936, -1672852.0, 35049.496, 0.000051840474, 9.997844, 10.001322 
1.4997047e+1, 1.3572106e+2, -1835862.1, -1634379.8, 16645.064, -0.013331813, -0.44127876, -1633014.0, -23129.2, 0.000017729604, 9.998117, 10.000786 
1.4997298e+1, 1.45721e+2, -1713483.4, -1524647.9, 5538.051, -0.013292398, -0.5229672, -1524485.6, -12599.6455, 0.0000024017909, 9.998285, 10.000783 
1.4997533e+1, 1.5572217e+2, -1601347.1, -1417769.6, 2925.9714, -0.002894633, -0.4868677, -1417723.0, -3847.2974, 0.000000014045858, 9.998373, 10.000801 
1.4997785e+1, 1.6572326e+2, -1472863.3, -1293485.1, 8147.286, -0.0015835854, -0.4627812, -1293115.9, 22750.402, 0.0, 9.998532, 10.000905 
1.4998059e+1, 1.7572415e+2, -1340675.4, -1175109.5, 7453.4634, -0.0068182605, -0.46829563, -1174774.6, 43084.277, 0.0, 9.998751, 10.00094 
1.49984e+1, 1.8572539e+2, -1199911.5, -1034009.7, 5811.844, -0.0022090469, -0.44984046, -1033806.3, 86042.055, 0.0, 9.998947, 10.001142 
1.4998792e+1, 1.9572695e+2, -1076862.1, -926182.8, 7465.1943, 0.009807324, -0.410502, -925813.9, 96020.94, 0.0, 9.999129, 10.0011215 
1.4999168e+1, 2.0572807e+2, -972696.06, -874888.2, 13337.057, 0.008854283, -0.38671884, -873102.1, 50723.574, 0.0, 9.999385, 10.000677 
1.4999525e+1, 2.1572883e+2, -831546.0, -759730.1, 10555.345, -0.002160164, -0.38068238, -758210.9, 67609.28, 0.0, 9.999698, 10.000645 
1.4999989e+1, 2.2572929e+2, -733466.06, -729251.0, 6834.2046, 0.00042154657, -0.36704662, -724206.75, 3610.3809, 0.0, 9.999989, 10.00004 
1.5000536e+1, 2.3572955e+2, -598839.5, -619305.75, 5936.7344, 0.013674674, -0.34929544, -597242.1, 32573.545, 0.0, 10.000265, 9.9999895 
1.5000974e+1, 2.4572921e+2, -514356.13, -619423.6, 6586.909, 0.012289019, -0.33688986, -513944.78, 17874.898, 0.0, 10.0005665, 9.99917 
1.5001331e+1, 2.5572845e+2, -371098.78, -502505.78, 4571.5566, -0.00039477713, -0.33364144, -370939.94, 62887.848, 0.0, 10.00089, 9.999145 
1.5001851e+1, 2.657271e+2, -264965.2, -468807.84, 6924.831, -0.00092384976, -0.34758136, -264730.22, 71110.055, 0.0, 10.00124, 9.998534 
1.5002497e+1, 2.757254e+2, -115514.26, -350331.47, 8166.059, 0.007806133, -0.3757405, -115230.62, 122625.08, 0.0, 10.001612, 9.998496 
1.5003099e+1, 2.8572354e+2, -10625.88, -327519.4, 6930.6626, 0.010183603, -0.37171447, -10474.374, 129397.4, 0.0000000059189293, 10.001997, 9.997793 
1.5003663e+1, 2.957216e+2, 144425.47, -202801.06, 1669.673, 0.007370119, -0.35193563, 144433.5, 186322.16, 0.0000065077284, 10.002393, 9.9977865 
1.5004021e+1, 3.0571756e+2, 217455.77, -183370.95, -2936.9507, -0.008140849, -0.51365644, 217477.3, 217477.3, 0.00007423676, 10.002735, 9.997422 
1.500439e+1, 3.1571597e+2, 333862.63, -11486.9, 6764.1816, -0.01680899, -0.41362578, 333995.06, 333995.06, 0.0002657484, 10.0030365, 9.998458 
2.4994794e+1, 1.2571916e+2, -1931842.4, -1668271.5, -855.17926, 0.016629398, -0.5252945, -1668268.8, 39634.36, 0.000046849033, 9.997859, 10.001351 
2.499506e+1, 1.3572085e+2, -1867996.8, -1646628.5, 3518.1316, -0.012197381, -0.44073135, -1646572.6, -36685.96, 0.000015561249, 9.997884, 10.000815 
2.4995503e+1, 1.457208e+2, -1743636.8, -1542516.1, -2939.657, -0.011812835, -0.5238939, -1542473.3, -30585.104, 0.0000019703923, 9.998093, 10.000753 
2.4995925e+1, 1.5572196e+2, -1593338.8, -1417153.8, -1764.3027, -0.004650795, -0.48408526, -1417136.1, -3258.1538, 0.000000006345991, 9.998442, 10.000772 
2.4996354e+1, 1.6572306e+2, -1454959.9, -1285608.3, 3890.215, -0.00429756, -0.45966938, -1285518.9, 30349.7, 0.0, 9.998658, 10.000899 
2.4996811e+1, 1.7572391e+2, -1337389.5, -1174664.6, 4117.919, -0.007986972, -0.467191, -1174560.4, 43300.777, 0.0, 9.998777, 10.00093 
2.4997379e+1, 1.857251e+2, -1197122.1, -1038448.9, 1738.2942, -0.0012781463, -0.44896948, -1038429.9, 81421.16, 0.0, 9.998991, 10.00109 
2.4998026e+1, 1.9572662e+2, -1058933.3, -923334.44, -2500.8518, 0.012909741, -0.40837815, -923288.3, 98549.64, 0.0, 9.999277, 10.00107 
2.4998672e+1, 2.0572771e+2, -954006.9, -872284.3, 2825.1724, 0.012976985, -0.3832724, -872186.75, 51642.676, 0.0, 9.999541, 10.00062 
2.4999313e+1, 2.1572842e+2, -822284.75, -761719.56, 941.3823, 0.0022824407, -0.37549427, -761704.94, 64119.39, 0.0, 9.999788, 10.000587 
2.500004e+1, 2.2572882e+2, -724756.1, -730433.0, -2758.3804, 0.0025205307, -0.36315984, -723636.6, 4185.3467, 0.0, 10.000072, 9.999992 
2.5000834e+1, 2.3572898e+2, -585119.75, -618182.75, -5243.275, 0.011335224, -0.3490355, -584308.1, 45513.117, 0.0, 10.000382, 9.999941 
2.5001597e+1, 2.4572861e+2, -500919.25, -619809.75, -4610.2324, 0.012016624, -0.33566946, -500740.75, 31085.078, 0.0, 10.000689, 9.999109 
2.500234e+1, 2.5572783e+2, -360185.4, -503482.66, -6834.058, 0.0062064333, -0.32762578, -359860.22, 73974.055, 0.0, 10.000992, 9.999089 
2.5003183e+1, 2.6572648e+2, -256752.2, -464008.94, -4921.924, 0.0054241046, -0.34256357, -256635.39, 79211.66, 0.0, 10.001292, 9.998542 
2.500411e+1, 2.757247e+2, -117670.96, -350892.1, -5253.997, 0.008796072, -0.37574747, -117552.66, 120310.12, 0.0, 10.001595, 9.9985 
2.500506e+1, 2.8572288e+2, -20409.602, -334809.44, -623.7438, 0.009489889, -0.36990777, -20408.363, 119470.63, 0.0000000086392555, 10.001942, 9.99777 
2.5006017e+1, 2.9572093e+2, 132615.73, -210199.27, 2109.391, 0.0070905173, -0.34290087, 132628.72, 174524.61, 0.0000063841276, 10.002319, 9.997771 
2.5006673e+1, 3.05717e+2, 213446.34, -177029.88, -3482.546, -0.01338818, -0.50004447, 213477.4, 213477.4, 0.00007243093, 10.002672, 9.997497 
2.5007376e+1, 3.1571555e+2, 334001.38, -5068.8403, 6007.0083, -0.020620639, -0.39586443, 334107.78, 334107.78, 0.00026027678, 10.003011, 9.998515 
3.4992665e+1, 1.257189e+2, -1929915.8, -1663851.4, -1448.6613, 0.017651256, -0.50215054, -1663843.5, 44062.8, 0.000040315306, 9.997858, 10.001382 
3.4993058e+1, 1.3572033e+2, -1865620.8, -1641638.1, 5340.1646, -0.0011910225, -0.44863304, -1641510.9, -31618.666, 0.000012732851, 9.997884, 10.00085 
3.4993714e+1, 1.4572027e+2, -1741968.9, -1539203.8, 10228.422, -0.00021230047, -0.5325544, -1538689.1, -26795.775, 0.0000014374052, 9.998093, 10.000776 
3.4994352e+1, 1.557217e+2, -1591820.9, -1414044.4, 10818.981, -0.006490544, -0.47089854, -1413388.4, 492.62723, 0.0000000013691683, 9.998442, 10.000794 
3.499497e+1, 1.6572276e+2, -1454836.4, -1285204.8, 8353.116, -0.008865068, -0.4486936, -1284794.4, 31077.037, 0.0, 9.998658, 10.000902 
3.499561e+1, 1.7572342e+2, -1337783.8, -1175497.9, 9119.6455, -0.005973576, -0.4770941, -1174987.0, 42878.41, 0.0, 9.998778, 10.000924 
3.4996402e+1, 1.8572448e+2, -1206336.1, -1057625.5, 12547.636, 0.0018762494, -0.4643469, -1056574.3, 63282.273, 0.0, 9.998991, 10.000958 
3.49973e+1, 1.9572593e+2, -1067826.3, -941728.0, 8253.2295, 0.012445591, -0.41726744, -941190.06, 80654.484, 0.0, 9.999276, 10.000944 
3.4998235e+1, 2.0572703e+2, -957209.2, -878853.06, 12198.595, 0.015187097, -0.38370368, -876997.9, 46838.39, 0.0, 9.999541, 10.000575 
3.4999204e+1, 2.1572779e+2, -825599.5, -768547.44, 10498.049, 0.012425548, -0.36584073, -766677.06, 59153.754, 0.0, 9.999788, 10.000541 
3.5000148e+1, 2.2572812e+2, -729716.7, -740610.2, 8970.091, 0.0062495563, -0.3551603, -724669.1, 3160.025, 0.0, 10.000072, 9.999923 
3.5001078e+1, 2.357281e+2, -589877.3, -628038.94, 6481.3906, -0.0026291355, -0.35174266, -588806.56, 41023.59, 0.0, 10.000382, 9.999873 
3.5002202e+1, 2.4572766e+2, -505363.56, -629033.5, 6788.8623, 0.0031358988, -0.33781317, -504992.0, 26843.393, 0.0, 10.000689, 9.999046 
3.5003462e+1, 2.557269e+2, -364629.72, -512533.53, 4560.112, 0.019589338, -0.32013518, -364489.28, 69354.43, 0.0, 10.000991, 9.999027 
3.5004604e+1, 2.6572552e+2, -258148.05, -466635.53, 6409.682, 0.018615527, -0.33347735, -257951.17, 77905.67, 0.0, 10.001292, 9.998525 
3.5005674e+1, 2.7572373e+2, -118330.87, -352068.56, 6395.0674, 0.0054522944, -0.37169376, -118156.03, 119717.266, 0.0, 10.001595, 9.998492 
3.500692e+1, 2.8572193e+2, -14461.73, -322354.47, 13543.317, 0.0011648996, -0.3654963, -13867.146, 126021.914, 0.000000011844628, 10.001941, 9.997856 
3.5008278e+1, 2.9572016e+2, 138171.69, -198513.55, 16162.778, 0.001426782, -0.33293253, 138945.81, 180850.31, 0.0000061783935, 10.002318, 9.997852 
3.5009292e+1, 3.0571625e+2, 215216.06, -173198.92, 9144.862, -0.018560385, -0.48746043, 215431.25, 215431.25, 0.00006978909, 10.002672, 9.997522 
3.501042e+1, 3.1571487e+2, 334149.94, -4642.866, 22016.563, -0.01730533, -0.38036826, 335574.72, 335574.72, 0.00025241746, 10.003011, 9.998518 
4.4990367e+1, 1.2571827e+2, -1984520.0, -1687470.5, -9653.995, 0.021354944, -0.49797714, -1687157.0, 20755.713, 0.000032724987, 9.997472, 10.001407 
4.499096e+1, 1.357196e+2, -1865836.4, -1638250.8, -1933.3105, 0.0013863064, -0.45379466, -1638234.4, -28335.088, 0.0000095173555, 9.997868, 10.000881 
4.499189e+1, 1.4571959e+2, -1727313.4, -1530070.8, 6187.8477, 0.0036037455, -0.5374313, -1529876.9, -17976.766, 0.00000089505704, 9.998185, 10.000795 
4.4992802e+1, 1.557211e+2, -1589412.3, -1411285.8, 6143.849, -0.005821076, -0.46891126, -1411074.1, 2812.619, 0.00000000008098328, 9.998452, 10.000809 
4.4993633e+1, 1.6572215e+2, -1452591.4, -1288622.0, -2987.8948, -0.009780334, -0.44715, -1288567.6, 27309.633, 0.0, 9.9986925, 10.000862 
4.499445e+1, 1.757227e+2, -1320935.5, -1172519.5, -5325.7354, -0.006667017, -0.48158893, -1172328.8, 45543.477, 0.0, 9.998916, 10.000878 
4.4995475e+1, 1.8572366e+2, -1194527.1, -1066121.8, -315.35925, 0.0028556562, -0.47125077, -1066121.0, 53743.36, 0.0, 9.999134, 10.000832 
4.4996646e+1, 1.95725e+2, -1065923.3, -954615.0, -4175.3657, 0.01592417, -0.42363018, -954458.56, 67395.13, 0.0, 9.99935, 10.000821 
4.499784e+1, 2.05726e+2, -952958.0, -885340.7, -659.5369, 0.01850386, -0.38692012, -885334.25, 38512.035, 0.0, 9.999607, 10.000499 
4.4999057e+1, 2.1572676e+2, -815162.8, -771764.9, -4725.3667, 0.013778721, -0.36403722, -771256.3, 54585.016, 0.0, 9.999895, 10.000467 
4.5000258e+1, 2.2572705e+2, -719994.25, -741370.5, -5885.6646, 0.005788751, -0.34878984, -718480.8, 9359.173, 0.0, 10.000161, 9.999874 
4.5001453e+1, 2.3572704e+2, -589226.25, -633146.25, -6821.3857, -0.0049549364, -0.3411827, -588191.2, 41650.0, 0.0, 10.00041, 9.999825 
4.5002884e+1, 2.4572653e+2, -511127.6, -638036.0, -5162.478, 0.0032417434, -0.32918003, -510917.94, 20929.156, 0.0, 10.000676, 9.99899 
4.50045e+1, 2.5572565e+2, -373688.88, -523305.1, -6791.655, 0.025475614, -0.317763, -373381.2, 60475.254, 0.0, 10.000957, 9.99897 
4.5005924e+1, 2.6572424e+2, -262243.8, -475534.22, -4707.6924, 0.021408303, -0.32907656, -262139.94, 73730.22, 0.0, 10.001293, 9.998463 
4.5007238e+1, 2.7572244e+2, -110544.71, -354185.75, -8119.2275, -0.0014654425, -0.35936737, -110274.445, 127612.38, 0.0, 10.001674, 9.99844 
4.5008847e+1, 2.8572068e+2, -1583.3717, -311098.6, -4188.113, -0.0035423837, -0.34937826, -1526.7119, 138375.64, 0.000000014278152, 10.002008, 9.997901 
4.5010653e+1, 2.9571897e+2, 139876.78, -193112.33, -4723.493, 0.0075875777, -0.31582654, 139943.77, 181860.98, 0.0000058442592, 10.002311, 9.997893 
4.5011926e+1, 3.0571508e+2, 201879.28, -180511.69, -16180.644, -0.018309418, -0.47035837, 202562.73, 202562.73, 0.0000661976, 10.002584, 9.997516 
4.5013264e+1, 3.1571367e+2, 305860.06, -22023.584, -2741.881, -0.025120972, -0.36209354, 305883.0, 305883.0, 0.00024196846, 10.002832, 9.998485 
5.498789e+1, 1.2571724e+2, -1983056.6, -1684831.3, 3937.8914, 0.025953334, -0.5116699, -1684779.3, 23143.158, 0.000024933155, 9.997474, 10.001425 
5.498876e+1, 1.3571872e+2, -1863862.6, -1633985.8, 12378.917, -0.0049195224, -0.4562084, -1633321.1, -23413.26, 0.000006388969, 9.997867, 10.000911 
5.4990035e+1, 1.4571874e+2, -1726448.4, -1528001.4, 16242.597, -0.0005814476, -0.53885925, -1526680.8, -14772.39, 0.00000045379167, 9.998184, 10.00081 
5.499128e+1, 1.5572019e+2, -1588783.6, -1410167.1, 16123.867, -0.003206048, -0.47816804, -1408723.3, 5172.078, 0.0, 9.998453, 10.000816 
5.4992354e+1, 1.6572121e+2, -1458267.4, -1300645.5, 5370.35, -0.00750248, -0.45488667, -1300462.6, 15423.432, 0.0, 9.998694, 10.000779 
5.499333e+1, 1.7572176e+2, -1327003.9, -1185085.1, 3031.1055, -0.0102364505, -0.48036587, -1185020.5, 32860.81, 0.0, 9.998916, 10.0007925 
5.4994595e+1, 1.8572262e+2, -1203137.3, -1083856.0, 7822.779, 0.0014392661, -0.4695036, -1083345.1, 36529.34, 0.0, 9.999133, 10.0007105 
5.499607e+1, 1.9572379e+2, -1074345.9, -972124.5, 4226.9707, 0.022932272, -0.4274548, -971950.0, 49915.348, 0.0, 9.99935, 10.0007 
5.499749e+1, 2.0572466e+2, -960427.4, -900918.5, 10268.715, 0.022594972, -0.39295936, -899196.4, 24663.01, 0.0, 9.999607, 10.000392 
5.499888e+1, 2.157253e+2, -822161.1, -786347.1, 6132.003, 0.0060565434, -0.37028244, -785326.3, 40529.56, 0.0, 9.999896, 10.000367 
5.5000377e+1, 2.2572565e+2, -721948.75, -745392.1, 3535.7573, 0.00086303387, -0.34425023, -721427.1, 6427.3613, 0.0, 10.000161, 9.999847 
5.500195e+1, 2.3572579e+2, -591360.44, -637445.0, 2666.0793, 0.0041594016, -0.31718326, -591206.7, 38647.57, 0.0, 10.00041, 9.999796 
5.500365e+1, 2.4572518e+2, -514661.9, -645198.3, 5393.522, 0.012045101, -0.3096036, -514439.44, 17421.48, 0.0, 10.000675, 9.998941 
5.500544e+1, 2.5572407e+2, -377438.4, -531064.25, 4059.8948, 0.02347444, -0.32052055, -377331.2, 56541.316, 0.0, 10.000957, 9.998917 
5.500714e+1, 2.657226e+2, -269607.97, -490874.03, 9587.117, 0.013522909, -0.3295113, -269193.34, 66693.66, 0.0, 10.001294, 9.998357 
5.5008805e+1, 2.757209e+2, -117423.95, -368401.8, 5879.618, -0.012225354, -0.33882383, -117286.28, 120617.08, 0.0, 10.001673, 9.9983425 
5.5010843e+1, 2.8571916e+2, -1415.0876, -310472.84, 7168.8833, -0.004820124, -0.321579, -1248.8881, 138669.98, 0.000000014996283, 10.0020075, 9.997906 
5.5013144e+1, 2.9571742e+2, 139835.16, -192848.72, 6579.461, 0.025512256, -0.29159766, 139965.22, 181899.2, 0.0000053587105, 10.00231, 9.997895 
5.501456e+1, 3.0571347e+2, 198861.11, -186684.08, -7000.8306, -0.012753241, -0.44897908, 198988.19, 198988.19, 0.00006167391, 10.0025835, 9.997473 
5.50159e+1, 3.1571203e+2, 300977.9, -32373.537, 9804.727, -0.045057084, -0.3414569, 301266.06, 301266.06, 0.00022898198, 10.002833, 9.998413 
6.498524e+1, 1.2571594e+2, -2019661.6, -1704605.1, -415.71738, 0.025305122, -0.52352417, -1704604.6, 3329.7065, 0.00001782932, 9.9972315, 10.001405 
6.4986604e+1, 1.3571754e+2, -1877890.5, -1641039.6, 5636.8022, -0.0028878937, -0.45666155, -1640905.5, -30986.213, 0.0000037958928, 9.997771, 10.000908 
6.4988226e+1, 1.4571759e+2, -1733436.1, -1527560.4, 1222.7339, 0.003970464, -0.5373893, -1527553.1, -15633.605, 0.0000001737419, 9.99812, 10.000843 
6.498969e+1, 1.5571901e+2, -1605261.4, -1415445.1, 2580.2795, -0.0009197467, -0.48320124, -1415410.0, -1503.5691, 0.0, 9.998329, 10.000839 
6.4991045e+1, 1.6572e+2, -1470477.0, -1317929.0, -5345.0273, -0.0062033227, -0.4590114, -1317742.0, -1844.3914, 0.0, 9.99866, 10.000677 
6.499234e+1, 1.7572051e+2, -1309028.4, -1187779.6, -9440.045, -0.0091200415, -0.47745034, -1187049.1, 30844.36, 0.0, 9.999088, 10.00069 
6.499384e+1, 1.8572128e+2, -1173366.9, -1079923.8, -8239.926, 0.0005713107, -0.46637845, -1079202.6, 40684.99, 0.0, 9.999383, 10.000617 
6.4995486e+1, 1.957223e+2, -1048004.8, -969816.9, -9863.859, 0.018863615, -0.42923477, -968591.7, 53288.137, 0.0, 9.999576, 10.0006075 
6.49971e+1, 2.0572306e+2, -949176.2, -905399.6, -2091.8518, 0.017365674, -0.39509374, -905299.9, 18574.906, 0.0, 9.999727, 10.000303 
6.49987e+1, 2.1572366e+2, -835169.4, -802524.4, -4569.167, 0.0010721106, -0.36946982, -801896.9, 23975.09, 0.0, 9.999849, 10.0002775 
6.5000504e+1, 2.2572394e+2, -734841.1, -763299.56, -5948.46, -0.000051511164, -0.34000832, -733647.8, -5776.3755, 0.0, 10.000123, 9.9997425 
6.500248e+1, 2.3572403e+2, -583459.4, -644696.1, -12797.48, 0.010393514, -0.30879295, -580892.5, 48979.715, 0.0, 10.000512, 9.999697 
6.500444e+1, 2.4572337e+2, -493152.38, -638119.0, -12971.119, 0.015772805, -0.3016673, -492000.9, 39878.52, 0.0, 10.000837, 9.998912 
6.500641e+1, 2.5572217e+2, -356488.8, -524429.56, -12717.568, 0.017419916, -0.31675905, -355531.22, 78360.195, 0.0, 10.001115, 9.998886 
6.500844e+1, 2.6572064e+2, -258351.11, -491856.03, -2444.9507, 0.00845345, -0.32624432, -258325.5, 77580.88, 0.0, 10.001399, 9.9983 
6.5010524e+1, 2.757189e+2, -119203.88, -375865.28, -2702.51, -0.008202186, -0.33296368, -119175.43, 118747.83, 0.0, 10.001689, 9.998283 
6.5012854e+1, 2.8571713e+2, -10484.371, -321725.8, -4204.1255, -0.0021527635, -0.31317517, -10427.594, 129511.805, 0.000000013847158, 10.001974, 9.997845 
6.501536e+1, 2.9571533e+2, 127608.695, -204824.56, -9749.701, 0.018753374, -0.28088853, 127894.39, 169849.61, 0.0000047556837, 10.002252, 9.997841 
6.501707e+1, 3.057114e+2, 198774.17, -184711.77, -22222.746, -0.02002179, -0.43855023, 200057.67, 200057.67, 0.00005639522, 10.002574, 9.997491 
6.5018874e+1, 3.1570995e+2, 314750.72, -27982.49, 2144.597, -0.03570375, -0.33225703, 314764.16, 314764.16, 0.00021376522, 10.002937, 9.998393 
7.49824e+1, 1.2571439e+2, -2023852.9, -1713231.1, 18969.354, 0.018413901, -0.53488487, -1712077.0, -4128.441, 0.000012032456, 9.9972315, 10.001347 
7.498447e+1, 1.3571607e+2, -1880434.6, -1646587.3, 25032.555, 0.0063270754, -0.45541838, -1643937.6, -34003.9, 0.000001957589, 9.997772, 10.00087 
7.4986476e+1, 1.4571616e+2, -1729742.9, -1520029.1, 8954.583, 0.016357323, -0.5329157, -1519647.4, -7713.7847, 0.00000004027787, 9.99812, 10.000895 
7.4988043e+1, 1.5571758e+2, -1602629.0, -1409838.3, 10879.629, 0.00081055047, -0.48408136, -1409226.1, 4693.9746, 0.0, 9.998328, 10.000878 
7.49897e+1, 1.6571853e+2, -1479097.1, -1335704.8, 10799.487, -0.0061025643, -0.4596868, -1334896.0, -18984.23, 0.0, 9.99866, 10.000555 
7.499149e+1, 1.7571896e+2, -1317223.3, -1204901.6, 6153.301, -0.003896602, -0.47312078, -1204565.5, 13343.142, 0.0, 9.999089, 10.000573 
7.4993217e+1, 1.8571964e+2, -1177997.3, -1089588.4, -977.67096, -0.00016147461, -0.4619891, -1089577.5, 30326.318, 0.0, 9.999383, 10.00055 
7.499491e+1, 1.9572055e+2, -1052680.0, -979499.6, -2756.7385, 0.0036740038, -0.4289286, -979395.94, 42501.08, 0.0, 9.999576, 10.000541 
7.4996686e+1, 2.0572127e+2, -954184.6, -915754.5, 2516.014, 0.002743666, -0.3932772, -915590.5, 8301.918, 0.0, 9.999727, 10.000233 
7.499852e+1, 2.1572185e+2, -840713.75, -813959.56, 771.62976, -0.0014456289, -0.3615675, -813937.3, 11952.268, 0.0, 9.999849, 10.000199 
7.5000656e+1, 2.2572196e+2, -747654.7, -789808.1, 8765.048, 0.0027382476, -0.33597937, -745904.8, -18013.91, 0.0, 10.000123, 9.99956 
7.500302e+1, 2.3572174e+2, -595289.7, -669295.6, 1609.2965, 0.013383626, -0.31603292, -595254.75, 34640.223, 0.0, 10.000512, 9.999528 
7.5005263e+1, 2.4572104e+2, -493800.1, -639492.25, -2490.8518, 0.014196478, -0.30548722, -493757.53, 38145.195, 0.0, 10.000837, 9.998903 
7.500742e+1, 2.5571996e+2, -357149.53, -525696.2, -2261.929, 0.007132098, -0.30656946, -357119.2, 76794.0, 0.0, 10.001115, 9.998878 
7.500981e+1, 2.6571837e+2, -259050.34, -493134.47, 8432.612, 0.006023543, -0.31923088, -258746.95, 77181.33, 0.0, 10.001398, 9.998291 
7.50124e+1, 2.7571648e+2, -120652.73, -378707.7, 8255.183, 0.010388421, -0.3417476, -120388.91, 117557.59, 0.0, 10.001689, 9.998264 
7.5014895e+1, 2.8571463e+2, -19417.375, -340235.97, 6161.6494, 0.0042749364, -0.32414484, -19299.076, 120664.84, 0.000000011324871, 10.001974, 9.997718 
7.5017285e+1, 2.957128e+2, 119939.54, -220785.11, 733.7016, -0.013034326, -0.28367057, 119941.125, 161922.03, 0.000004098041, 10.002252, 9.997732 
7.501944e+1, 3.0570886e+2, 204230.63, -173238.31, -8734.429, -0.040495906, -0.43896526, 204432.63, 204432.63, 0.000050636227, 10.002574, 9.99757 
7.5022197e+1, 3.1570747e+2, 316824.44, -23358.479, 18401.11, 0.0023696283, -0.3343937, 317816.88, 317816.88, 0.00019685416, 10.002936, 9.998425 
8.4979546e+1, 1.2571244e+2, -2026460.1, -1718966.8, -4533.4136, 0.010213512, -0.53427833, -1718900.0, -10932.743, 0.000007783007, 9.997233, 10.001306 
8.498206e+1, 1.3571408e+2, -1918369.3, -1667119.9, 3644.5437, 0.0017137368, -0.4570081, -1667067.0, -57113.805, 0.0000008582932, 9.997522, 10.00085 
8.49845e+1, 1.4571418e+2, -1757221.9, -1531373.1, -15228.498, 0.01677661, -0.53369117, -1530350.9, -18397.719, 0.00000000288778, 9.997924, 10.000912 
8.4986424e+1, 1.557156e+2, -1588316.0, -1401373.6, -16110.186, 0.0020168477, -0.48370415, -1399995.5, 13943.804, 0.0, 9.99842, 10.000892 
8.498843e+1, 1.6571656e+2, -1466857.3, -1331441.0, -13895.308, -0.004407639, -0.45932132, -1330029.9, -14099.077, 0.0, 9.998752, 10.00054 
8.499053e+1, 1.7571698e+2, -1337698.3, -1217034.3, -10975.436, -0.0012450909, -0.47355378, -1216044.0, 1883.8198, 0.0, 9.99896, 10.000552 
8.499251e+1, 1.8571757e+2, -1210713.9, -1114926.3, -18628.537, -0.00068413053, -0.4643709, -1111431.0, 8492.882, 0.0, 9.999201, 10.000464 
8.4994364e+1, 1.9571836e+2, -1074147.5, -999135.8, -21820.36, -0.003519443, -0.43425238, -993250.25, 28668.004, 0.0, 9.999469, 10.000457 
8.4996384e+1, 2.0571905e+2, -950818.5, -922114.8, -16946.385, -0.003326199, -0.39519808, -914259.56, 9654.565, 0.0, 9.999785, 10.000161 
8.499853e+1, 2.1571966e+2, -804037.94, -804826.2, -18782.959, -0.00026254405, -0.3549707, -785644.94, 40266.184, 0.0, 10.000138, 10.000123 
8.5000914e+1, 2.2571962e+2, -721566.0, -792919.5, -8065.874, 0.0042016692, -0.3314256, -720665.56, 7248.197, 0.0, 10.00037, 9.99942 
8.5003495e+1, 2.3571916e+2, -605019.2, -688789.8, -12067.033, 0.009873669, -0.32162908, -603315.6, 26604.684, 0.0, 10.000509, 9.999395 
8.500602e+1, 2.4571837e+2, -507058.47, -651453.3, -14671.138, 0.009687644, -0.3109617, -505582.88, 26346.064, 0.0, 10.00077, 9.998853 
8.5008514e+1, 2.5571734e+2, -359336.34, -532168.06, -17599.56, 0.0044907825, -0.30407432, -357562.38, 76376.766, 0.0, 10.001122, 9.998829 
8.501121e+1, 2.6571572e+2, -257007.89, -495133.78, -10321.259, 0.004758679, -0.31696478, -256561.36, 79393.195, 0.0, 10.001425, 9.998265 
8.501408e+1, 2.757137e+2, -122855.44, -382785.44, -11728.172, 0.01040142, -0.34629962, -122327.336, 115646.26, 0.0, 10.001686, 9.998238 
8.501686e+1, 2.8571185e+2, -19266.113, -343171.63, -8760.821, 0.0025711122, -0.32725888, -19029.328, 120961.984, 0.000000007967864, 10.001987, 9.997692 
8.5019517e+1, 2.957101e+2, 128715.336, -218745.38, -6761.2344, -0.01920777, -0.27807227, 128846.85, 170854.95, 0.0000034232567, 10.002321, 9.997713 
8.5021955e+1, 3.057062e+2, 206919.89, -164904.22, -15074.437, -0.045310147, -0.4295418, 207530.03, 207530.03, 0.00004462947, 10.002562, 9.997633 
8.502513e+1, 3.1570488e+2, 287362.44, -36769.56, 13679.6875, 0.013235553, -0.32584286, 287938.78, 287938.78, 0.00017880679, 10.002729, 9.998432 
9.497667e+1, 1.257101e+2, -2027878.6, -1721906.6, 5383.637, -0.0014795482, -0.52181786, -1721812.0, -13821.55, 0.0000050394015, 9.997232, 10.001286 
9.49794e+1, 1.3571157e+2, -1918292.6, -1667305.5, 14801.061, -0.017095245, -0.46193424, -1666435.6, -56457.84, 0.00000033786506, 9.997523, 10.000848 
9.498231e+1, 1.4571165e+2, -1758431.4, -1534025.1, 3354.8303, 0.004873619, -0.5402303, -1533975.0, -21996.889, 0.0, 9.997925, 10.000893 
9.498485e+1, 1.5571314e+2, -1589202.1, -1403154.9, 1756.181, 0.0016653128, -0.48251355, -1403138.4, 10825.499, 0.0, 9.99842, 10.00088 
9.4987196e+1, 1.6571411e+2, -1460671.0, -1318480.9, -6097.954, -0.001959096, -0.4582365, -1318219.9, -2265.1145, 0.0, 9.998751, 10.000628 
9.4989496e+1, 1.7571457e+2, -1332477.0, -1206176.4, -3009.263, -0.001395487, -0.47886342, -1206104.6, 11846.267, 0.0, 9.998959, 10.000627 
9.49917e+1, 1.8571511e+2, -1218105.3, -1130269.0, -8522.227, -0.0012360208, -0.47360218, -1129449.8, -9502.262, 0.0, 9.999201, 10.000359 
9.4993836e+1, 1.9571577e+2, -1081306.3, -1013982.56, -11446.29, -0.0030990306, -0.4452994, -1012089.7, 9853.837, 0.0, 9.999469, 10.000355 
9.4996184e+1, 2.0571642e+2, -955972.2, -932817.9, -3602.4321, -0.001099225, -0.40088877, -932270.4, -8330.457, 0.0, 9.999785, 10.000087 
9.499871e+1, 2.1571705e+2, -809303.0, -815797.1, -5983.4116, 0.0043704133, -0.34959948, -805742.4, 20194.22, 0.0, 10.000138, 10.000048 
9.500129e+1, 2.2571693e+2, -728590.4, -807483.94, -2839.714, 0.004155963, -0.3262758, -728488.25, -548.23535, 0.0, 10.00037, 9.99932 
9.500391e+1, 2.357163e+2, -611919.6, -703030.0, -6258.847, -0.0002325198, -0.3257312, -611491.7, 18456.563, 0.0, 10.000508, 9.999297 
9.5006716e+1, 2.4571536e+2, -513313.06, -664401.44, -1373.3226, 0.0021121548, -0.31815934, -513300.56, 18657.615, 0.0, 10.00077, 9.998764 
9.5009685e+1, 2.5571427e+2, -365437.13, -544850.4, -4507.478, 0.009169066, -0.3091469, -365323.97, 68645.31, 0.0, 10.001122, 9.998742 
9.501263e+1, 2.6571262e+2, -260089.84, -501559.66, -477.82935, 0.00442246, -0.3193535, -260088.9, 75896.29, 0.0, 10.001425, 9.998221 
9.501558e+1, 2.757106e+2, -125193.734, -387606.84, -1754.7457, -0.008376831, -0.34665358, -125182.0, 112822.5, 0.0, 10.001686, 9.998205 
9.5018744e+1, 2.857088e+2, -14015.2705, -332164.78, 3703.7527, -0.0075528813, -0.32262996, -13972.158, 126049.38, 0.0000000042394483, 10.001987, 9.997767 
9.502203e+1, 2.957072e+2, 133547.67, -208438.73, 5236.6426, 0.000047054957, -0.26443753, 133627.84, 175664.63, 0.000002739973, 10.00232, 9.997784 
9.502463e+1, 3.0570343e+2, 210231.28, -157713.8, -8933.173, -0.034585517, -0.41058296, 210448.03, 210448.03, 0.000038513957, 10.002561, 9.997684 
9.50277e+1, 3.1570214e+2, 286219.94, -38914.72, 22570.617, -0.003872571, -0.30678704, 287779.28, 287779.28, 0.00016003304, 10.002728, 9.998418 
1.0497368e+2, 1.2570718e+2, -2050233.4, -1726923.9, -19764.354, -0.014499838, -0.51324743, -1725720.1, -17700.525, 0.0000035788082, 9.997055, 10.001337 
1.049769e+2, 1.3570864e+2, -1903713.3, -1653070.4, -4807.7817, -0.02369924, -0.46088544, -1652978.3, -42971.8, 0.000000177014, 9.997593, 10.000912 
1.04980215e+2, 1.4570871e+2, -1760188.5, -1537564.0, -16809.365, 0.0037000326, -0.5416766, -1536302.0, -24295.307, 0.0, 9.997925, 10.000869 
1.04983106e+2, 1.5571016e+2, -1635972.9, -1427521.5, -19120.486, 0.001776922, -0.485748, -1425782.1, -11788.968, 0.0, 9.998107, 10.000863 
1.0498579e+2, 1.657112e+2, -1503668.9, -1327228.3, -27901.191, -0.00095594546, -0.46042842, -1322921.4, -6937.8887, 0.0, 9.9984045, 10.000735 
1.0498838e+2, 1.757118e+2, -1350894.4, -1204242.0, -23424.02, 0.00028168844, -0.4776327, -1200591.5, 17386.373, 0.0, 9.998786, 10.000723 
1.0499089e+2, 1.8571232e+2, -1227239.4, -1139993.9, -25039.477, -0.00030170206, -0.47479406, -1133318.3, -13343.967, 0.0, 9.999161, 10.000311 
1.0499332e+2, 1.9571288e+2, -1075445.1, -1016605.06, -23954.164, -0.0038484703, -0.45361727, -1008086.5, 13885.058, 0.0, 9.999533, 10.000306 
1.04995966e+2, 2.0571348e+2, -960238.44, -942081.5, -16013.448, -0.0019023868, -0.40789258, -932752.1, -8783.687, 0.0, 9.999787, 10.000023 
1.0499877e+2, 2.1571413e+2, -841022.06, -838179.8, -17704.328, 0.0046985443, -0.3484881, -821839.6, 4125.445, 0.0, 9.999951, 9.999984 
1.05001576e+2, 2.2571392e+2, -750001.94, -825993.56, -12431.157, 0.0020761692, -0.3267788, -748020.06, -20050.775, 0.0, 10.0002575, 9.999247 
1.05004415e+2, 2.3571312e+2, -593248.5, -702300.75, -13852.597, -0.0075361975, -0.33554927, -591516.4, 38462.523, 0.0, 10.000672, 9.999224 
1.0500752e+2, 2.4571215e+2, -487216.28, -660337.44, -6980.0337, -0.0044255503, -0.3258564, -486935.28, 45054.152, 0.0, 10.000985, 9.998689 
1.05010845e+2, 2.5571105e+2, -356233.66, -548471.06, -9351.121, 0.007993394, -0.3058414, -355779.84, 78220.76, 0.0, 10.001221, 9.998671 
1.0501403e+2, 2.6570937e+2, -257650.05, -503167.4, -5587.15, 0.0005302467, -0.31454885, -257522.97, 78493.914, 0.0, 10.001452, 9.998198 
1.0501713e+2, 2.7570727e+2, -127468.8, -391197.75, -5263.4243, -0.021067845, -0.347478, -127363.8, 110672.96, 0.0, 10.00168, 9.998183 
1.0502062e+2, 2.8570545e+2, -21476.605, -334724.88, -47.580196, -0.015582926, -0.32610434, -21476.598, 118577.44, 0.0000000012344323, 10.001931, 9.997777 
1.05024345e+2, 2.9570386e+2, 116566.016, -215315.42, -3554.732, 0.0065587964, -0.26808247, 116604.086, 158673.36, 0.0000020653147, 10.002196, 9.997797 
1.0502718e+2, 3.0570018e+2, 204088.67, -152763.47, -21007.643, -0.031755183, -0.4107728, 205321.13, 205321.13, 0.00003243676, 10.002483, 9.997755 
1.050304e+2, 3.1569898e+2, 294859.78, -34152.453, 14361.121, -0.008434778, -0.30617425, 295485.44, 295485.44, 0.00014091349, 10.002786, 9.998424 
1.1497059e+2, 1.2570369e+2, -2041567.8, -1709361.1, -290.22232, -0.029437056, -0.5088928, -1709360.9, -1306.0464, 0.000003050449, 9.997057, 10.001456 
1.14974536e+2, 1.3570532e+2, -1895036.4, -1634381.5, 14329.021, -0.01937, -0.45463434, -1633596.1, -23557.135, 0.00000018630364, 9.99759, 10.001041 
1.14978224e+2, 1.457054e+2, -1762866.4, -1542621.4, -9890.386, 0.011970133, -0.5387311, -1542178.1, -30139.182, 0.0000000000835116, 9.997923, 10.000835 
1.1498122e+2, 1.5570669e+2, -1637460.8, -1430961.3, -11620.38, 0.0016407013, -0.4936817, -1430309.4, -16281.978, 0.0, 9.998109, 10.000839 
1.14984185e+2, 1.6570783e+2, -1494747.9, -1308880.8, -13587.709, -0.0018296605, -0.4659827, -1307892.6, 8124.285, 0.0, 9.9984045, 10.000861 
1.14987195e+2, 1.7570868e+2, -1342815.4, -1187184.9, -9083.342, 0.0033496602, -0.4699034, -1186656.5, 31352.045, 0.0, 9.998785, 10.00084 
1.1499007e+2, 1.8570924e+2, -1226854.3, -1138947.3, -11002.65, 0.001802394, -0.46806255, -1137591.0, -17586.729, 0.0, 9.99916, 10.000319 
1.14992835e+2, 1.9570969e+2, -1075214.6, -1016131.06, -10419.801, -0.0059382184, -0.45939675, -1014347.3, 7655.0317, 0.0, 9.999533, 10.000309 
1.1499571e+2, 2.0571023e+2, -964182.94, -950277.44, -9825.117, -0.005901298, -0.4162612, -945193.8, -21194.074, 0.0, 9.999787, 9.999967 
1.14998676e+2, 2.1571088e+2, -844800.6, -846032.4, -10834.171, 0.00058354106, -0.35167846, -834564.8, -8568.211, 0.0, 9.999951, 9.999929 
1.1500179e+2, 2.257106e+2, -753289.0, -832823.8, 3181.2705, -0.0021736927, -0.33300823, -753161.94, -25160.469, 0.0, 10.0002575, 9.9992 
1.15005046e+2, 2.3570964e+2, -596787.5, -709537.4, 1319.1207, -0.012256672, -0.35088998, -596772.06, 33240.035, 0.0, 10.000671, 9.999174 
1.1500845e+2, 2.4570869e+2, -491743.9, -669657.56, 1881.0618, -0.0101686055, -0.33385104, -491724.0, 40298.72, 0.0, 10.000985, 9.998625 
1.1501199e+2, 2.5570774e+2, -360295.4, -556822.06, -469.77148, 0.0008324379, -0.29427332, -360294.28, 73738.91, 0.0, 10.00122, 9.998613 
1.150154e+2, 2.6570606e+2, -257878.64, -503602.9, 2927.8594, -0.0069947504, -0.30267078, -257843.77, 78205.89, 0.0, 10.001452, 9.998194 
1.15018755e+2, 2.757038e+2, -128125.664, -392583.78, 3383.5928, -0.02777042, -0.34887797, -128082.38, 109987.97, 0.0, 10.00168, 9.998174 
1.1502249e+2, 2.8570184e+2, -25238.912, -342568.56, 9927.067, -0.021665163, -0.3377076, -24928.666, 115160.11, 0.00000000006210851, 10.001931, 9.997724 
1.1502648e+2, 2.957001e+2, 113619.51, -221430.0, 6557.947, 0.00013195438, -0.28871387, 113747.81, 155853.27, 0.0000014487281, 10.002196, 9.997755 
1.150296e+2, 3.0569646e+2, 210368.67, -139469.77, -9722.316, -0.037106108, -0.42982027, 210638.66, 210638.66, 0.000026628812, 10.002482, 9.997847 
1.1503326e+2, 3.1569538e+2, 296029.13, -31148.602, 27690.67, -0.0011809255, -0.3239964, 298356.16, 298356.16, 0.00012196141, 10.002783, 9.9984455 
1.24967724e+2, 1.2569988e+2, -2032002.0, -1695348.0, -15297.481, -0.022328734, -0.49904746, -1694654.3, 13438.886, 0.0000030832873, 9.997083, 10.00154 
1.24971986e+2, 1.3570155e+2, -1928837.8, -1638874.5, -3257.063, -0.018186131, -0.4497951, -1638838.0, -28761.666, 0.0000002714346, 9.997307, 10.001147 
1.2497597e+2, 1.4570172e+2, -1809983.8, -1555867.4, -28736.771, 0.013105749, -0.5352779, -1552658.3, -40582.98, 0.0000000011616538, 9.997558, 10.00092 
1.2497923e+2, 1.5570308e+2, -1673191.0, -1439134.6, -20990.943, 0.00573792, -0.49278426, -1437267.0, -23203.98, 0.0, 9.997824, 10.00092 
1.2498251e+2, 1.6570424e+2, -1520599.0, -1317521.9, -15848.184, 0.0009186667, -0.46620986, -1316292.6, -240.43866, 0.0, 9.998211, 10.0008955 
1.2498592e+2, 1.7570513e+2, -1353925.0, -1188746.5, -18663.805, 0.0013664847, -0.46951115, -1186663.9, 31379.504, 0.0, 9.9986925, 10.0008745 
1.24989145e+2, 1.8570575e+2, -1241306.6, -1141609.5, -26488.309, -0.0008102845, -0.46714017, -1135008.9, -14970.327, 0.0, 9.999042, 10.000357 
1.2499225e+2, 1.9570623e+2, -1108479.8, -1028580.9, -23702.031, -0.0059140017, -0.4580809, -1022078.8, -42.81932, 0.0, 9.999289, 10.000341 
1.2499542e+2, 2.0570676e+2, -989189.3, -968115.3, -22317.322, -0.006889126, -0.41705397, -953972.56, -29938.908, 0.0, 9.99964, 9.999914 
1.2499864e+2, 2.1570729e+2, -830440.25, -844578.1, -22925.385, -0.004307151, -0.35698593, -813518.7, 12512.78, 0.0, 10.000073, 9.999881 
1.2500209e+2, 2.2570695e+2, -731445.0, -824250.1, -5948.776, -0.006816226, -0.3412387, -731065.25, -3028.4866, 0.0, 10.000416, 9.999183 
1.250057e+2, 2.3570597e+2, -595638.3, -711195.5, -5847.704, -0.013513761, -0.36049902, -595343.1, 34704.27, 0.0, 10.0006895, 9.999154 
1.2500939e+2, 2.4570502e+2, -500080.16, -680261.7, -7359.3467, -0.013231918, -0.33930722, -499780.06, 32278.105, 0.0, 10.000956, 9.998566 
1.2501313e+2, 2.557041e+2, -364811.2, -565022.25, -9308.118, -0.0079681445, -0.2912421, -364379.38, 69689.51, 0.0, 10.001215, 9.99856 
1.2501678e+2, 2.6570237e+2, -251218.03, -499216.75, -4772.8315, -0.016512657, -0.3013171, -251126.22, 84959.445, 0.0, 10.001493, 9.998205 
1.2502041e+2, 2.7570003e+2, -112539.195, -384314.25, -3197.707, -0.03417862, -0.3573584, -112501.57, 125605.19, 0.0, 10.001784, 9.998181 
1.2502444e+2, 2.8569803e+2, -6569.7827, -336222.47, 5696.4653, -0.025915666, -0.35065484, -6471.376, 133654.05, 0.0, 10.00207, 9.997701 
1.2502871e+2, 2.9569623e+2, 134336.13, -213568.5, 4456.3154, -0.002913747, -0.3014464, 134393.2, 176535.36, 0.00000094519226, 10.002348, 9.997736 
1.2503208e+2, 3.056926e+2, 225908.77, -130429.33, -14800.1455, -0.042006694, -0.44119662, 226522.42, 226522.42, 0.000021325412, 10.002583, 9.997861 
1.2503605e+2, 3.1569147e+2, 291920.78, -39799.91, 18878.0, -0.0006846328, -0.34321234, 292991.66, 292991.66, 0.00010374891, 10.002784, 9.998386 
1.349651e+2, 1.2569574e+2, -2028969.8, -1688703.6, -7214.8784, 0.006573431, -0.4839776, -1688550.6, 19584.24, 0.0000033913916, 9.997081, 10.001587 
1.3496926e+2, 1.3569738e+2, -1922688.0, -1627006.3, 5502.0767, -0.021138823, -0.4459318, -1626904.0, -16785.557, 0.00000039333747, 9.997311, 10.001227 
1.3497347e+2, 1.4569768e+2, -1795249.4, -1525662.3, -18911.615, 0.006090955, -0.53101206, -1524342.1, -12226.676, 0.0000000035362315, 9.99756, 10.001126 
1.3497713e+2, 1.5569931e+2, -1660417.0, -1411876.4, -10520.0205, 0.013518834, -0.48322067, -1411431.9, 2668.1697, 0.0, 9.997821, 10.001109 
1.3498078e+2, 1.6570047e+2, -1525052.5, -1326269.8, 2397.217, 0.0068511856, -0.46144953, -1326240.9, -10151.843, 0.0, 9.998209, 10.000836 
1.3498452e+2, 1.7570119e+2, -1357386.4, -1196107.9, -943.32996, -0.0063182814, -0.47690856, -1196102.4, 21979.988, 0.0, 9.9986925, 10.000824 
1.3498811e+2, 1.8570185e+2, -1236338.5, -1131434.0, -17181.951, -0.008596367, -0.47214606, -1128691.6, -8614.294, 0.0, 9.9990425, 10.000426 
1.3499156e+2, 1.9570252e+2, -1104291.5, -1019874.4, -13904.439, -0.003974955, -0.44939333, -1017643.2, 4429.2905, 0.0, 9.999289, 10.0004015 
1.3499507e+2, 2.0570303e+2, -992570.8, -975147.44, -6009.7637, -0.005062991, -0.41021004, -973275.56, -49205.465, 0.0, 9.99964, 9.9998665 
1.3499865e+2, 2.1570338e+2, -833510.75, -850932.0, -6986.1226, -0.010169726, -0.36444646, -831055.3, -4985.6387, 0.0, 10.000073, 9.999838 
1.3500243e+2, 2.25703e+2, -730699.25, -822633.94, 4344.7793, -0.01205432, -0.3514437, -730494.4, -2419.257, 0.0, 10.000416, 9.999194 
1.3500643e+2, 2.3570208e+2, -595134.75, -710064.5, 4465.983, -0.011548227, -0.36444837, -594961.44, 35123.313, 0.0, 10.000689, 9.999163 
1.3501035e+2, 2.4570112e+2, -503895.88, -688101.8, 2332.4905, -0.0137556465, -0.34224135, -503866.34, 28229.41, 0.0, 10.000956, 9.998512 
1.3501424e+2, 2.557001e+2, -368306.72, -572252.9, 526.1222, -0.018535858, -0.29669768, -368305.38, 65802.31, 0.0, 10.001215, 9.99851 
1.3501815e+2, 2.6569834e+2, -249483.33, -495631.78, 6199.566, -0.028262144, -0.31054032, -249327.28, 86797.61, 0.0, 10.001493, 9.998229 
1.3502213e+2, 2.7569598e+2, -110813.85, -380704.53, 7855.528, -0.04051731, -0.3727387, -110585.4, 127560.54, 0.0, 10.001783, 9.998206 
1.3502648e+2, 2.8569397e+2, -6139.297, -335265.94, 16136.529, -0.028575893, -0.36476547, -5350.0425, 134813.92, 0.0, 10.00207, 9.997707 
1.3503107e+2, 2.9569232e+2, 134379.33, -213313.84, 14655.937, -0.0029103837, -0.30650076, 134996.02, 177175.4, 0.0000005800232, 10.002348, 9.997738 
1.3503462e+2, 3.0568868e+2, 221600.89, -139082.78, -7306.1436, -0.046806738, -0.4452423, 221748.83, 221748.83, 0.000016654767, 10.002582, 9.997802 
1.3503876e+2, 3.156873e+2, 282215.4, -59448.78, 28257.729, -0.007577847, -0.3641951, 284536.72, 284536.72, 0.00008670888, 10.002781, 9.998253 
1.4496227e+2, 1.2569144e+2, -2056514.9, -1701603.0, -8165.1113, 0.024440063, -0.47263387, -1701415.3, 6762.4697, 0.000003766588, 9.99689, 10.001591 
1.4496656e+2, 1.3569303e+2, -1951139.9, -1637131.6, 2088.8438, -0.013047705, -0.44167832, -1637117.8, -26956.084, 0.00000052701, 9.9971, 10.001259 
1.4497101e+2, 1.456934e+2, -1806943.9, -1522367.1, -24754.172, 0.0104340445, -0.5260445, -1520229.9, -8071.949, 0.000000006774009, 9.99744, 10.001206 
1.44975e+2, 1.5569513e+2, -1647556.9, -1397481.8, -25890.977, 0.017840901, -0.4763868, -1394829.3, 19311.977, 0.0, 9.997873, 10.001183 
1.4497901e+2, 1.6569634e+2, -1523443.6, -1325086.1, -13367.741, 0.00938122, -0.45420521, -1324189.4, -8059.3955, 0.0, 9.998218, 10.000841 
1.4498313e+2, 1.7569706e+2, -1386649.1, -1209427.5, -12225.299, -0.0066768965, -0.46997514, -1208588.1, 9535.555, 0.0, 9.998488, 10.000832 
1.4498705e+2, 1.8569773e+2, -1260143.1, -1135364.3, -28008.49, -0.009254074, -0.4651791, -1129365.8, -9247.663, 0.0, 9.998846, 10.000495 
1.4499085e+2, 1.956985e+2, -1102400.5, -1012218.7, -24645.168, -0.0032359194, -0.4422646, -1005923.06, 16189.157, 0.0, 9.999272, 10.000462 
1.4499475e+2, 2.0569895e+2, -987731.6, -976449.6, -13003.046, -0.0040319036, -0.4072046, -967916.7, -43806.72, 0.0, 9.999689, 9.999834 
1.4499873e+2, 2.1569923e+2, -831768.06, -853197.44, -13366.932, -0.009510834, -0.3685218, -825351.5, 758.9923, 0.0, 10.000098, 9.999809 
1.4500284e+2, 2.2569884e+2, -737109.44, -822461.56, -8224.75, -0.011846866, -0.35483745, -736324.06, -8208.326, 0.0, 10.000358, 9.999223 
1.4500701e+2, 2.3569803e+2, -620508.8, -719446.4, -6419.2437, -0.011742783, -0.36147156, -620094.06, 10030.263, 0.0, 10.000503, 9.999188 
1.450112e+2, 2.4569702e+2, -528151.94, -702243.2, -2163.462, -0.016359415, -0.34322783, -528125.06, 4010.5852, 0.0, 10.0008, 9.99849 
1.4501537e+2, 2.5569588e+2, -370145.38, -575570.3, -1693.2439, -0.025265247, -0.30939686, -370131.4, 64017.47, 0.0, 10.001213, 9.998488 
1.4501962e+2, 2.656941e+2, -240969.38, -493083.16, 1724.8053, -0.03341498, -0.31975955, -240957.58, 95208.414, 0.0, 10.001558, 9.998216 
1.4502396e+2, 2.756919e+2, -102613.81, -377891.0, 278.17715, -0.039589502, -0.3671841, -102613.53, 135572.31, 0.0, 10.001845, 9.998196 
1.4502858e+2, 2.8568986e+2, -1937.9148, -332642.66, 5947.5435, -0.028490217, -0.36274865, -1830.9861, 138373.08, 0.0, 10.002097, 9.997712 
1.4503334e+2, 2.9568803e+2, 130731.92, -214816.2, 4432.7046, -0.00910834, -0.32106373, 130788.77, 173009.45, 0.00000034163278, 10.002321, 9.997741 
1.4503708e+2, 3.0568445e+2, 218773.22, -141713.23, -16660.127, -0.057013758, -0.4524077, 219541.55, 219541.55, 0.000012640429, 10.002567, 9.99779 
1.4504154e+2, 3.1568313e+2, 281437.7, -69765.19, 23689.885, -0.010275572, -0.36204785, 283028.44, 283028.44, 0.000071064576, 10.002819, 9.998163 
1.5495922e+2, 1.2568699e+2, -2058946.1, -1706949.5, -653.40515, 0.029630974, -0.46466908, -1706948.3, 1273.4294, 0.000004107076, 9.996891, 10.001554 
1.5496384e+2, 1.3568853e+2, -1952486.0, -1639250.4, 10678.551, 0.005755112, -0.43742225, -1638886.8, -28680.555, 0.00000065226897, 9.997097, 10.0012455 
1.549686e+2, 1.4568888e+2, -1810702.3, -1529642.1, -8246.753, 0.02585745, -0.5206747, -1529400.4, -17197.54, 0.000000011338887, 9.997438, 10.001158 
1.5497288e+2, 1.5569054e+2, -1650405.1, -1403671.8, -9804.427, 0.017851248, -0.47214642, -1403282.8, 10904.092, 0.0, 9.997874, 10.00114 
1.5497722e+2, 1.6569182e+2, -1518678.3, -1315368.1, -3233.6255, 0.0077280574, -0.4441383, -1315316.8, 858.29846, 0.0, 9.998218, 10.000907 
1.5498167e+2, 1.7569272e+2, -1382174.0, -1199920.5, -1651.6636, 0.000083546416, -0.44829485, -1199905.5, 18261.69, 0.0, 9.998487, 10.000897 
1.5498596e+2, 1.8569346e+2, -1255607.3, -1125764.8, -11937.539, -0.00295877, -0.44616434, -1124676.4, -4515.3374, 0.0, 9.998845, 10.000562 
1.549901e+2, 1.9569413e+2, -1098020.8, -1003183.75, -8570.45, -0.0039894655, -0.43700838, -1002415.44, 19739.867, 0.0, 9.999272, 10.0005245 
1.5499443e+2, 2.0569457e+2, -988915.06, -978972.75, 2423.4314, -0.0039595445, -0.40812862, -978413.5, -54260.203, 0.0, 9.999689, 9.999817 
1.549989e+2, 2.156948e+2, -832680.6, -855085.25, 1443.8582, -0.0025419705, -0.36907345, -832587.94, -6433.981, 0.0, 10.000098, 9.999797 
1.5500325e+2, 2.2569449e+2, -733845.75, -815662.2, -2865.4211, -0.006410141, -0.35136476, -733745.5, -5586.8516, 0.0, 10.000358, 9.9992695 
1.550075e+2, 2.3569377e+2, -617417.9, -713029.5, -310.02682, -0.014229582, -0.35158312, -617416.8, 12749.232, 0.0, 10.000503, 9.999232 
1.5501195e+2, 2.456927e+2, -527527.25, -700968.0, 13386.164, -0.021210318, -0.34230527, -526500.2, 5677.5156, 0.0, 10.0008, 9.998499 
1.5501656e+2, 2.5569135e+2, -369848.38, -574889.6, 13675.779, -0.028398769, -0.32922152, -368940.25, 65252.234, 0.0, 10.001212, 9.998493 
1.5502119e+2, 2.6568967e+2, -244786.89, -500897.78, 12547.324, -0.032187432, -0.328845, -244173.64, 92035.32, 0.0, 10.001558, 9.998162 
1.5502588e+2, 2.7568775e+2, -105977.24, -384829.4, 10906.064, -0.031800423, -0.34097764, -105551.35, 132675.19, 0.0, 10.001845, 9.998148 
1.550307e+2, 2.856856e+2, -1595.1915, -331969.97, 14400.694, -0.025934126, -0.34492403, -968.66833, 139277.11, 0.0, 10.002097, 9.997717 
1.5503554e+2, 2.9568338e+2, 131014.56, -214189.86, 13249.096, -0.021357007, -0.34497568, 131522.33, 173788.25, 0.00000019535571, 10.002321, 9.997745 
1.5503949e+2, 3.0567998e+2, 220939.06, -137020.56, -7127.078, -0.07269258, -0.4624622, 221080.9, 221080.9, 0.000009261703, 10.002566, 9.997823 
1.5504436e+2, 3.1567904e+2, 277780.78, -77035.71, 34548.97, -0.01011679, -0.33653194, 281113.56, 281113.56, 0.000056915687, 10.002817, 9.998114 
1.6495624e+2, 1.2568216e+2, -2066473.5, -1709661.5, -21462.06, 0.046344955, -0.45318246, -1708375.1, -105.50689, 0.000004370903, 9.996836, 10.001561 
1.649611e+2, 1.3568367e+2, -1942278.0, -1630593.4, -6176.373, 0.019662872, -0.4313347, -1630471.0, -20216.559, 0.00000075351153, 9.997151, 10.001279 
1.6496612e+2, 1.4568405e+2, -1811070.3, -1526624.1, -18221.611, 0.034283124, -0.515033, -1525461.5, -13210.846, 0.000000017178404, 9.997421, 10.001186 
1.6497067e+2, 1.5568571e+2, -1682549.3, -1415855.8, -14024.5205, 0.020872371, -0.46933696, -1415120.4, -885.7114, 0.0, 9.99764, 10.001169 
1.6497536e+2, 1.6568705e+2, -1553683.9, -1326122.8, -5262.86, 0.0119171105, -0.44032001, -1326001.1, -9778.922, 0.0, 9.9979515, 10.000962 
1.6498017e+2, 1.7568804e+2, -1400526.4, -1202831.0, -4215.6704, 0.009899914, -0.4399784, -1202741.1, 15472.475, 0.0, 9.998335, 10.000951 
1.6498485e+2, 1.8568881e+2, -1263452.4, -1126656.3, -11993.022, 0.005210344, -0.43952578, -1125612.8, -5405.644, 0.0, 9.998778, 10.000587 
1.6498938e+2, 1.9568945e+2, -1097240.8, -999634.5, -12056.547, -0.0026814337, -0.4368771, -998167.3, 24034.285, 0.0, 9.999264, 10.000553 
1.6499408e+2, 2.0568989e+2, -997945.4, -977001.56, -4114.8506, -0.004257744, -0.4096349, -976222.1, -52023.047, 0.0, 9.999599, 9.999873 
1.6499889e+2, 2.1569021e+2, -869175.94, -867094.94, 459.82376, -0.00050366885, -0.3683324, -866997.9, -40799.13, 0.0, 9.999824, 9.999847 
1.6500354e+2, 2.2568993e+2, -759230.75, -831905.3, -4788.6206, -0.0057597645, -0.34980768, -758916.56, -30713.219, 0.0, 10.0002, 9.999234 
1.6500805e+2, 2.3568918e+2, -591414.5, -703900.3, -8447.42, -0.01791999, -0.35053512, -590783.6, 39427.844, 0.0, 10.000696, 9.999202 
1.6501284e+2, 2.4568808e+2, -492167.88, -680120.56, 3209.2356, -0.023890601, -0.3435998, -492113.1, 40110.11, 0.0, 10.001026, 9.998533 
1.6501781e+2, 2.5568673e+2, -365308.6, -569108.44, 5410.942, -0.025856337, -0.3341854, -365165.03, 69072.516, 0.0, 10.001228, 9.998525 
1.6502273e+2, 2.6568508e+2, -255484.56, -507753.8, 6368.9243, -0.031452715, -0.33073497, -255323.88, 80929.734, 0.0, 10.0014925, 9.998146 
1.6502763e+2, 2.7568322e+2, -113712.55, -390451.88, 7372.374, -0.03819768, -0.33465806, -113516.29, 124754.45, 0.0, 10.001801, 9.998131 
1.6503274e+2, 2.85681e+2, -6538.1484, -339138.44, 7837.1797, -0.029892465, -0.34412903, -6353.5806, 133937.31, 0.0, 10.002084, 9.997673 
1.6503792e+2, 2.9567856e+2, 131475.7, -217638.6, 3186.965, -0.015580181, -0.359707, 131504.8, 173817.72, 0.00000010392393, 10.00234, 9.997711 
1.6504209e+2, 3.0567533e+2, 238489.47, -118223.58, -14365.476, -0.07414509, -0.46540624, 239067.06, 239067.06, 0.0000064948904, 10.002643, 9.997915 
1.6504712e+2, 3.1567454e+2, 301399.5, -64487.734, 32736.277, -0.022988226, -0.33233225, 304305.38, 304305.38, 0.00004432351, 10.0029745, 9.998124 
1.7495336e+2, 1.2567697e+2, -2062939.3, -1702345.8, -9782.803, 0.0745501, -0.43784556, -1702080.6, 6241.0117, 0.000004515703, 9.996836, 10.001612 
1.7495833e+2, 1.356785e+2, -1936812.8, -1619425.0, 5856.6934, 0.027765991, -0.42264816, -1619317.0, -9010.668, 0.0000008179498, 9.997151, 10.001355 
1.7496355e+2, 1.4567894e+2, -1803466.1, -1510841.6, -10030.461, 0.034732606, -0.50846523, -1510498.1, 1803.4166, 0.000000022541565, 9.997421, 10.001295 
1.7496836e+2, 1.5568067e+2, -1675400.4, -1400783.0, -5433.922, 0.026705068, -0.46775877, -1400675.6, 13608.911, 0.0, 9.997638, 10.001273 
1.749734e+2, 1.6568203e+2, -1550696.3, -1319683.9, 9252.94, 0.021920003, -0.44276106, -1319313.9, -3042.2502, 0.0, 9.99795, 10.001007 
1.7497864e+2, 1.7568307e+2, -1397653.4, -1196878.6, 10675.105, 0.022365147, -0.44522494, -1196312.6, 21950.096, 0.0, 9.998335, 10.000992 
1.7498372e+2, 1.856838e+2, -1264522.3, -1128849.1, 6288.5273, 0.014861216, -0.44530463, -1128558.3, -8301.939, 0.0, 9.998778, 10.000573 
1.7498867e+2, 1.9568445e+2, -1097647.9, -1000421.1, 5559.334, 0.0005118921, -0.44161242, -1000104.3, 22146.654, 0.0, 9.999263, 10.000548 
1.7499366e+2, 2.05685e+2, -988752.75, -957862.5, 4258.0747, -0.005114503, -0.41168013, -957286.3, -33039.0, 0.0, 9.999599, 10.000005 
1.7499867e+2, 2.1568549e+2, -861204.9, -850526.25, 9561.184, -0.0035994106, -0.36634806, -844914.56, -18669.715, 0.0, 9.999824, 9.999961 
1.7500369e+2, 2.2568515e+2, -767595.06, -849274.9, 13867.246, -0.010075102, -0.35019565, -765304.94, -37055.023, 0.0, 10.0002, 9.999115 
1.750087e+2, 2.3568422e+2, -598868.9, -719331.9, 9516.995, -0.02297651, -0.3582627, -598121.6, 32138.877, 0.0, 10.000695, 9.999096 
1.7501384e+2, 2.4568315e+2, -488160.0, -671721.75, 10774.808, -0.024602352, -0.34706458, -487529.7, 44742.348, 0.0, 10.001026, 9.99859 
1.750191e+2, 2.55682e+2, -361296.44, -560803.9, 13318.046, -0.018005222, -0.3244457, -360411.34, 73872.83, 0.0, 10.001228, 9.998582 
1.7502421e+2, 2.6568034e+2, -253908.63, -504608.03, 17949.078, -0.031366665, -0.32557258, -252630.06, 83669.914, 0.0, 10.0014925, 9.998168 
1.7502923e+2, 2.756783e+2, -112823.88, -388617.94, 19013.914, -0.058671303, -0.3480267, -111519.195, 126799.26, 0.0, 10.001801, 9.998143 
1.7503472e+2, 2.8567603e+2, -13147.903, -352839.63, 17519.502, -0.040527023, -0.36005753, -12246.73, 128092.66, 0.0, 10.002084, 9.99758 
1.750405e+2, 2.9567358e+2, 126318.76, -228431.86, 13205.863, 0.0072792987, -0.3651355, 126809.67, 169171.38, 0.00000004563321, 10.002341, 9.997637 
1.7504485e+2, 3.0567047e+2, 249364.22, -95673.18, -1852.4209, -0.06204551, -0.46125108, 249374.17, 249374.17, 0.000004309572, 10.002643, 9.99807 
1.7504984e+2, 3.1566966e+2, 306366.72, -53926.953, 45599.277, -0.049109906, -0.34921634, 312048.25, 312048.25, 0.000033325945, 10.002973, 9.998198 
1.8495025e+2, 1.2567143e+2, -2095909.0, -1711912.0, -10520.132, 0.09234109, -0.44127452, -1711624.0, -3247.7, 0.000004500078, 9.996582, 10.001668 
1.8495543e+2, 1.3567314e+2, -1973883.5, -1628197.1, 5795.9287, 0.036169276, -0.4159412, -1628100.0, -17740.621, 0.0000008390777, 9.996859, 10.001437 
1.8496092e+2, 1.4567374e+2, -1825306.9, -1509364.5, -9328.792, 0.040350877, -0.4972188, -1509089.3, 3264.0276, 0.000000025661054, 9.99722, 10.001403 
1.8496612e+2, 1.5567549e+2, -1668490.5, -1386121.6, -4843.6694, 0.037573602, -0.46356264, -1386038.6, 28297.0, 0.0, 9.997637, 10.001374 
1.8497148e+2, 1.6567688e+2, -1541294.5, -1314038.1, 9843.804, 0.03163752, -0.44194505, -1313612.6, 2709.7976, 0.0, 9.998009, 10.001018 
1.8497702e+2, 1.756779e+2, -1395882.4, -1194880.4, 8802.971, 0.025981348, -0.44431293, -1194495.5, 23817.797, 0.0, 9.998342, 10.001002 
1.8498248e+2, 1.8567868e+2, -1276856.0, -1133797.1, 6505.98, 0.017307067, -0.44320196, -1133501.9, -13195.141, 0.0, 9.998689, 10.000582 
1.8498789e+2, 1.9567935e+2, -1128455.5, -1014259.9, 7387.65, 0.005618908, -0.4375403, -1013783.94, 8517.388, 0.0, 9.999047, 10.000557 
1.8499325e+2, 2.0567992e+2, -1003265.6, -964447.6, -168.53593, -0.0006679518, -0.40733138, -964446.94, -40149.258, 0.0, 9.999497, 10.000009 
1.8499862e+2, 2.1568039e+2, -832074.0, -836146.56, -4585.1895, -0.0024546504, -0.36287153, -829093.25, -2798.0415, 0.0, 10.000022, 9.999964 
1.85004e+2, 2.2568005e+2, -743787.5, -837664.0, -183.7515, -0.008032631, -0.3465589, -743787.1, -15486.844, 0.0, 10.000363, 9.999116 
1.8500939e+2, 2.3567913e+2, -617416.7, -727848.8, 4392.738, -0.01670508, -0.35356018, -617242.25, 13068.59, 0.0, 10.0005665, 9.9991 
1.8501484e+2, 2.4567808e+2, -507756.66, -678263.3, 6431.1646, -0.019895978, -0.34122178, -507514.44, 24807.604, 0.0, 10.000879, 9.998616 
1.8502034e+2, 2.5567698e+2, -353196.06, -554451.44, 6430.2104, -0.019298485, -0.31722528, -352990.8, 81342.76, 0.0, 10.001274, 9.998604 
1.8502574e+2, 2.656753e+2, -243095.48, -503049.8, 6616.9673, -0.032666262, -0.32192847, -242927.16, 93422.57, 0.0, 10.001583, 9.998135 
1.8503109e+2, 2.7567312e+2, -112167.73, -391743.5, 3569.8975, -0.055288058, -0.3523914, -112122.16, 126247.164, 0.0, 10.001821, 9.998112 
1.8503684e+2, 2.8567082e+2, -10472.631, -353903.22, 4223.8286, -0.03835367, -0.36505795, -10420.69, 129969.875, 0.0, 10.002112, 9.997559 
1.8504284e+2, 2.9566842e+2, 140192.64, -223961.61, 5225.891, 0.0035871638, -0.36384943, 140267.63, 182680.06, 0.000000013949684, 10.002446, 9.997617 
1.8504743e+2, 3.056654e+2, 256213.05, -91425.06, -15957.56, -0.06849906, -0.45067737, 256944.0, 256944.0, 0.0000026617806, 10.002686, 9.998078 
1.8505274e+2, 3.1566435e+2, 283157.47, -71624.55, 20894.71, -0.04831555, -0.36230573, 284383.8, 284383.8, 0.00002394661, 10.002842, 9.998138 
1.9494689e+2, 1.2566556e+2, -2091906.0, -1703031.8, -122.60103, 0.098666884, -0.46337685, -1703031.8, 5401.9756, 0.000004294411, 9.996579, 10.00173 
1.9495237e+2, 1.3566762e+2, -1967918.5, -1615574.1, 16789.314, 0.04477421, -0.41111043, -1614775.9, -4362.0503, 0.0000008137795, 9.996857, 10.001524 
1.9495825e+2, 1.4566842e+2, -1817954.5, -1494020.8, 6550.9814, 0.05112091, -0.48113662, -1493888.3, 18517.598, 0.000000025948266, 9.997219, 10.001509 
1.9496392e+2, 1.556702e+2, -1661647.8, -1371887.5, 10828.767, 0.05313317, -0.4566306, -1371483.4, 42904.637, 0.0, 9.997636, 10.001472 
1.9496958e+2, 1.6567159e+2, -1543072.3, -1317588.4, 22389.705, 0.040728796, -0.4377306, -1315386.8, 987.9864, 0.0, 9.998009, 10.000994 
1.949753e+2, 1.7567262e+2, -1397384.9, -1197904.6, 21418.758, 0.020523144, -0.43707427, -1195630.8, 22734.83, 0.0, 9.998342, 10.000982 
1.9498113e+2, 1.8567343e+2, -1274553.6, -1128905.5, 19966.771, 0.012354267, -0.4330847, -1126217.9, -5859.1855, 0.0, 9.998689, 10.000616 
1.94987e+2, 1.9567417e+2, -1126810.6, -1010755.94, 21274.465, 0.012454748, -0.4246665, -1006979.0, 15373.714, 0.0, 9.999046, 10.000582 
1.9499284e+2, 2.0567463e+2, -1012113.5, -982757.2, 19590.389, 0.008889991, -0.39654776, -972956.1, -48606.1, 0.0, 9.999497, 9.999883 
1.9499868e+2, 2.1567494e+2, -839714.7, -851940.1, 14419.763, 0.0026948173, -0.35789588, -830165.5, -3815.6438, 0.0, 10.000021, 9.999856 
1.9500443e+2, 2.2567466e+2, -735388.6, -820178.7, 7387.344, 0.00015020721, -0.33890742, -734749.8, -6395.317, 0.0, 10.000363, 9.999236 
1.9501013e+2, 2.3567393e+2, -609549.56, -711549.25, 12534.609, 0.0006469941, -0.33662438, -608031.75, 22330.734, 0.0, 10.0005665, 9.999211 
1.9501582e+2, 2.4567293e+2, -508275.3, -679357.94, 21281.348, -0.009964675, -0.32621828, -505667.8, 26705.395, 0.0, 10.000879, 9.998609 
1.9502151e+2, 2.556717e+2, -354194.53, -556494.7, 20970.791, -0.029793812, -0.3124892, -352043.53, 82342.266, 0.0, 10.001274, 9.9985895 
1.9502729e+2, 2.656699e+2, -249322.17, -516037.78, 15550.34, -0.035550546, -0.31977054, -248418.61, 87984.26, 0.0, 10.001583, 9.998046 
1.9503316e+2, 2.7566773e+2, -117530.52, -403014.5, 12768.727, -0.028706927, -0.34773976, -116960.555, 121462.79, 0.0, 10.001821, 9.9980345 
1.950391e+2, 2.856654e+2, -6989.9277, -346671.06, 16780.826, -0.023780672, -0.35916877, -6162.94, 134281.48, 0.0, 10.002112, 9.997608 
1.95045e+2, 2.956631e+2, 142412.36, -219151.02, 17632.006, -0.026095072, -0.35611796, 143270.17, 185735.39, 0.0000000023315327, 10.002445, 9.99765 
1.9504988e+2, 3.056601e+2, 246533.4, -111604.25, -10071.749, -0.09322952, -0.43388334, 246816.42, 246816.42, 0.0000014940416, 10.002686, 9.997939 
1.9505584e+2, 3.1565863e+2, 270005.2, -99451.9, 27357.19, -0.022125008, -0.37123388, 272019.9, 272019.9, 0.000016254342, 10.002845, 9.997947 
2.0494337e+2, 1.256597e+2, -2089020.1, -1694022.0, -3300.8342, 0.090745024, -0.468692, -1693994.4, 14496.794, 0.000003892583, 9.996567, 10.001798 
2.0494924e+2, 1.3566191e+2, -1987015.9, -1615602.3, 14335.585, 0.056256816, -0.41013578, -1615049.8, -4580.007, 0.00000074131736, 9.996687, 10.001606 
2.0495549e+2, 1.4566283e+2, -1848659.9, -1510003.0, 7802.732, 0.06404514, -0.47234997, -1509823.4, 2637.4766, 0.000000023374444, 9.997013, 10.001498 
2.0496154e+2, 1.556646e+2, -1683819.8, -1383528.5, 3038.0776, 0.058918513, -0.44710687, -1383497.8, 30945.705, 0.0, 9.997488, 10.001465 
2.0496757e+2, 1.6566597e+2, -1555829.8, -1322196.4, 9237.219, 0.04387763, -0.43046665, -1321831.8, -5401.421, 0.0, 9.997914, 10.001008 
2.0497367e+2, 1.7566697e+2, -1402648.0, -1199200.3, 11078.215, 0.024008764, -0.4336409, -1198598.9, 19822.273, 0.0, 9.998301, 10.000993 
2.0497984e+2, 1.856678e+2, -1276737.8, -1134072.9, 8576.563, 0.016296415, -0.42695436, -1133559.1, -13144.981, 0.0, 9.998692, 10.000579 
2.0498611e+2, 1.9566856e+2, -1123412.3, -1013138.75, 4658.481, 0.0171422, -0.4112239, -1012942.3, 9465.979, 0.0, 9.999087, 10.0005455 
2.0499237e+2, 2.0566902e+2, -1016941.25, -988799.25, 7506.467, 0.012635657, -0.38167956, -986922.2, -62516.16, 0.0, 9.99948, 9.99985 
2.0499864e+2, 2.1566926e+2, -863195.8, -866124.06, 8881.356, 0.004120637, -0.3459114, -855658.7, -29252.14, 0.0, 9.999872, 9.99983 
2.0500477e+2, 2.2566898e+2, -746054.0, -819679.1, -3601.3174, 0.0017742239, -0.3281888, -745878.3, -17467.17, 0.0, 10.000266, 9.999287 
2.0501077e+2, 2.356683e+2, -592424.56, -697756.1, -3538.2131, 0.0045260023, -0.32595846, -592305.9, 38112.684, 0.0, 10.000661, 9.999261 
2.050168e+2, 2.4566732e+2, -487950.72, -665323.7, 6500.8823, -0.0061412374, -0.3173842, -487712.78, 44716.066, 0.0, 10.001, 9.998647 
2.0502281e+2, 2.556661e+2, -348563.84, -550182.7, 9406.381, -0.02783519, -0.30695322, -348125.97, 86315.195, 0.0, 10.001297, 9.998622 
2.0502892e+2, 2.6566437e+2, -249766.83, -521163.2, 4843.705, -0.032804348, -0.31031346, -249680.4, 86777.625, 0.0, 10.001601, 9.998002 
2.0503508e+2, 2.756622e+2, -107728.91, -402910.63, 5328.499, -0.023029368, -0.3288475, -107632.75, 130845.62, 0.0, 10.001908, 9.997993 
2.0504127e+2, 2.8565982e+2, 2375.9666, -341904.4, 8938.181, -0.019592894, -0.34609196, 2607.8628, 143108.06, 0.0, 10.002175, 9.99761 
2.0504741e+2, 2.956573e+2, 136989.86, -222000.92, 6435.5244, -0.026808526, -0.3600424, 137105.2, 179627.6, 0.000000000097020676, 10.002409, 9.997648 
2.0505257e+2, 3.0565447e+2, 253131.89, -114525.45, -18697.633, -0.09687969, -0.41968194, 254080.33, 254080.33, 0.00000072960836, 10.002758, 9.997885 
2.0505889e+2, 3.15653e+2, 314269.06, -88627.76, 24885.785, -0.020721778, -0.35512483, 315800.34, 315800.34, 0.000010315381, 10.003195, 9.997852 
2.1493971e+2, 1.2565388e+2, -2083964.1, -1683854.8, 1275.2853, 0.06771765, -0.45679542, -1683850.8, 24697.959, 0.0000033185577, 9.996568, 10.001867 
2.1494608e+2, 1.3565601e+2, -1981822.4, -1604814.6, 19973.246, 0.07044308, -0.41300374, -1603759.5, 6767.6177, 0.00000061904166, 9.996686, 10.00168 
2.1495265e+2, 1.4565696e+2, -1857994.1, -1528858.4, 25784.043, 0.078985505, -0.4709447, -1526850.8, -14332.533, 0.000000017936356, 9.997011, 10.001369 
2.1495897e+2, 1.5565869e+2, -1692298.0, -1400633.8, 20760.6, 0.054627623, -0.43490526, -1399163.5, 15338.437, 0.0, 9.997486, 10.0013485 
2.1496545e+2, 1.6566002e+2, -1552283.1, -1314694.9, 23771.66, 0.040815268, -0.4200121, -1312339.8, 4149.5576, 0.0, 9.997913, 10.00106 
2.1497208e+2, 1.7566098e+2, -1399563.8, -1192852.5, 25660.275, 0.03628099, -0.4339366, -1189714.8, 28765.354, 0.0, 9.998301, 10.001037 
2.1497867e+2, 1.856618e+2, -1284408.6, -1149932.4, 23483.514, 0.029005438, -0.42487884, -1145949.5, -25476.035, 0.0, 9.998692, 10.00047 
2.1498522e+2, 1.9566257e+2, -1130314.4, -1027346.2, 19571.621, 0.019494586, -0.397282, -1023751.6, -1283.5271, 0.0, 9.999086, 10.000448 
2.1499184e+2, 2.0566306e+2, -1012809.94, -980168.75, 22290.412, 0.010404518, -0.36274365, -968862.8, -44397.16, 0.0, 9.99948, 9.999909 
2.1499848e+2, 2.1566336e+2, -859287.5, -857993.8, 23692.941, 0.0016539834, -0.32691273, -834938.9, -8473.569, 0.0, 9.999872, 9.9998865 
2.1500498e+2, 2.2566304e+2, -747440.8, -822462.7, 11263.776, -0.003351417, -0.3144114, -745786.2, -17315.936, 0.0, 10.000265, 9.999268 
2.1501134e+2, 2.3566227e+2, -593424.25, -699726.6, 11089.651, -0.005173471, -0.32142863, -592279.7, 38199.3, 0.0, 10.00066, 9.999248 
2.1501778e+2, 2.4566129e+2, -482180.25, -653367.8, 17623.215, -0.008517337, -0.3146703, -480384.8, 52104.117, 0.0, 10.001, 9.998729 
2.1502425e+2, 2.5566018e+2, -343077.3, -538825.75, 20609.318, -0.01378985, -0.30060685, -340931.0, 93568.68, 0.0, 10.001297, 9.998699 
2.150306e+2, 2.6565856e+2, -249828.42, -521276.16, 16328.258, -0.02469595, -0.29358914, -248849.77, 87665.48, 0.0, 10.001601, 9.998001 
2.1503684e+2, 2.7565658e+2, -108281.39, -403952.84, 16722.785, -0.038106687, -0.2960655, -107338.58, 131195.86, 0.0, 10.001907, 9.997987 
2.1504338e+2, 2.8565404e+2, -739.7483, -348467.5, 17568.367, -0.025928054, -0.3259979, 145.60997, 140703.53, 0.0, 10.002176, 9.997565 
2.150501e+2, 2.9565117e+2, 134469.66, -227543.48, 15684.173, 0.0004801914, -0.37502536, 135147.9, 177731.8, 0.0, 10.00241, 9.99761 
2.1505548e+2, 3.056486e+2, 255088.89, -110548.49, -2343.3928, -0.08014634, -0.40767968, 255103.9, 255103.9, 0.0000002906552, 10.002758, 9.997911 
2.1506184e+2, 3.156474e+2, 314131.3, -88736.64, 40850.848, -0.04393121, -0.3147507, 318231.84, 318231.84, 0.0000060416633, 10.003194, 9.997851 
2.2493611e+2, 1.2564765e+2, -2116608.5, -1693899.9, -14946.736, 0.06308673, -0.44773558, -1693372.1, 15237.882, 0.0000026194793, 9.996319, 10.001919 
2.2494288e+2, 1.3564973e+2, -1959948.8, -1587654.9, 2649.583, 0.075553566, -0.41956672, -1587636.0, 22952.521, 0.0000004546107, 9.996808, 10.0017395 
2.2494979e+2, 1.4565064e+2, -1833336.0, -1525790.3, 13521.029, 0.08149715, -0.47545034, -1525196.9, -12617.227, 0.000000010467296, 9.997219, 10.001291 
2.2495647e+2, 1.5565237e+2, -1686490.0, -1406060.9, 11931.102, 0.052482672, -0.4328537, -1405554.3, 9009.745, 0.0, 9.997561, 10.001275 
2.249634e+2, 1.6565366e+2, -1553293.9, -1316947.8, 12616.241, 0.043878466, -0.41899565, -1316276.3, 275.6842, 0.0, 9.997914, 10.001043 
2.2497052e+2, 1.7565453e+2, -1404097.0, -1196986.8, 9354.445, 0.05141765, -0.43921205, -1196565.0, 21978.299, 0.0, 9.998278, 10.0010195 
2.249775e+2, 1.8565534e+2, -1289431.9, -1158270.6, 8594.409, 0.04301082, -0.4277048, -1157709.9, -37172.97, 0.0, 9.998682, 10.000417 
2.2498435e+2, 1.9565615e+2, -1129230.4, -1032290.3, 8701.4, 0.022397703, -0.39121786, -1031515.44, -8983.987, 0.0, 9.999118, 10.0004 
2.2499132e+2, 2.0565663e+2, -1008647.1, -978141.6, 9417.277, 0.009594314, -0.3553672, -975468.7, -50939.36, 0.0, 9.999509, 9.999909 
2.2499837e+2, 2.1565688e+2, -859976.56, -858287.8, 6245.502, 0.0028283442, -0.32385576, -852829.9, -26300.324, 0.0, 9.999868, 9.9998865 
2.2500522e+2, 2.2565658e+2, -750563.8, -822576.4, -6452.6836, -0.0045800298, -0.30868563, -749990.2, -21455.865, 0.0, 10.000238, 9.99928 
2.250119e+2, 2.356559e+2, -598721.06, -700680.9, -4425.638, -0.012225803, -0.3077841, -598529.3, 32013.055, 0.0, 10.000617, 9.999262 
2.2501872e+2, 2.4565496e+2, -480928.63, -647062.9, -190.16272, -0.012388207, -0.3026308, -480928.4, 51623.6, 0.0, 10.000985, 9.99878 
2.2502564e+2, 2.556538e+2, -333146.8, -528788.5, 240.24083, -0.007457215, -0.2971389, -333146.5, 101416.195, 0.0, 10.001343, 9.998747 
2.2503223e+2, 2.656522e+2, -245128.72, -520290.88, -7434.7407, -0.023347113, -0.2889278, -244927.98, 91650.086, 0.0, 10.001639, 9.99799 
2.2503857e+2, 2.756503e+2, -112602.07, -407137.13, -7684.0254, -0.053453088, -0.2831285, -112401.74, 126195.26, 0.0, 10.001883, 9.997976 
2.2504547e+2, 2.8564778e+2, 375.13498, -347672.88, -4487.485, -0.034973763, -0.3129825, 432.98383, 141053.78, 0.0, 10.002182, 9.997568 
2.250527e+2, 2.9564482e+2, 151318.45, -219242.48, -2796.9797, 0.015788257, -0.36724183, 151339.56, 193986.97, 0.0, 10.002524, 9.997612 
2.2505838e+2, 3.056425e+2, 267872.16, -99954.43, -16770.92, -0.069566734, -0.37900472, 268635.25, 268635.25, 0.000000085825576, 10.002827, 9.997952 
2.2506484e+2, 3.1564125e+2, 301921.34, -91561.25, 26926.535, -0.05633222, -0.2946489, 303755.4, 303755.4, 0.0000031779714, 10.003096, 9.99788 
2.3493257e+2, 1.2564103e+2, -2114457.8, -1689070.4, 3476.2468, 0.07661512, -0.44161108, -1689042.0, 19633.23, 0.0000018640146, 9.996318, 10.001953 
2.3493963e+2, 1.3564298e+2, -1957085.3, -1581302.4, 20766.963, 0.071172446, -0.42989826, -1580158.1, 30496.18, 0.0000002777255, 9.996806, 10.001784 
2.3494692e+2, 1.456439e+2, -1835465.4, -1530172.3, 26530.607, 0.07113865, -0.48592088, -1527883.9, -15238.695, 0.0000000036051038, 9.997218, 10.001262 
2.3495403e+2, 1.5564562e+2, -1688438.5, -1410386.9, 24888.766, 0.052217524, -0.4409605, -1408176.6, 6452.869, 0.0, 9.997562, 10.001245 
2.3496139e+2, 1.6564685e+2, -1559311.3, -1329431.1, 26207.084, 0.052919835, -0.4275158, -1326481.4, -9863.016, 0.0, 9.997914, 10.0009575 
2.3496896e+2, 1.7564762e+2, -1409941.8, -1208787.9, 23231.342, 0.06924719, -0.4496308, -1206139.8, 12471.236, 0.0, 9.998277, 10.000938 
2.3497632e+2, 1.8564841e+2, -1289371.6, -1157907.1, 25022.56, 0.058102455, -0.43545365, -1153305.4, -32700.771, 0.0, 9.998681, 10.000421 
2.3498349e+2, 1.9564928e+2, -1129183.0, -1032169.2, 24943.092, 0.025642635, -0.39290926, -1026131.8, -3533.352, 0.0, 9.999118, 10.000401 
2.3499084e+2, 2.0564972e+2, -1012936.06, -987072.75, 22938.596, 0.01001742, -0.3595072, -973671.8, -49074.793, 0.0, 9.999509, 9.999848 
2.3499827e+2, 2.1564981e+2, -863921.25, -866460.94, 19855.615, 0.007455684, -0.33673003, -845294.94, -18695.732, 0.0, 9.999867, 9.99983 
2.3500548e+2, 2.2564963e+2, -747634.6, -816411.56, 7833.414, -0.002053672, -0.31100512, -746753.7, -18150.432, 0.0, 10.000237, 9.999323 
2.3501247e+2, 2.3564923e+2, -595764.7, -694451.44, 9808.833, -0.016783133, -0.28514674, -594799.25, 35809.47, 0.0, 10.000616, 9.999305 
2.3501965e+2, 2.456483e+2, -479723.53, -644516.75, 13258.553, -0.017919201, -0.2813479, -478663.63, 53954.43, 0.0, 10.000984, 9.998797 
2.3502696e+2, 2.5564697e+2, -332346.44, -526982.0, 13465.66, -0.008952237, -0.29660696, -331419.25, 103210.96, 0.0, 10.001342, 9.998759 
2.3503381e+2, 2.656453e+2, -246558.45, -523222.88, 1628.204, -0.0287733, -0.29622072, -246548.88, 90097.625, 0.0, 10.001638, 9.997971 
2.3504029e+2, 2.7564338e+2, -113432.805, -408890.53, 1642.8593, -0.06930223, -0.28951687, -113423.67, 125242.32, 0.0, 10.001883, 9.997965 
2.3504753e+2, 2.8564095e+2, 3721.8018, -340764.97, 8333.318, -0.047016546, -0.3068284, 3923.2715, 144612.05, 0.0, 10.002182, 9.997616 
2.3505527e+2, 2.956383e+2, 154158.98, -213311.81, 9898.293, 0.019183684, -0.33742458, 154425.4, 197138.4, 0.0, 10.002524, 9.997654 
2.3506124e+2, 3.0563617e+2, 271800.06, -91840.06, -6788.1226, -0.06521577, -0.33426738, 271926.75, 271926.75, 0.000000016806371, 10.002827, 9.998009 
2.3506792e+2, 3.1563455e+2, 306153.34, -82962.66, 36377.824, -0.059023935, -0.29408148, 309525.03, 309525.03, 0.0000014346882, 10.003096, 9.997939 
2.4492885e+2, 1.2563396e+2, -2119397.3, -1693679.1, -8246.739, 0.0751081, -0.43984365, -1693519.5, 15224.939, 0.0000011498672, 9.996294, 10.001932 
2.4493642e+2, 1.3563582e+2, -1959837.9, -1583244.4, 3961.8457, 0.06944785, -0.43659353, -1583202.8, 27521.697, 0.00000012802465, 9.99679, 10.001779 
2.4494411e+2, 1.4563678e+2, -1836159.6, -1529230.8, 4791.3604, 0.070346355, -0.48932695, -1529156.0, -16441.135, 0.00000000023702618, 9.997209, 10.001273 
2.449517e+2, 1.5563855e+2, -1686743.6, -1408643.4, 6164.597, 0.06147284, -0.44208282, -1408506.8, 6192.1577, 0.0, 9.997571, 10.001253 
2.4495944e+2, 1.6563976e+2, -1554048.5, -1333299.4, 11509.758, 0.06252298, -0.42673504, -1332700.9, -16013.031, 0.0, 9.997979, 10.0009 
2.4496733e+2, 1.756405e+2, -1393008.5, -1206477.6, 10531.696, 0.07116743, -0.4464605, -1205884.9, 12796.228, 0.0, 9.998418, 10.000886 
2.4497505e+2, 1.8564121e+2, -1270249.8, -1147324.9, 13582.147, 0.057912998, -0.4354171, -1145842.0, -25166.941, 0.0, 9.998807, 10.000432 
2.4498264e+2, 1.9564202e+2, -1122609.9, -1028272.56, 14021.636, 0.027833527, -0.40053335, -1026232.56, -3563.5066, 0.0, 9.99916, 10.000406 
2.4499036e+2, 2.0564245e+2, -1016343.3, -998584.3, 10253.8545, 0.01216232, -0.36516312, -993899.6, -69231.516, 0.0, 9.999528, 9.99976 
2.4499817e+2, 2.1564254e+2, -863553.6, -875291.2, 5170.133, 0.0075606126, -0.3326676, -861601.1, -34930.156, 0.0, 9.999909, 9.99975 
2.4500574e+2, 2.256424e+2, -736540.1, -807129.5, -7311.8076, -0.0020209434, -0.3016755, -735790.75, -7115.7314, 0.0, 10.000297, 9.999358 
2.4501313e+2, 2.3564206e+2, -582548.8, -684004.9, -6058.766, -0.015205009, -0.274312, -582188.3, 48491.527, 0.0, 10.0006895, 9.999342 
2.4502063e+2, 2.4564113e+2, -474954.3, -638752.2, -5177.0884, -0.019275848, -0.27253652, -474790.84, 57898.07, 0.0, 10.001002, 9.998829 
2.4502817e+2, 2.556398e+2, -343751.97, -529335.8, -3893.139, -0.016696926, -0.29232842, -343670.3, 91030.74, 0.0, 10.00125, 9.998788 
2.4503534e+2, 2.656381e+2, -262014.14, -531722.4, -15532.727, -0.0344293, -0.29232758, -261122.55, 75594.87, 0.0, 10.001537, 9.997961 
2.4504219e+2, 2.756362e+2, -118200.85, -411760.38, -14937.317, -0.066302784, -0.2828602, -117442.74, 121294.305, 0.0, 10.001852, 9.99796 
2.4504969e+2, 2.8563386e+2, 3461.7102, -333574.63, -6145.9395, -0.048178434, -0.29764116, 3573.7456, 144333.19, 0.0, 10.002149, 9.997682 
2.4505758e+2, 2.956313e+2, 144729.45, -211331.27, -3151.1235, 0.0039547356, -0.325283, 144757.34, 187540.17, 0.0, 10.002432, 9.997712 
2.4506396e+2, 3.056293e+2, 265410.9, -96366.91, -20723.072, -0.07429594, -0.30868867, 266594.06, 266594.06, 0.0000000018495133, 10.0027895, 9.997995 
2.4507123e+2, 3.1562737e+2, 323690.72, -72123.23, 16712.48, -0.043069612, -0.3002244, 324395.13, 324395.13, 0.00000052479436, 10.003207, 9.99796 
2.5492498e+2, 1.2562644e+2, -2125132.0, -1705339.4, 10669.262, 0.05796468, -0.4421725, -1705068.4, 3749.2195, 0.0000005982307, 9.996292, 10.001853 
2.549332e+2, 1.3562822e+2, -1963791.8, -1591813.5, 22159.865, 0.06969379, -0.43916145, -1590498.1, 20300.7, 0.00000003796869, 9.996792, 10.001719 
2.549414e+2, 1.4562926e+2, -1832488.0, -1521718.3, 18282.104, 0.07859425, -0.48517144, -1520646.5, -7857.72, 0.0, 9.997209, 10.001325 
2.5494945e+2, 1.556311e+2, -1683770.4, -1401993.9, 19956.002, 0.08015984, -0.43603283, -1400587.5, 14184.558, 0.0, 9.997569, 10.0013 
2.549575e+2, 1.6563234e+2, -1556297.0, -1337606.1, 28032.488, 0.07246433, -0.41636235, -1334070.0, -17309.4, 0.0, 9.997977, 10.000872 
2.549656e+2, 1.7563312e+2, -1394569.3, -1209906.8, 26859.34, 0.056531094, -0.42916402, -1206079.4, 12674.199, 0.0, 9.998419, 10.000862 
2.5497368e+2, 1.8563378e+2, -1268664.0, -1144237.6, 26868.465, 0.041866004, -0.42723307, -1138683.6, -17935.56, 0.0, 9.998808, 10.000453 
2.5498182e+2, 1.9563438e+2, -1121788.4, -1026538.1, 27411.758, 0.02875765, -0.41400188, -1019212.75, 3530.6665, 0.0, 9.99916, 10.000419 
2.5498992e+2, 2.056348e+2, -1024539.25, -1015486.06, 24631.59, 0.015903963, -0.37235183, -994968.56, -70225.9, 0.0, 9.999528, 9.999644 
2.5499803e+2, 2.1563508e+2, -870986.44, -890617.56, 19611.045, 0.002943583, -0.31171206, -858871.7, -32126.78, 0.0, 9.999908, 9.999645 
2.5500602e+2, 2.2563489e+2, -734626.2, -803093.75, 7477.451, -0.004718289, -0.28072676, -733819.1, -5069.6304, 0.0, 10.000297, 9.999386 
2.550139e+2, 2.3563436e+2, -580610.4, -679917.06, 8407.024, -0.007790106, -0.27513382, -579903.7, 50851.98, 0.0, 10.000689, 9.99937 
2.5502166e+2, 2.4563344e+2, -471778.34, -632114.9, 4049.623, -0.016686326, -0.27610102, -471676.13, 61088.438, 0.0, 10.001002, 9.998875 
2.550293e+2, 2.5563225e+2, -340569.25, -522667.28, 5535.2393, -0.030816203, -0.28428754, -340401.16, 94374.086, 0.0, 10.001249, 9.998835 
2.550368e+2, 2.6563066e+2, -262244.47, -532182.9, -3772.1938, -0.04061817, -0.27738848, -262191.75, 74599.04, 0.0, 10.001537, 9.997958 
2.5504425e+2, 2.756288e+2, -118230.32, -411879.78, -3250.267, -0.045039665, -0.26356325, -118194.34, 120615.85, 0.0, 10.001852, 9.997959 
2.550519e+2, 2.8562644e+2, 9370.029, -321351.34, 4286.722, -0.038711525, -0.28550494, 9425.584, 150258.4, 0.0, 10.00215, 9.997766 
2.550597e+2, 2.9562378e+2, 149908.45, -200552.61, 7554.521, -0.029633319, -0.33034194, 150071.22, 192928.06, 0.0, 10.002432, 9.997786 
2.550665e+2, 3.056219e+2, 259675.23, -108308.73, -5189.173, -0.0967715, -0.3018244, 259748.4, 259748.4, 0.000000000039700524, 10.0027895, 9.997913 
2.5507477e+2, 3.1561968e+2, 322413.16, -74803.44, 31579.24, -0.00958086, -0.31319112, 324908.06, 324908.06, 0.00000015406697, 10.003206, 9.997942 
2.6492134e+2, 1.2561841e+2, -2087758.5, -1688838.0, -6028.4736, 0.049514864, -0.45333102, -1688746.9, 20148.889, 0.00000026973817, 9.996556, 10.001839 
2.6493007e+2, 1.3562027e+2, -1956536.5, -1588899.4, 9815.3, 0.07486596, -0.44173893, -1588637.5, 22238.873, 0.0000000060296985, 9.996844, 10.001713 
2.6493868e+2, 1.4562137e+2, -1826976.8, -1520692.6, 6541.602, 0.08418671, -0.48102117, -1520553.0, -7687.093, 0.0, 9.997254, 10.001309 
2.6494718e+2, 1.5562312e+2, -1657217.0, -1390805.3, 3068.1587, 0.08677776, -0.43718883, -1390769.9, 24079.977, 0.0, 9.997759, 10.001286 
2.649556e+2, 1.6562437e+2, -1525940.8, -1326273.0, 8495.346, 0.07344061, -0.41859955, -1325912.3, -9073.428, 0.0, 9.9982, 10.000842 
2.6496398e+2, 1.7562512e+2, -1371021.3, -1201822.8, 6901.3936, 0.0455996, -0.42869863, -1201541.8, 17290.111, 0.0, 9.998595, 10.0008335 
2.6497248e+2, 1.8562576e+2, -1249026.9, -1138489.5, 1991.9869, 0.02996218, -0.42499405, -1138453.6, -17626.977, 0.0, 9.998959, 10.00042 
2.6498103e+2, 1.9562635e+2, -1103963.3, -1021744.75, -1539.3301, 0.024826959, -0.4107123, -1021715.94, 1106.2749, 0.0, 9.999299, 10.000384 
2.649895e+2, 2.0562674e+2, -1012424.1, -1014455.1, -2700.771, 0.015565945, -0.36817843, -1010554.25, -85732.36, 0.0, 9.999632, 9.999601 
2.6499796e+2, 2.1562697e+2, -866150.56, -892422.25, -2196.4968, 0.0026562815, -0.30694243, -865968.2, -39143.45, 0.0, 9.99996, 9.999608 
2.6500627e+2, 2.2562677e+2, -731967.2, -797957.44, -10996.373, -0.0066603348, -0.27741104, -730183.0, -1353.669, 0.0, 10.0002985, 9.999421 
2.6501453e+2, 2.3562624e+2, -584737.06, -678371.0, -9775.984, -0.012755378, -0.27466854, -583727.3, 47107.93, 0.0, 10.000646, 9.999402 
2.6502258e+2, 2.4562535e+2, -480290.88, -637104.8, -20115.188, -0.022063375, -0.2740473, -477751.72, 55092.156, 0.0, 10.000947, 9.998867 
2.6503044e+2, 2.556242e+2, -346225.13, -525674.06, -22562.943, -0.034410425, -0.27741727, -343431.66, 91422.87, 0.0, 10.001212, 9.998832 
2.650383e+2, 2.6562265e+2, -263046.38, -526658.6, -29260.95, -0.04322898, -0.27123278, -259837.48, 77032.375, 0.0, 10.001506, 9.998011 
2.6504606e+2, 2.756208e+2, -119096.4, -406618.34, -24608.521, -0.047398366, -0.26214424, -117005.41, 121883.44, 0.0, 10.001822, 9.99801 
2.6505402e+2, 2.8561842e+2, 5789.9736, -322825.2, -19535.424, -0.041971475, -0.28499907, 6947.235, 147858.6, 0.0, 10.002124, 9.997767 
2.6506203e+2, 2.956158e+2, 146779.83, -202394.39, -22253.648, -0.034397088, -0.32761216, 148192.39, 191127.92, 0.0, 10.002412, 9.997783 
2.650693e+2, 3.0561402e+2, 253299.95, -116229.04, -31578.266, -0.09602624, -0.28614035, 255979.06, 255979.06, 0.0, 10.002767, 9.997869 
2.650781e+2, 3.1561148e+2, 321867.22, -70020.8, 7026.7666, 0.0036733684, -0.32791018, 321993.16, 321993.16, 0.000000038019415, 10.003182, 9.997986 
2.7491787e+2, 1.2560986e+2, -2083873.4, -1681328.1, 4600.1284, 0.048718303, -0.47331172, -1681275.6, 27703.31, 0.00000012804327, 9.996558, 10.001889 
2.74927e+2, 1.3561195e+2, -1953112.8, -1581677.6, 20963.744, 0.084839515, -0.44397464, -1580498.3, 30459.186, 0.0000000018569922, 9.996843, 10.001763 
2.7493596e+2, 1.456131e+2, -1832943.3, -1532876.4, 25579.3, 0.0868618, -0.47641787, -1530711.5, -17765.012, 0.0, 9.997253, 10.001226 
2.7494484e+2, 1.5561466e+2, -1662563.6, -1402053.3, 21734.22, 0.080274455, -0.4450624, -1400252.4, 14679.939, 0.0, 9.997759, 10.001208 
2.749537e+2, 1.6561577e+2, -1528088.1, -1330849.6, 23255.48, 0.064529404, -0.4331996, -1328144.8, -11222.376, 0.0, 9.9982, 10.000811 
2.749625e+2, 1.7561649e+2, -1373419.4, -1206820.9, 21593.945, 0.038165264, -0.44508135, -1204067.4, 14848.726, 0.0, 9.998595, 10.000799 
2.7497134e+2, 1.856172e+2, -1255192.1, -1151322.6, 14730.703, 0.022114186, -0.42871097, -1149274.0, -28363.271, 0.0, 9.998959, 10.000332 
2.7498022e+2, 1.9561791e+2, -1109559.0, -1033436.2, 11213.131, 0.01573717, -0.39049557, -1031818.8, -8913.344, 0.0, 9.999299, 10.000304 
2.7498907e+2, 2.0561825e+2, -1010270.75, -1010019.7, 9642.042, 0.010866415, -0.35243785, -1000502.4, -75596.57, 0.0, 9.999632, 9.999632 
2.7499795e+2, 2.1561824e+2, -863884.2, -887770.06, 10243.737, 0.0064954804, -0.31815976, -860092.9, -33182.45, 0.0, 9.99996, 9.99964 
2.7500656e+2, 2.2561803e+2, -729095.7, -791998.75, 2059.4653, -0.008020376, -0.29165938, -729028.3, -113.692566, 0.0, 10.000298, 9.999462 
2.75015e+2, 2.3561773e+2, -582322.75, -673275.5, 3124.2817, -0.030147633, -0.2730193, -582215.56, 48702.836, 0.0, 10.000645, 9.999437 
2.7502337e+2, 2.4561688e+2, -484795.44, -646315.0, -10231.52, -0.03548211, -0.2664466, -484149.88, 48776.984, 0.0, 10.000947, 9.998804 
2.7503175e+2, 2.5561565e+2, -349964.3, -533354.06, -12521.778, -0.027883008, -0.271762, -349113.28, 85825.61, 0.0, 10.001211, 9.998779 
2.7503982e+2, 2.6561403e+2, -255482.03, -510899.94, -17486.725, -0.042460013, -0.27371615, -254290.39, 82664.1, 0.0, 10.001506, 9.998119 
2.7504763e+2, 2.7561215e+2, -112175.59, -392134.06, -12816.94, -0.07315178, -0.2782933, -111590.04, 127382.875, 0.0, 10.0018215, 9.99811 
2.75056e+2, 2.8560984e+2, 132.08336, -334544.34, -8830.713, -0.05802813, -0.29601884, 364.92697, 141359.92, 0.0, 10.002124, 9.997686 
2.750647e+2, 2.9560736e+2, 141266.23, -214049.89, -11330.028, -0.011269544, -0.31727004, 141627.14, 184645.92, 0.0, 10.002413, 9.997703 
2.750723e+2, 3.0560565e+2, 252730.6, -117659.16, -15953.309, -0.07268572, -0.26176494, 253416.45, 253416.45, 0.0, 10.002768, 9.997859 
2.7508122e+2, 3.156027e+2, 328648.13, -55935.35, 21705.822, -0.0035903603, -0.3446051, 329869.3, 329869.3, 0.00000000643165, 10.003182, 9.998083 
2.8491434e+2, 1.2560101e+2, -2089344.1, -1690870.1, -4042.104, 0.040175013, -0.4905839, -1690829.1, 18235.816, 0.000000073181255, 9.996551, 10.001828 
2.84924e+2, 1.3560322e+2, -1918664.6, -1571320.9, 3283.955, 0.088682584, -0.44427788, -1571289.9, 39752.926, 0.00000000048290855, 9.9971075, 10.001708 
2.8493336e+2, 1.4560436e+2, -1794148.5, -1521976.1, 5126.09, 0.08563217, -0.47083822, -1521879.6, -8847.619, 0.0, 9.997554, 10.001157 
2.849426e+2, 1.5560572e+2, -1644828.3, -1400913.8, 1852.9767, 0.07163589, -0.45314026, -1400899.6, 14119.906, 0.0, 9.997912, 10.001142 
2.8495184e+2, 1.6560672e+2, -1525275.6, -1335185.6, 244.25932, 0.056845613, -0.4448464, -1335185.4, -18174.709, 0.0, 9.998245, 10.00076 
2.849611e+2, 1.7560744e+2, -1382209.0, -1216345.9, -2889.282, 0.03751182, -0.4516051, -1216295.6, 2709.083, 0.0, 9.998558, 10.000752 
2.8497028e+2, 1.8560818e+2, -1260045.1, -1154735.3, -6126.545, 0.022584787, -0.42868575, -1154380.1, -33381.004, 0.0, 9.99893, 10.000322 
2.849795e+2, 1.9560899e+2, -1102345.9, -1030951.44, -3969.5247, 0.012871504, -0.38284189, -1030731.4, -7738.05, 0.0, 9.999352, 10.000296 
2.849887e+2, 2.0560928e+2, -997817.2, -1005184.8, -6485.105, 0.0074565886, -0.3465273, -994042.7, -69048.75, 0.0, 9.9997225, 9.999622 
2.849979e+2, 2.1560918e+2, -851287.44, -882397.1, -9062.145, 0.004611778, -0.32125744, -848840.2, -21840.902, 0.0, 10.00005, 9.999635 
2.8500682e+2, 2.2560897e+2, -722337.75, -782318.6, -19514.463, -0.010075003, -0.29803193, -716547.7, 12455.616, 0.0, 10.000317, 9.999519 
2.8501552e+2, 2.3560871e+2, -594347.56, -673042.8, -17163.076, -0.03359632, -0.27828026, -590767.25, 40238.832, 0.0, 10.000536, 9.999491 
2.850242e+2, 2.456079e+2, -504432.53, -655998.94, -27023.2, -0.04049808, -0.27100682, -499758.63, 33255.64, 0.0, 10.0008135, 9.998802 
2.8503284e+2, 2.5560668e+2, -361026.44, -538553.44, -24737.37, -0.034693398, -0.27584878, -357643.88, 77382.59, 0.0, 10.001136, 9.99878 
2.8504124e+2, 2.6560506e+2, -258774.69, -507966.44, -29464.555, -0.04829582, -0.28176886, -255338.19, 81703.88, 0.0, 10.001464, 9.998159 
2.850494e+2, 2.7560312e+2, -113239.14, -388276.47, -30057.205, -0.07577464, -0.2939522, -109992.69, 129067.71, 0.0, 10.001796, 9.998148 
2.850581e+2, 2.8560084e+2, 227.5188, -335145.22, -25759.723, -0.05718867, -0.31081173, 2194.566, 143276.94, 0.0, 10.002128, 9.997681 
2.8506717e+2, 2.9559842e+2, 147596.3, -212363.73, -22917.445, -0.006501487, -0.32413867, 149049.5, 192155.55, 0.0, 10.002463, 9.997689 
2.850751e+2, 3.0559686e+2, 249813.44, -123977.38, -25269.734, -0.068228334, -0.2514547, 251514.03, 251514.03, 0.0, 10.002769, 9.997815 
2.850843e+2, 3.155937e+2, 315590.3, -52336.695, 9016.965, -0.0021592712, -0.35241467, 315811.16, 315811.16, 0.00000000043435586, 10.003049, 9.998172 
2.949107e+2, 1.2559187e+2, -2101824.3, -1717239.8, 17100.703, 0.022635804, -0.5049049, -1716480.9, -7327.1294, 0.000000040732502, 9.996552, 10.001646 
2.9492107e+2, 1.3559407e+2, -1930538.0, -1596100.0, 23699.14, 0.08500127, -0.44188616, -1594428.9, 16703.758, 0.0000000000036468957, 9.9971075, 10.001538 
2.9493085e+2, 1.4559515e+2, -1798247.5, -1530430.9, 18650.232, 0.07921668, -0.46354088, -1529138.4, -16015.745, 0.0, 9.997553, 10.0011 
2.949404e+2, 1.5559629e+2, -1648722.5, -1409139.8, 15206.677, 0.060370937, -0.46097353, -1408178.4, 6933.3613, 0.0, 9.997913, 10.001085 
2.9495e+2, 1.6559723e+2, -1530097.6, -1345389.4, 11888.681, 0.05018566, -0.45313594, -1344627.4, -27523.842, 0.0, 9.998245, 10.0006895 
2.949597e+2, 1.75598e+2, -1386647.1, -1225359.1, 9056.694, 0.04322546, -0.4479046, -1224852.3, -5754.7134, 0.0, 9.998557, 10.00069 
2.949693e+2, 1.8559876e+2, -1255465.1, -1144991.8, 9754.607, 0.031025806, -0.42458448, -1144137.1, -23045.324, 0.0, 9.998929, 10.00039 
2.949789e+2, 1.9559953e+2, -1097967.8, -1021919.9, 11759.116, 0.016099652, -0.38762015, -1020143.1, 2942.7742, 0.0, 9.999353, 10.000358 
2.949884e+2, 2.0559984e+2, -1001327.06, -1012553.06, 5845.572, 0.0052123363, -0.35048994, -998836.0, -73749.72, 0.0, 9.9997225, 9.999572 
2.949979e+2, 2.1559978e+2, -854312.9, -888735.1, 3111.3792, -0.0031777364, -0.31633183, -854033.94, -26942.508, 0.0, 10.00005, 9.999591 
2.9500714e+2, 2.2559954e+2, -717309.06, -771835.0, -11282.33, -0.012994099, -0.29654008, -715066.8, 14028.632, 0.0, 10.000317, 9.999592 
2.9501617e+2, 2.3559923e+2, -589202.56, -662402.06, -8670.692, -0.023465855, -0.29033992, -588189.5, 42908.848, 0.0, 10.000536, 9.999564 
2.9502505e+2, 2.4559844e+2, -500429.4, -647776.2, -14984.844, -0.03743835, -0.287639, -498920.94, 34185.082, 0.0, 10.0008135, 9.998858 
2.9503378e+2, 2.555973e+2, -357378.94, -530941.5, -12635.947, -0.05477844, -0.2896264, -356463.8, 78653.35, 0.0, 10.001135, 9.998833 
2.9504257e+2, 2.655957e+2, -260907.94, -512253.5, -17116.004, -0.06079216, -0.29536986, -259747.73, 77384.81, 0.0, 10.001464, 9.99813 
2.950514e+2, 2.7559373e+2, -114894.08, -391580.78, -17701.646, -0.055929888, -0.3090727, -113766.17, 125385.09, 0.0, 10.001796, 9.998126 
2.9506043e+2, 2.8559142e+2, 4646.018, -325928.13, -13283.119, -0.039956737, -0.3292233, 5178.901, 146352.36, 0.0, 10.002128, 9.997745 
2.950695e+2, 2.9558903e+2, 151141.69, -204841.61, -10528.0205, -0.019901466, -0.34794843, 151452.78, 194650.11, 0.0, 10.002462, 9.997742 
2.9507774e+2, 3.0558765e+2, 244303.63, -135435.03, -14849.266, -0.08249677, -0.25492066, 244883.4, 244883.4, 0.0, 10.0027685, 9.997737 
2.9508746e+2, 3.1558445e+2, 321482.63, -40515.625, 18974.717, 0.00723559, -0.35221848, 322474.5, 322474.5, 0.0, 10.003051, 9.998253 
3.049075e+2, 1.2558244e+2, -2050389.0, -1706909.6, -2313.3147, 0.02597081, -0.5012175, -1706894.1, 2352.1575, 0.000000022140249, 9.996968, 10.001516 
3.049182e+2, 1.3558455e+2, -1909044.0, -1599597.0, 7825.542, 0.07683445, -0.43328917, -1599399.3, 11827.192, 0.0, 9.997315, 10.001413 
3.0492827e+2, 1.4558555e+2, -1786895.3, -1531468.8, 1026.2587, 0.064231925, -0.4535416, -1531464.6, -18247.418, 0.0, 9.99766, 10.00104 
3.049383e+2, 1.5558651e+2, -1639990.9, -1411175.5, -2722.753, 0.0560927, -0.4624497, -1411143.1, 4064.6536, 0.0, 9.998001, 10.001029 
3.049483e+2, 1.6558741e+2, -1514481.9, -1341923.8, -4757.0327, 0.04854831, -0.45520496, -1341792.8, -24592.713, 0.0, 9.99837, 10.000653 
3.0495828e+2, 1.7558822e+2, -1358612.6, -1215644.9, -5142.9595, 0.036679175, -0.44128466, -1215460.1, 3733.6477, 0.0, 9.998766, 10.000657 
3.0496827e+2, 1.8558897e+2, -1227908.9, -1131452.1, -5316.1772, 0.02555138, -0.41652894, -1131160.0, -9971.955, 0.0, 9.999118, 10.000392 
3.0497828e+2, 1.9558972e+2, -1085194.3, -1014817.1, -8521.695, 0.016826395, -0.38417718, -1013799.94, 9382.6455, 0.0, 9.999437, 10.000366 
3.0498812e+2, 2.0559001e+2, -1002586.8, -1006592.6, -16036.383, 0.006040924, -0.35105836, -988428.75, -63246.05, 0.0, 9.999685, 9.99963 
3.049978e+2, 2.1558999e+2, -875342.75, -892749.56, -10435.011, -0.007143354, -0.32001293, -870457.94, -43270.9, 0.0, 9.999879, 9.999645 
3.0500734e+2, 2.2558977e+2, -736543.5, -780612.6, -22369.854, -0.01788382, -0.3020064, -727178.5, 2012.2325, 0.0, 10.000182, 9.999597 
3.050167e+2, 2.3558943e+2, -583189.5, -658815.75, -24964.7, -0.02628112, -0.29682615, -575691.8, 55501.87, 0.0, 10.000575, 9.999571 
3.0502588e+2, 2.4558863e+2, -488625.75, -640617.75, -36045.023, -0.039802615, -0.29684722, -480510.9, 52690.652, 0.0, 10.000888, 9.998872 
3.0503488e+2, 2.5558746e+2, -355752.94, -528268.5, -36878.67, -0.057894256, -0.30273008, -348200.03, 87012.94, 0.0, 10.001139, 9.99885 
3.05044e+2, 2.6558587e+2, -260396.38, -505390.72, -37265.35, -0.061178755, -0.30845088, -254853.45, 82374.33, 0.0, 10.001439, 9.998189 
3.0505323e+2, 2.7558398e+2, -113048.67, -384541.94, -31545.576, -0.050845172, -0.31881154, -109431.49, 129813.79, 0.0, 10.001782, 9.99818 
3.0506256e+2, 2.8558174e+2, -3335.4, -332024.03, -29174.93, -0.034960434, -0.33908802, -765.87366, 140501.6, 0.0, 10.002083, 9.997724 
3.050719e+2, 2.9557925e+2, 132840.34, -216272.23, -32649.35, -0.019408088, -0.36104056, 135867.5, 179159.84, 0.0, 10.002348, 9.997718 
3.0508044e+2, 3.0557796e+2, 228122.47, -147434.27, -36771.715, -0.083128214, -0.2575131, 231689.02, 231689.02, 0.0, 10.002677, 9.997699 
3.0509052e+2, 3.1557468e+2, 332147.4, -20146.5, -816.17914, 0.008049575, -0.35974008, 332149.28, 332149.28, 0.0, 10.003059, 9.998388 
3.149047e+2, 1.255727e+2, -2055585.0, -1717728.9, 10553.135, 0.049270447, -0.4781213, -1717399.5, -8056.91, 0.00000002336468, 9.996968, 10.001442 
3.1491542e+2, 1.3557467e+2, -1913798.3, -1610326.9, 20979.514, 0.0632997, -0.4179198, -1608883.4, 2440.8623, 0.0, 9.997319, 10.001338 
3.149257e+2, 1.4557558e+2, -1790782.6, -1540310.3, 13859.265, 0.039965127, -0.44050995, -1539545.6, -26229.969, 0.0, 9.997663, 10.000978 
3.149363e+2, 1.5557641e+2, -1644204.0, -1419678.1, 10164.387, 0.058209933, -0.45717153, -1419219.0, -3911.382, 0.0, 9.997999, 10.000972 
3.149467e+2, 1.6557726e+2, -1515209.4, -1343026.4, 10152.196, 0.051376615, -0.45067102, -1342429.8, -25129.61, 0.0, 9.998369, 10.000647 
3.1495684e+2, 1.755781e+2, -1359111.3, -1216916.3, 9567.321, 0.01736629, -0.43146917, -1216275.4, 3018.074, 0.0, 9.998767, 10.000648 
3.1496716e+2, 1.8557885e+2, -1232178.4, -1140680.3, 6643.305, 0.005736172, -0.40438214, -1140200.4, -18912.287, 0.0, 9.999119, 10.000329 
3.149777e+2, 1.9557953e+2, -1088630.4, -1021984.0, 3242.1143, 0.014812551, -0.37252077, -1021826.6, 1456.8519, 0.0, 9.999436, 10.000318 
3.1498784e+2, 2.055798e+2, -990865.2, -982158.75, -8757.922, 0.009795662, -0.34819654, -976731.8, -51448.574, 0.0, 9.999685, 9.999798 
3.1499767e+2, 2.1557978e+2, -864608.0, -870457.75, -2681.6035, -0.0075046076, -0.3322558, -863564.75, -36278.523, 0.0, 9.999878, 9.999799 
3.1500742e+2, 2.255796e+2, -741067.5, -790079.9, -7518.672, -0.024974268, -0.31445077, -739940.06, -10650.77, 0.0, 10.000182, 9.999532 
3.150171e+2, 2.3557933e+2, -587490.1, -667734.1, -10477.214, -0.042049076, -0.29783672, -586144.7, 45147.51, 0.0, 10.000575, 9.99951 
3.1502667e+2, 2.4557847e+2, -490874.03, -645198.44, -26688.002, -0.047706444, -0.29868063, -486389.13, 46911.742, 0.0, 10.000888, 9.99884 
3.1503612e+2, 2.5557718e+2, -357096.34, -531040.25, -27360.904, -0.04459898, -0.3150773, -352894.06, 82419.74, 0.0, 10.001139, 9.998831 
3.1504557e+2, 2.6557565e+2, -250359.11, -484611.56, -24463.96, -0.04990959, -0.32099494, -247831.5, 89496.2, 0.0, 10.001439, 9.998331 
3.150549e+2, 2.7557397e+2, -104049.766, -365805.7, -18866.588, -0.060458064, -0.3233074, -102696.914, 136645.5, 0.0, 10.001782, 9.998309 
3.1506458e+2, 2.8557175e+2, -10650.422, -347243.06, -19335.666, -0.04220885, -0.3405652, -9543.319, 131821.05, 0.0, 10.002083, 9.997619 
3.1507438e+2, 2.9556915e+2, 126156.68, -230556.44, -22544.615, -0.0053965696, -0.36370167, 127575.875, 170966.95, 0.0, 10.00235, 9.997619 
3.1508327e+2, 3.0556783e+2, 228283.22, -147649.92, -22362.342, -0.07060437, -0.25920284, 229608.77, 229608.77, 0.0, 10.002679, 9.997696 
3.150935e+2, 3.155644e+2, 345116.63, 6658.551, 12840.15, -0.0009074192, -0.37650716, 345603.03, 345603.03, 0.0, 10.003059, 9.998572 
3.2490185e+2, 1.2556249e+2, -2034126.6, -1711486.9, -3776.1997, 0.06333447, -0.465979, -1711442.8, -1999.2968, 0.00000007294155, 9.997134, 10.001405 
3.249128e+2, 1.3556428e+2, -1887667.6, -1602613.8, 9111.778, 0.06062987, -0.4177451, -1602322.8, 9103.595, 0.00000000003860718, 9.9975195, 10.001294 
3.249233e+2, 1.4556517e+2, -1772065.3, -1537616.0, -169.48029, 0.02717841, -0.4369052, -1537615.9, -24197.879, 0.0, 9.997819, 10.000921 
3.249343e+2, 1.55566e+2, -1642099.0, -1424718.8, -3444.7944, 0.0555752, -0.44786102, -1424664.1, -9254.004, 0.0, 9.99804, 10.0009165 
3.2494506e+2, 1.6556682e+2, -1521871.5, -1350328.9, -665.71564, 0.05212892, -0.44028214, -1350326.3, -32923.004, 0.0, 9.998342, 10.000609 
3.2495555e+2, 1.7556763e+2, -1369726.9, -1225794.8, -3869.802, 0.01513639, -0.42316225, -1225690.9, -6293.5757, 0.0, 9.998711, 10.000613 
3.249662e+2, 1.8556838e+2, -1245797.9, -1146344.9, -8245.303, 0.001189332, -0.39427197, -1145665.9, -24274.078, 0.0, 9.999022, 10.000336 
3.2497698e+2, 1.955691e+2, -1109741.9, -1030955.5, -6391.634, 0.008806483, -0.357682, -1030440.4, -7053.804, 0.0, 9.999287, 10.000328 
3.2498744e+2, 2.0556933e+2, -994211.2, -977657.8, -20364.656, 0.0035942642, -0.34071505, -963952.1, -38565.89, 0.0, 9.999636, 9.999852 
3.249976e+2, 2.1556918e+2, -835477.56, -850432.7, -23043.223, -0.013008747, -0.34183216, -818729.0, 8660.733, 0.0, 10.000053, 9.999852 
3.2500762e+2, 2.2556902e+2, -722123.0, -778239.1, -29696.723, -0.028691664, -0.32560596, -709325.8, 20066.53, 0.0, 10.000301, 9.999556 
3.2501757e+2, 2.355689e+2, -609266.75, -675695.75, -25799.094, -0.042945705, -0.29809818, -600424.2, 30969.818, 0.0, 10.000414, 9.999532 
3.250275e+2, 2.4556804e+2, -518950.66, -662920.75, -35813.676, -0.044254906, -0.29585558, -510533.78, 22868.887, 0.0, 10.000713, 9.998803 
3.250374e+2, 2.555667e+2, -355664.66, -533573.94, -37203.227, -0.035591815, -0.31538367, -348198.3, 87218.34, 0.0, 10.001163, 9.998802 
3.250471e+2, 2.655652e+2, -235274.14, -466425.97, -38477.66, -0.041542318, -0.32356596, -229037.39, 108392.95, 0.0, 10.001496, 9.998429 
3.250567e+2, 2.755636e+2, -103513.24, -354669.56, -36116.438, -0.057852782, -0.32739815, -98422.84, 141021.02, 0.0, 10.0017395, 9.998406 
3.250667e+2, 2.8556144e+2, -6554.977, -341109.7, -29764.816, -0.039790016, -0.3435506, -3927.4827, 137537.34, 0.0, 10.002093, 9.997656 
3.250769e+2, 2.955589e+2, 155674.25, -213287.77, -22946.543, 0.0015547083, -0.36394268, 157095.86, 200586.67, 0.0, 10.00254, 9.997646 
3.2508603e+2, 3.055575e+2, 236911.38, -157292.16, -27294.252, -0.06586455, -0.26412454, 238792.22, 238792.22, 0.0, 10.002798, 9.997572 
3.2509643e+2, 3.1555378e+2, 327218.13, 6476.765, -1536.3615, -0.0043847393, -0.39683726, 327225.5, 327225.5, 0.0, 10.002901, 9.998647 
3.3489904e+2, 1.2555178e+2, -2033934.9, -1712161.0, 10109.732, 0.06609726, -0.4654105, -1711843.6, -2294.8892, 0.00000025481785, 9.997138, 10.001398 
3.3491036e+2, 1.355534e+2, -1888999.8, -1605037.3, 23349.729, 0.0684958, -0.43342623, -1603130.0, 8403.043, 0.0000000058941185, 9.997518, 10.001279 
3.3492112e+2, 1.4555435e+2, -1776220.1, -1545661.4, 8390.701, 0.025697295, -0.44307148, -1545356.4, -31832.201, 0.0, 9.997816, 10.000868 
3.3493224e+2, 1.5555532e+2, -1645623.8, -1432367.3, 5263.0454, 0.047345143, -0.43445286, -1432237.4, -16722.03, 0.0, 9.998042, 10.000864 
3.3494338e+2, 1.655561e+2, -1526565.3, -1360506.1, 13216.181, 0.05020969, -0.42397332, -1359460.9, -41951.7, 0.0, 9.9983425, 10.000539 
3.349544e+2, 1.7555675e+2, -1374274.3, -1235067.3, 9858.365, 0.030074082, -0.41650468, -1234372.6, -14867.49, 0.0, 9.99871, 10.00055 
3.349653e+2, 1.8555751e+2, -1240613.3, -1135257.5, 1709.7908, 0.012007439, -0.386337, -1135229.8, -13730.453, 0.0, 9.999021, 10.000413 
3.3497617e+2, 1.9555841e+2, -1105016.4, -1021037.06, 3956.2986, -0.0013948438, -0.33967003, -1020851.06, 2640.7507, 0.0, 9.999287, 10.000397 
3.3498687e+2, 2.055586e+2, -998492.1, -986499.5, -4599.319, -0.012822117, -0.32857752, -984938.7, -59446.914, 0.0, 9.999636, 9.999792 
3.3499753e+2, 2.155582e+2, -838921.94, -857608.44, -7856.455, -0.023864446, -0.34870085, -836057.8, -8560.194, 0.0, 10.000052, 9.999803 
3.350079e+2, 2.2555806e+2, -714156.3, -761814.94, -25467.898, -0.029281275, -0.33545208, -703108.0, 26391.875, 0.0, 10.000301, 9.999668 
3.3501813e+2, 2.3555812e+2, -601822.44, -660359.5, -20850.13, -0.029337594, -0.29755968, -595155.25, 36343.902, 0.0, 10.000415, 9.999638 
3.3502835e+2, 2.4555737e+2, -522129.06, -669605.9, -18970.162, -0.029745664, -0.28837544, -519728.0, 13779.014, 0.0, 10.000713, 9.998756 
3.3503857e+2, 2.55556e+2, -358533.16, -539412.2, -20770.44, -0.03092196, -0.30386811, -356178.72, 79342.82, 0.0, 10.001162, 9.998762 
3.3504865e+2, 2.655545e+2, -231635.73, -458746.13, -29484.266, -0.036146168, -0.31635126, -227870.4, 109665.27, 0.0, 10.001495, 9.998482 
3.3505857e+2, 2.7555284e+2, -99044.266, -345330.34, -26753.59, -0.04342809, -0.33125222, -96171.586, 143377.98, 0.0, 10.001739, 9.998471 
3.3506888e+2, 2.8555077e+2, 5567.038, -315842.63, -13153.649, -0.02816609, -0.34819984, 6104.451, 147673.28, 0.0, 10.002093, 9.99783 
3.3507943e+2, 2.9554853e+2, 165867.1, -191786.11, -6982.428, 0.0011516311, -0.3617106, 166003.36, 209594.92, 0.0, 10.002539, 9.997795 
3.350888e+2, 3.0554694e+2, 220045.66, -192443.78, -23647.834, -0.06909667, -0.27193752, 221396.95, 221396.95, 0.0, 10.002798, 9.997331 
3.3509934e+2, 3.155428e+2, 325626.7, 1876.3855, 1762.8461, -0.0032192387, -0.42283428, 325636.28, 325636.28, 0.0, 10.002907, 9.998613 
3.4489623e+2, 1.2554084e+2, -1992106.6, -1699495.6, -4956.619, 0.05643208, -0.4555594, -1699411.6, 10244.91, 0.00000066099744, 9.9974575, 10.001331 
3.44908e+2, 1.3554226e+2, -1876464.9, -1606913.6, 4029.6602, 0.07458829, -0.4359382, -1606853.4, 4789.6177, 0.000000050287014, 9.997638, 10.001207 
3.4491894e+2, 1.4554323e+2, -1764468.6, -1539792.3, -10944.675, 0.026545722, -0.4401656, -1539260.4, -25626.371, 0.0000000000012273421, 9.997896, 10.000869 
3.4493032e+2, 1.555443e+2, -1620625.5, -1420312.6, -10143.274, 0.041953914, -0.4210726, -1419800.4, -4176.002, 0.0, 9.998214, 10.000863 
3.4494177e+2, 1.6554509e+2, -1504686.5, -1355042.4, 2659.6907, 0.046413768, -0.40792572, -1354995.1, -37376.984, 0.0, 9.998515, 10.000493 
3.4495318e+2, 1.7554565e+2, -1362830.6, -1234111.1, 1044.0701, 0.033411738, -0.40340737, -1234102.6, -14487.709, 0.0, 9.998808, 10.000509 
3.4496439e+2, 1.8554637e+2, -1225813.5, -1125019.1, -9824.685, 0.015620221, -0.37769118, -1124070.4, -2461.0012, 0.0, 9.999108, 10.000441 
3.449755e+2, 1.9554724e+2, -1083977.8, -1007801.94, -11267.0625, -0.0027448828, -0.33681363, -1006170.44, 17431.418, 0.0, 9.999417, 10.000423 
3.4498647e+2, 2.0554742e+2, -993975.6, -983157.1, -17996.176, -0.016875274, -0.32735014, -969774.8, -44173.344, 0.0, 9.999661, 9.999803 
3.449974e+2, 2.1554706e+2, -867502.8, -870072.7, -16048.183, -0.028850056, -0.34590763, -852688.2, -25081.36, 0.0, 9.999851, 9.999815 
3.450081e+2, 2.2554691e+2, -737600.1, -771062.3, -37838.082, -0.030340066, -0.3342914, -712959.1, 16649.945, 0.0, 10.000132, 9.999686 
3.4501866e+2, 2.3554695e+2, -590003.75, -652464.06, -40151.297, -0.022526477, -0.3002903, -570366.94, 61241.75, 0.0, 10.000486, 9.999657 
3.450292e+2, 2.4554625e+2, -507055.78, -656851.6, -33130.402, -0.021066463, -0.29086187, -500055.47, 33560.69, 0.0, 10.000793, 9.998806 
3.4503973e+2, 2.5554496e+2, -369519.9, -539217.3, -27983.41, -0.025218382, -0.30309638, -365024.5, 70605.305, 0.0, 10.001062, 9.998811 
3.4505013e+2, 2.655435e+2, -245634.05, -464011.53, -36676.145, -0.030730119, -0.31408086, -239638.94, 98004.67, 0.0, 10.001393, 9.998495 
3.450604e+2, 2.7554184e+2, -92401.81, -340027.3, -36997.96, -0.036012683, -0.32866347, -86992.09, 152665.53, 0.0, 10.001775, 9.99849 
3.4507105e+2, 2.8553984e+2, 10649.937, -300060.0, -26344.482, -0.019224294, -0.34868047, 12867.802, 154543.98, 0.0, 10.00207, 9.99795 
3.4508193e+2, 2.955376e+2, 137840.88, -193600.45, -24142.07, 0.011374691, -0.36865306, 139590.16, 183287.83, 0.0, 10.0022955, 9.997899 
3.4509158e+2, 3.0553594e+2, 195237.22, -222751.13, -39124.445, -0.06371238, -0.28454724, 198867.8, 198867.8, 0.0, 10.002707, 9.997167 
3.451024e+2, 3.155318e+2, 380729.22, 31791.41, -8737.059, -0.0075729177, -0.41883755, 380947.84, 380947.84, 0.0, 10.00327, 9.998643 
3.5489345e+2, 1.2552966e+2, -2001568.0, -1718647.6, 1116.4937, 0.032642808, -0.43606043, -1718643.3, -8876.373, 0.0000013452728, 9.997455, 10.001201 
3.5490566e+2, 1.3553086e+2, -1885252.5, -1625686.3, 11221.301, 0.07765002, -0.42493737, -1625202.0, -13445.974, 0.00000017487064, 9.99764, 10.001078 
3.5491687e+2, 1.455318e+2, -1760365.9, -1531864.1, 1009.8991, 0.029021354, -0.42812958, -1531859.6, -18112.123, 0.0000000006565857, 9.997898, 10.000922 
3.549285e+2, 1.5553294e+2, -1617100.9, -1413080.3, 1686.0684, 0.039310798, -0.40804803, -1413066.4, 2670.5454, 0.0, 9.998214, 10.000913 
3.549402e+2, 1.6553377e+2, -1506286.6, -1358424.8, 13628.045, 0.040530115, -0.39238453, -1357179.1, -39448.93, 0.0, 9.998515, 10.00047 
3.5495192e+2, 1.7553434e+2, -1364275.0, -1237296.4, 12137.431, 0.024535721, -0.38384306, -1236146.6, -16419.867, 0.0, 9.998809, 10.000487 
3.5496348e+2, 1.8553492e+2, -1227319.5, -1128345.5, 1807.3976, 0.0115331225, -0.3683354, -1128312.5, -6590.3174, 0.0, 9.999109, 10.000418 
3.54975e+2, 1.9553557e+2, -1085052.5, -1010175.4, 234.30858, 0.0046099974, -0.34925896, -1010174.6, 13541.96, 0.0, 9.999418, 10.000407 
3.5498625e+2, 2.055358e+2, -988358.25, -971555.56, -10866.852, -0.008610922, -0.33715954, -966221.1, -40505.824, 0.0, 9.999661, 9.999882 
3.5499728e+2, 2.1553573e+2, -862385.25, -859479.44, -8497.757, -0.028116906, -0.33350897, -852311.3, -24593.799, 0.0, 9.999851, 9.999887 
3.5500824e+2, 2.2553559e+2, -743106.0, -782544.4, -24453.668, -0.032013513, -0.3221514, -731411.4, -1691.4087, 0.0, 10.000132, 9.999608 
3.550191e+2, 2.3553537e+2, -594645.3, -662217.7, -26969.178, -0.02262881, -0.3062379, -585201.4, 46521.168, 0.0, 10.000487, 9.99959 
3.5503e+2, 2.4553464e+2, -497024.28, -636139.94, -23125.504, -0.018309917, -0.30323607, -493280.8, 40449.277, 0.0, 10.000793, 9.998948 
3.5504085e+2, 2.5553352e+2, -359999.03, -519343.75, -17812.816, -0.01875236, -0.31296903, -358032.06, 77709.36, 0.0, 10.001062, 9.998948 
3.5505158e+2, 2.6553217e+2, -247612.73, -467974.6, -22494.97, -0.025521167, -0.31669423, -245339.84, 92414.25, 0.0, 10.001392, 9.998468 
3.5506216e+2, 2.755306e+2, -94298.4, -343740.1, -23069.084, -0.035743687, -0.31954956, -92182.84, 147585.11, 0.0, 10.001774, 9.998466 
3.5507318e+2, 2.855286e+2, 15211.017, -290444.13, -18170.541, -0.013095393, -0.3449408, 16287.426, 158074.25, 0.0, 10.002069, 9.998016 
3.5508445e+2, 2.955262e+2, 142253.69, -184509.83, -15357.426, 0.03183131, -0.3850768, 142973.88, 186782.95, 0.0, 10.0022955, 9.997962 
3.5509443e+2, 3.055245e+2, 189038.11, -235871.83, -18281.361, -0.050270826, -0.30217725, 189823.2, 189823.2, 0.0, 10.0027075, 9.997076 
3.5510552e+2, 3.155208e+2, 387395.28, 45167.906, 11601.691, -0.019003963, -0.38915002, 387788.13, 387788.13, 0.0, 10.003272, 9.998734 
3.6489096e+2, 1.2551813e+2, -1998098.8, -1725238.9, -12802.484, 0.038146716, -0.4237001, -1724639.5, -14759.221, 0.000002293197, 9.997515, 10.001126 
3.6490336e+2, 1.355192e+2, -1883023.3, -1633899.1, 2906.663, 0.08040942, -0.41534817, -1633865.3, -21994.191, 0.00000039420158, 9.997695, 10.000995 
3.6491477e+2, 1.4552012e+2, -1744558.0, -1527484.9, -2277.9714, 0.021575907, -0.4164437, -1527460.9, -13597.976, 0.000000005977529, 9.998021, 10.000893 
3.6492676e+2, 1.5552123e+2, -1583586.5, -1399594.0, -8352.62, 0.033131916, -0.39856997, -1399215.6, 16637.21, 0.0, 9.998455, 10.000889 
3.649388e+2, 1.6552205e+2, -1470635.4, -1339420.3, -2090.1492, 0.035867624, -0.38195542, -1339387.0, -21541.03, 0.0, 9.998752, 10.000486 
3.6495075e+2, 1.7552267e+2, -1343688.4, -1225843.6, -523.7145, 0.020611601, -0.36976847, -1225841.4, -5999.5996, 0.0, 9.998943, 10.000501 
3.6496255e+2, 1.8552321e+2, -1222105.4, -1132464.6, -9632.556, 0.007874462, -0.35807252, -1131441.3, -9603.58, 0.0, 9.999173, 10.000358 
3.6497438e+2, 1.9552368e+2, -1086169.6, -1016327.06, -14219.868, 0.0010341448, -0.3486851, -1013542.94, 10290.761, 0.0, 9.999434, 10.000357 
3.649859e+2, 2.0552391e+2, -983504.4, -958269.5, -29512.564, -0.007711138, -0.3400581, -938790.4, -12958.162, 0.0, 9.999648, 9.99998 
3.6499718e+2, 2.1552397e+2, -860198.0, -848317.06, -25548.533, -0.019091364, -0.33500037, -828027.44, -194.81569, 0.0, 9.999823, 9.999978 
3.650084e+2, 2.2552383e+2, -748411.6, -791498.0, -33007.695, -0.02313394, -0.32234943, -730538.9, -703.9608, 0.0, 10.000123, 9.99955 
3.6501965e+2, 2.3552358e+2, -592459.06, -666698.0, -34245.93, -0.020633902, -0.30522397, -579074.7, 52763.87, 0.0, 10.000525, 9.99954 
3.6503083e+2, 2.4552286e+2, -486477.66, -623399.1, -37194.625, -0.016242912, -0.3020207, -477026.2, 56819.86, 0.0, 10.0008335, 9.999017 
3.65042e+2, 2.555218e+2, -354863.53, -509412.06, -37379.156, -0.011027551, -0.3125091, -346297.75, 89558.7, 0.0, 10.001065, 9.999015 
3.65053e+2, 2.655205e+2, -253226.42, -467224.56, -38803.45, -0.01869816, -0.31290767, -246407.63, 91460.78, 0.0, 10.001338, 9.9985 
3.6506388e+2, 2.7551907e+2, -110335.11, -347954.1, -35135.59, -0.035177775, -0.3087699, -105248.66, 134633.02, 0.0, 10.001649, 9.998497 
3.650752e+2, 2.8551707e+2, 5217.095, -294776.1, -31976.568, -0.0139559265, -0.33498687, 8587.64, 150488.11, 0.0, 10.001999, 9.998021 
3.650868e+2, 2.955146e+2, 155027.55, -178031.42, -33241.76, 0.03371381, -0.3832477, 158312.92, 202236.1, 0.0, 10.002381, 9.997965 
3.650972e+2, 3.055128e+2, 200963.86, -234734.88, -28732.205, -0.046813883, -0.31140733, 202850.44, 202850.44, 0.0, 10.002809, 9.997036 
3.6510882e+2, 3.1550935e+2, 396157.47, 62299.664, 3855.7183, -0.014616278, -0.36626303, 396202.0, 396202.0, 0.0, 10.003277, 9.998851 
3.7488884e+2, 1.2550627e+2, -1999531.8, -1727954.6, -7405.638, 0.073354855, -0.41925028, -1727752.8, -17756.021, 0.000003431768, 9.997513, 10.001109 
3.7490106e+2, 1.3550736e+2, -1885959.4, -1639612.3, 10210.181, 0.08285722, -0.4076827, -1639189.8, -27201.996, 0.0000006949508, 9.997693, 10.000957 
3.749126e+2, 1.4550823e+2, -1752704.6, -1544242.5, 14190.865, 0.003704054, -0.40547964, -1543280.9, -29300.492, 0.00000001953993, 9.99802, 10.000778 
3.749251e+2, 1.5550916e+2, -1590534.4, -1414455.4, 7446.1616, 0.02272006, -0.39278185, -1414141.0, 1831.1355, 0.0, 9.998456, 10.000786 
3.749375e+2, 1.6550997e+2, -1466336.5, -1331114.3, 4948.6064, 0.03202393, -0.37681565, -1330933.4, -12967.906, 0.0, 9.998754, 10.000543 
3.7494966e+2, 1.7551066e+2, -1340122.0, -1218804.9, 6848.8804, 0.021578126, -0.36150846, -1218419.4, 1540.5903, 0.0, 9.998944, 10.000548 
3.749617e+2, 1.855112e+2, -1228890.3, -1146745.5, 193.82289, 0.0045451075, -0.34707054, -1146745.0, -24789.025, 0.0, 9.999174, 10.00026 
3.7497362e+2, 1.955116e+2, -1092174.0, -1028888.8, -4500.559, -0.0137444185, -0.33506224, -1028570.4, -4617.2017, 0.0, 9.999434, 10.000271 
3.749855e+2, 2.0551176e+2, -975356.06, -941462.2, -22913.525, -0.014454435, -0.33598587, -929909.5, -3957.4377, 0.0, 9.999648, 10.000095 
3.749972e+2, 2.1551174e+2, -852589.06, -832700.75, -18464.525, -0.0020101583, -0.35025078, -821672.94, 6279.3237, 0.0, 9.999823, 10.000085 
3.7500876e+2, 2.2551166e+2, -751016.06, -797004.4, -17831.783, -0.0038842561, -0.33479765, -744912.06, -14958.137, 0.0, 10.000123, 9.999513 
3.750202e+2, 2.3551157e+2, -594771.7, -671415.94, -19453.328, -0.016689345, -0.29735324, -590116.9, 41839.793, 0.0, 10.000525, 9.999508 
3.7503168e+2, 2.4551089e+2, -486887.72, -624232.25, -28567.197, -0.015074631, -0.2873733, -481182.8, 52781.168, 0.0, 10.000833, 9.999011 
3.7504315e+2, 2.555098e+2, -354988.9, -509796.34, -28605.494, -0.0022983728, -0.301662, -349872.25, 86102.57, 0.0, 10.001065, 9.999012 
3.7505442e+2, 2.6550853e+2, -247103.9, -454542.44, -27380.371, -0.010385536, -0.302746, -243550.75, 94435.73, 0.0, 10.001338, 9.998587 
3.7506554e+2, 2.7550724e+2, -104549.63, -335633.0, -23613.406, -0.0345207, -0.29677868, -102161.37, 137837.4, 0.0, 10.001647, 9.998582 
3.750771e+2, 2.8550524e+2, 1228.158, -302809.34, -17922.95, -0.02196805, -0.3191816, 2281.066, 144298.13, 0.0, 10.001997, 9.997967 
3.75089e+2, 2.955028e+2, 151363.94, -185721.38, -19052.082, 0.01714561, -0.3630211, 152437.34, 196477.19, 0.0, 10.002381, 9.997912 
3.7509996e+2, 3.0550075e+2, 201381.27, -233896.95, -11492.099, -0.053462937, -0.31177026, 201684.45, 201684.45, 0.0, 10.002809, 9.997042 
3.7511227e+2, 3.154974e+2, 405828.25, 82760.805, 20118.018, 0.0035952907, -0.35451078, 407076.2, 407076.2, 0.0, 10.003275, 9.998992 
3.848865e+2, 1.2549394e+2, -2000691.6, -1735385.1, -23984.309, 0.08715829, -0.4225904, -1733234.4, -23116.684, 0.000004652705, 9.997535, 10.001047 
3.8489887e+2, 1.35495e+2, -1835880.4, -1623713.8, -8844.051, 0.07601506, -0.40556404, -1623345.8, -11236.432, 0.0000010439659, 9.998072, 10.000883 
3.849106e+2, 1.4549589e+2, -1698926.0, -1519034.5, -4133.356, -0.013275483, -0.3979981, -1518939.6, -4837.673, 0.000000039313953, 9.998391, 10.000772 
3.8492358e+2, 1.5549679e+2, -1579755.1, -1409539.6, -3071.5476, 0.021685472, -0.38759333, -1409484.3, 6609.8833, 0.0, 9.998531, 10.000784 
3.8493627e+2, 1.6549762e+2, -1464359.5, -1327228.6, -4918.421, 0.034413796, -0.37027597, -1327052.5, -8965.421, 0.0, 9.9987545, 10.000568 
3.849486e+2, 1.7549841e+2, -1323218.0, -1208181.9, -5353.8203, 0.016355915, -0.35028663, -1207933.3, 12147.525, 0.0, 9.999049, 10.000571 
3.8496086e+2, 1.8549892e+2, -1220869.3, -1149785.9, -13034.713, -0.0005464211, -0.3356935, -1147471.0, -25394.041, 0.0, 9.999259, 10.000198 
3.8497305e+2, 1.9549923e+2, -1101391.3, -1039736.6, -14965.472, -0.012004736, -0.32752717, -1036296.06, -12220.738, 0.0, 9.999399, 10.000214 
3.8498515e+2, 2.0549932e+2, -977249.56, -940774.4, -35094.492, -0.01120916, -0.33120602, -919461.56, 6613.014, 0.0, 9.999628, 10.00011 
3.8499704e+2, 2.154993e+2, -836045.1, -823100.75, -38152.99, -0.0018856805, -0.34697786, -790874.9, 37199.734, 0.0, 9.999929, 10.000099 
3.8500893e+2, 2.2549926e+2, -739364.25, -789088.06, -35783.9, -0.00047055783, -0.330163, -720653.2, 9422.721, 0.0, 10.000194, 9.999533 
3.850208e+2, 2.3549922e+2, -607618.4, -675152.94, -33150.004, -0.0045814086, -0.2893299, -594065.94, 38012.297, 0.0, 10.000426, 9.99953 
3.8503256e+2, 2.4549857e+2, -501601.9, -629544.4, -40479.89, -0.0038120737, -0.2793522, -489870.16, 44215.25, 0.0, 10.000724, 9.999027 
3.8504422e+2, 2.5549746e+2, -352433.34, -506907.63, -39024.41, 0.0002317666, -0.2965038, -343134.47, 92961.85, 0.0, 10.001076, 9.999027 
3.8505578e+2, 2.6549625e+2, -244484.33, -453661.8, -41447.855, -0.00980583, -0.29592457, -236570.94, 101536.98, 0.0, 10.001358, 9.998584 
3.8506716e+2, 2.7549496e+2, -113513.164, -340140.9, -44173.68, -0.030336013, -0.2843883, -105207.35, 134912.64, 0.0, 10.001586, 9.998581 
3.8507903e+2, 2.8549302e+2, -6931.5557, -304442.9, -33275.707, -0.022735745, -0.30443275, -3255.2017, 138882.7, 0.0, 10.001931, 9.997987 
3.8509125e+2, 2.9549056e+2, 151586.45, -183683.0, -29001.326, 0.004444868, -0.34944087, 154076.63, 198236.86, 0.0, 10.002375, 9.99793 
3.8510263e+2, 3.0548826e+2, 192273.9, -248315.86, -21920.225, -0.06339035, -0.31870624, 193361.8, 193361.8, 0.0, 10.0027895, 9.996951 
3.8511556e+2, 3.1548512e+2, 393134.03, 77930.46, 1778.1005, 0.009733422, -0.3355092, 393144.06, 393144.06, 0.000000000002787424, 10.003182, 9.999002 
3.9488393e+2, 1.2548114e+2, -2008906.8, -1751620.0, -5311.6436, 0.07824226, -0.4345586, -1751510.4, -41267.26, 0.000005817951, 9.997532, 10.000937 
3.9489675e+2, 1.3548216e+2, -1843424.8, -1639983.5, 10515.205, 0.058975186, -0.40915328, -1639441.5, -27205.963, 0.0000013925978, 9.998074, 10.000771 
3.9490885e+2, 1.4548314e+2, -1691135.4, -1503741.6, 814.8128, -0.029823456, -0.39401785, -1503738.1, 10489.525, 0.00000005997622, 9.998395, 10.000875 
3.949222e+2, 1.5548413e+2, -1572687.8, -1395052.9, 2223.5254, 0.030128736, -0.3832366, -1395025.0, 21193.637, 0.0, 9.998531, 10.000883 
3.949351e+2, 1.6548504e+2, -1464705.9, -1327944.6, 6127.1846, 0.043096483, -0.36246014, -1327670.6, -9459.777, 0.0, 9.9987545, 10.000564 
3.9494753e+2, 1.754859e+2, -1323373.3, -1208698.6, 5502.362, 0.004707985, -0.3359969, -1208435.3, 11768.724, 0.0, 9.99905, 10.000567 
3.9496002e+2, 1.8548636e+2, -1222656.4, -1153784.5, -7770.3354, -0.00764155, -0.32387683, -1152918.8, -30718.16, 0.0, 9.99926, 10.000171 
3.9497265e+2, 1.9548653e+2, -1103302.5, -1043922.6, -9291.038, 0.006231719, -0.32609499, -1042502.8, -18302.762, 0.0, 9.999399, 10.000185 
3.9498487e+2, 2.0548663e+2, -983485.44, -953801.7, -23713.512, 0.0020199942, -0.325729, -940668.4, -14468.539, 0.0, 9.999628, 10.00002 
3.949968e+2, 2.1548666e+2, -841673.4, -834781.0, -26872.895, -0.018871928, -0.32530323, -811134.25, 17065.422, 0.0, 9.999929, 10.000019 
3.95009e+2, 2.2548664e+2, -733923.9, -777830.6, -26999.49, -0.013139031, -0.30853972, -721078.94, 9122.019, 0.0, 10.000194, 9.999611 
3.9502138e+2, 2.3548652e+2, -602265.5, -664175.5, -24163.998, 0.0153942965, -0.28095493, -593950.8, 38252.555, 0.0, 10.000426, 9.999606 
3.9503348e+2, 2.4548587e+2, -499137.13, -624438.8, -27361.262, 0.017346246, -0.27782306, -493423.0, 40787.33, 0.0, 10.000724, 9.999063 
3.9504525e+2, 2.5548476e+2, -350382.28, -502433.78, -26201.137, -0.0034598813, -0.29716045, -345994.0, 90226.97, 0.0, 10.001075, 9.999058 
3.9505702e+2, 2.6548356e+2, -250931.25, -466986.34, -33104.54, -0.017117707, -0.29245314, -245972.69, 92259.98, 0.0, 10.001357, 9.998492 
3.9506882e+2, 2.754823e+2, -119401.77, -352554.44, -35480.81, -0.023076199, -0.2710453, -114121.92, 126123.305, 0.0, 10.001587, 9.998495 
3.95081e+2, 2.8548035e+2, -507.7767, -291045.03, -16893.77, -0.016692616, -0.29026106, 471.24045, 142734.1, 0.0, 10.00193, 9.998079 
3.950935e+2, 2.9547793e+2, 157234.69, -171452.88, -12858.33, -0.004739498, -0.3427423, 157736.94, 202021.25, 0.0, 10.002372, 9.998014 
3.9510527e+2, 3.0547538e+2, 179087.34, -275348.78, -7558.494, -0.07681312, -0.33229873, 179213.03, 179213.03, 0.0, 10.002788, 9.996766 
3.9511868e+2, 3.154724e+2, 385139.0, 61247.676, 15839.653, 0.0027694202, -0.31388545, 385911.8, 385911.8, 0.000000001718879, 10.003182, 9.998888 
4.048813e+2, 1.2546806e+2, -1983070.8, -1727902.5, -29007.713, 0.055229273, -0.4247891, -1724646.4, -14273.718, 0.0000067594556, 9.997661, 10.001038 
4.0489477e+2, 1.3546906e+2, -1849620.5, -1633959.3, 3948.8018, 0.05798556, -0.40873095, -1633887.0, -21522.795, 0.0000016759602, 9.9979925, 10.000851 
4.0490714e+2, 1.454701e+2, -1706126.6, -1511956.5, -11583.435, -0.03233673, -0.39087996, -1511267.9, 3087.7454, 0.00000007424828, 9.998296, 10.000867 
4.049207e+2, 1.5547115e+2, -1567497.9, -1393257.1, -18947.914, 0.024813889, -0.3730823, -1391220.4, 25126.268, 0.0, 9.99857, 10.000876 
4.0493384e+2, 1.6547209e+2, -1449317.6, -1317335.6, -14549.77, 0.038726658, -0.35109678, -1315750.6, 2588.082, 0.0, 9.998846, 10.000592 
4.0494663e+2, 1.7547293e+2, -1309864.8, -1199191.3, -12989.941, 0.0037265592, -0.328176, -1197687.0, 22644.465, 0.0, 9.99913, 10.000594 
4.0495935e+2, 1.8547335e+2, -1211156.0, -1151726.6, -30181.537, -0.005595668, -0.32005513, -1139087.0, -16758.617, 0.0, 9.999353, 10.000139 
4.0497214e+2, 1.9547345e+2, -1086933.5, -1039548.8, -31908.732, 0.011272001, -0.32663003, -1023498.3, 830.4051, 0.0, 9.999527, 10.000153 
4.049846e+2, 2.0547356e+2, -972201.44, -952895.5, -40901.87, 0.0064485613, -0.32122093, -920522.94, 5805.6577, 0.0, 9.999725, 9.99998 
4.0499672e+2, 2.1547368e+2, -842119.7, -839013.8, -40512.43, -0.018083854, -0.3082227, -800024.56, 28303.582, 0.0, 9.999944, 9.999984 
4.0500918e+2, 2.2547363e+2, -732806.0, -774356.1, -41397.066, -0.012077187, -0.290913, -707263.44, 23066.006, 0.0, 10.000189, 9.999637 
4.0502188e+2, 2.3547348e+2, -596350.4, -658410.3, -42513.727, 0.019826083, -0.2723342, -574746.94, 57585.215, 0.0, 10.000455, 9.999631 
4.0503424e+2, 2.4547282e+2, -496229.25, -621234.3, -45564.855, 0.021510195, -0.27061018, -481383.72, 52955.223, 0.0, 10.000736, 9.999078 
4.050463e+2, 2.5547177e+2, -355542.16, -503191.03, -45972.04, -0.0024869826, -0.28547072, -342398.34, 93950.664, 0.0, 10.001032, 9.999074 
4.0505838e+2, 2.6547053e+2, -257759.1, -474654.3, -53389.445, -0.018191535, -0.28418773, -245329.42, 93031.79, 0.0, 10.001329, 9.998453 
4.050704e+2, 2.7546912e+2, -115282.16, -354710.2, -51729.797, -0.025193164, -0.27250445, -104583.68, 135791.5, 0.0, 10.001633, 9.998458 
4.0508297e+2, 2.8546724e+2, 3220.9329, -288947.72, -30260.86, -0.01581365, -0.28645778, 6322.229, 148714.73, 0.0, 10.001955, 9.998082 
4.0509588e+2, 2.9546496e+2, 146017.84, -176061.86, -32690.168, 0.0023488735, -0.32184696, 149302.31, 193714.61, 0.0, 10.002292, 9.998022 
4.0510803e+2, 3.0546215e+2, 168018.7, -281904.47, -21073.324, -0.07627168, -0.3354235, 169003.58, 169003.58, 0.0, 10.002717, 9.996756 
4.0512174e+2, 3.1545928e+2, 391616.75, 66127.58, 13909.307, -0.011273568, -0.30588502, 392210.06, 392210.06, 0.00000001196501, 10.00322, 9.998903 
4.1487858e+2, 1.2545466e+2, -1960346.0, -1681039.9, -18977.672, 0.016883107, -0.39223793, -1679756.3, 30750.07, 0.0000073152505, 9.997662, 10.001359 
4.148929e+2, 1.354557e+2, -1829983.5, -1592910.1, 16079.143, 0.07350358, -0.40412855, -1591824.5, 20670.984, 0.0000018222407, 9.997991, 10.001134 
4.1490555e+2, 1.4545678e+2, -1715336.9, -1530520.3, -1221.554, -0.020344207, -0.38868177, -1530512.1, -16026.022, 0.00000007352536, 9.998294, 10.000741 
4.1491908e+2, 1.5545784e+2, -1575665.6, -1410182.4, -8759.925, 0.0052373544, -0.3568298, -1409720.0, 6758.1606, 0.0, 9.99857, 10.000761 
4.149325e+2, 1.6545874e+2, -1445028.9, -1308697.9, -4092.7466, 0.020776052, -0.33591896, -1308575.1, 9895.445, 0.0, 9.998847, 10.000651 
4.1494584e+2, 1.754595e+2, -1305880.1, -1191055.8, -2501.1414, 0.0133697735, -0.3269343, -1191001.4, 29462.145, 0.0, 9.99913, 10.00065 
4.149588e+2, 1.8545988e+2, -1213666.6, -1156996.5, -23718.027, 0.00555901, -0.32439154, -1148379.9, -25919.31, 0.0, 9.999353, 10.000103 
4.149716e+2, 1.9545996e+2, -1089406.0, -1044781.8, -25233.57, 0.0028153008, -0.3292417, -1033410.6, -8949.381, 0.0, 9.999527, 10.000117 
4.1498426e+2, 2.0546012e+2, -971647.06, -951899.3, -32705.48, 0.0017649173, -0.31768796, -927609.75, -1148.6996, 0.0, 9.999726, 9.999987 
4.1499686e+2, 2.1546033e+2, -841506.9, -837926.75, -32130.406, 0.00029564387, -0.29565454, -807536.56, 20923.46, 0.0, 9.999945, 9.999991 
4.1500953e+2, 2.2546029e+2, -734723.1, -778358.8, -31331.145, 0.0025911347, -0.27727297, -718361.7, 12099.769, 0.0, 10.000189, 9.999609 
4.1502222e+2, 2.3546006e+2, -598258.94, -662345.6, -32420.297, 0.008671039, -0.26366705, -584718.8, 47745.895, 0.0, 10.000455, 9.999604 
4.1503486e+2, 2.4545942e+2, -496436.63, -621633.75, -34532.53, 0.0085398005, -0.25784734, -487543.4, 46927.844, 0.0, 10.000736, 9.999076 
4.150474e+2, 2.554585e+2, -355639.63, -503415.25, -34940.95, 0.0027999554, -0.26134497, -347794.47, 88685.914, 0.0, 10.001032, 9.999072 
4.1505975e+2, 2.6545715e+2, -256970.0, -473005.28, -42133.42, -0.013315954, -0.27090406, -249043.55, 89449.914, 0.0, 10.001329, 9.998466 
4.1507193e+2, 2.7545545e+2, -114744.42, -353498.4, -40419.22, -0.03667162, -0.28862312, -108087.375, 132422.45, 0.0, 10.001632, 9.9984665 
4.1508487e+2, 2.8545362e+2, -2579.5754, -300988.06, -17785.604, -0.020404987, -0.29295558, -1523.2653, 141003.53, 0.0, 10.001955, 9.997999 
4.1509843e+2, 2.954517e+2, 141378.34, -186014.8, -20062.31, 0.024718963, -0.28679052, 142603.16, 187147.17, 0.0, 10.002293, 9.997953 
4.1511086e+2, 3.0544868e+2, 178721.6, -259461.52, -2346.5095, -0.062489867, -0.3278648, 178734.16, 178734.16, 0.0, 10.002716, 9.99691 
4.151247e+2, 3.1544575e+2, 400540.84, 86281.555, 31385.24, -0.03362238, -0.31557178, 403644.63, 403644.63, 0.000000036873733, 10.003212, 9.999045 
4.2487606e+2, 1.254411e+2, -1947693.6, -1667790.1, -18888.604, -0.0007844597, -0.3645951, -1666521.3, 44119.65, 0.000007399852, 9.997719, 10.001422 
4.24891e+2, 1.3544194e+2, -1831617.5, -1588930.8, -1499.681, 0.08327841, -0.4003221, -1588921.5, 23709.521, 0.0000017914846, 9.997959, 10.001176 
4.2490387e+2, 1.4544298e+2, -1718679.0, -1534211.4, -21795.662, -0.015952734, -0.38867673, -1531671.0, -17049.496, 0.000000055205398, 9.998281, 10.000722 
4.2491758e+2, 1.5544412e+2, -1563080.6, -1406091.5, -21652.096, -0.0046268282, -0.34842297, -1403160.0, 13453.106, 0.0, 9.998666, 10.000743 
4.249313e+2, 1.65445e+2, -1437143.8, -1307821.8, -21145.242, 0.010903296, -0.3268394, -1304452.1, 14153.681, 0.0, 9.998914, 10.000626 
4.249449e+2, 1.7544568e+2, -1318866.0, -1199793.5, -26128.012, 0.01451042, -0.32360116, -1194312.6, 26287.033, 0.0, 9.999052, 10.0006275 
4.2495814e+2, 1.8544604e+2, -1225286.0, -1157675.9, -47013.86, 0.0073833885, -0.3235871, -1133575.1, -10978.359, 0.0, 9.999253, 10.000147 
4.2497104e+2, 1.9544616e+2, -1089316.9, -1040129.9, -42517.99, -0.0030912238, -0.32826975, -1015604.94, 8991.865, 0.0, 9.999509, 10.000157 
4.2498398e+2, 2.0544639e+2, -966919.6, -949844.75, -46925.45, -0.00036088115, -0.3109528, -910686.44, 15909.62, 0.0, 9.99976, 9.999984 
4.2499694e+2, 2.1544671e+2, -832588.8, -833578.3, -47254.89, 0.01155113, -0.27870277, -785826.06, 42768.477, 0.0, 10.000006, 9.99999 
4.250098e+2, 2.2544667e+2, -724095.06, -771919.94, -44278.92, 0.011169933, -0.26251566, -697684.3, 32911.84, 0.0, 10.000257, 9.99962 
4.250226e+2, 2.354463e+2, -589486.0, -656842.56, -42482.36, 0.0013388317, -0.2613848, -568951.94, 63648.18, 0.0, 10.00051, 9.999616 
4.250355e+2, 2.454457e+2, -494854.13, -623228.5, -43543.12, -0.0006760407, -0.25455356, -481478.44, 53128.15, 0.0, 10.000757, 9.999055 
4.250484e+2, 2.5544485e+2, -361414.84, -508286.5, -45456.664, 0.0032429209, -0.24591826, -348484.44, 88130.66, 0.0, 10.001001, 9.999053 
4.2506108e+2, 2.6544347e+2, -259518.13, -473219.56, -51010.293, -0.011807326, -0.2559196, -247966.45, 90661.9, 0.0, 10.001307, 9.998474 
4.250735e+2, 2.7544168e+2, -109026.98, -349775.2, -49442.297, -0.0412819, -0.28456402, -99268.586, 141377.02, 0.0, 10.001667, 9.998476 
4.2508683e+2, 2.854399e+2, 7045.5127, -301139.34, -23978.854, -0.023893833, -0.2817076, 8900.068, 151562.34, 0.0, 10.002041, 9.997956 
4.251008e+2, 2.9543817e+2, 158901.53, -181286.53, -23520.277, 0.028588392, -0.25366864, 160520.0, 205198.3, 0.0, 10.002429, 9.99792 
4.251136e+2, 3.0543497e+2, 179794.56, -249246.0, -8693.412, -0.060741175, -0.31436288, 179970.64, 179970.64, 0.0, 10.002682, 9.996997 
4.2512766e+2, 3.1543228e+2, 345869.88, 64649.02, 18717.06, -0.03899574, -0.2898407, 347110.16, 347110.16, 0.00000007454206, 10.002816, 9.999087 
4.3487382e+2, 1.2542738e+2, -1962563.4, -1698547.0, -11951.081, 0.0024592427, -0.34215015, -1698007.1, 12768.951, 0.0000070344795, 9.997718, 10.001212 
4.34889e+2, 1.354278e+2, -1846491.9, -1619924.8, 7694.7686, 0.08692571, -0.3973389, -1619663.6, -6892.9385, 0.0000016069694, 9.997959, 10.000964 
4.349021e+2, 1.4542873e+2, -1712509.5, -1521336.4, -7377.0166, -0.01960964, -0.390932, -1521052.1, -6290.097, 0.000000030249723, 9.99828, 10.000811 
4.3491623e+2, 1.5542999e+2, -1557344.6, -1394185.6, -7667.5176, -0.0047484515, -0.34819487, -1393826.0, 22925.627, 0.0, 9.998665, 10.000825 
4.3493018e+2, 1.6543087e+2, -1445284.8, -1324679.9, -16074.087, 0.009060353, -0.32419804, -1322574.3, -3829.799, 0.0, 9.998914, 10.00051 
4.3494388e+2, 1.7543146e+2, -1326277.1, -1215109.6, -20735.299, 0.0067523215, -0.3182224, -1211368.0, 9371.938, 0.0, 9.999052, 10.000523 
4.3495727e+2, 1.8543185e+2, -1216774.4, -1139965.8, -37479.137, -0.0004943822, -0.31750247, -1124708.4, -1971.4276, 0.0, 9.999253, 10.000268 
4.349705e+2, 1.9543207e+2, -1081103.1, -1023092.1, -32885.05, -0.0065806382, -0.32358262, -1008248.5, 16486.814, 0.0, 9.999508, 10.000275 
4.3498373e+2, 2.054324e+2, -967880.94, -951866.7, -37610.94, -0.00005981957, -0.30105984, -921420.0, 5313.627, 0.0, 9.99976, 9.99997 
4.34997e+2, 2.1543284e+2, -833347.56, -835195.0, -37900.69, 0.015398172, -0.2574227, -796359.3, 32372.36, 0.0, 10.000006, 9.99998 
4.3501008e+2, 2.2543274e+2, -720672.8, -764793.6, -34764.063, 0.013394226, -0.24652326, -701560.4, 29173.117, 0.0, 10.000256, 9.99967 
4.3502307e+2, 2.3543224e+2, -586211.8, -650053.9, -32972.984, -0.0023647165, -0.26527393, -572239.8, 60498.473, 0.0, 10.000509, 9.999662 
4.3503618e+2, 2.454316e+2, -497684.72, -629190.2, -34463.74, -0.0063475273, -0.2605866, -489200.2, 45544.766, 0.0, 10.000757, 9.999014 
4.3504936e+2, 2.5543085e+2, -364046.72, -513819.7, -36187.516, -0.0014483662, -0.23911102, -355761.56, 80991.59, 0.0, 10.001001, 9.999016 
4.3506235e+2, 2.6542956e+2, -259016.02, -472237.25, -37613.496, -0.013982887, -0.2393218, -252575.33, 86190.6, 0.0, 10.001307, 9.998481 
4.350752e+2, 2.7542785e+2, -108448.21, -348708.78, -36112.523, -0.03947782, -0.2606449, -103137.67, 137644.86, 0.0, 10.001667, 9.998483 
4.3508884e+2, 2.854261e+2, 6761.244, -301704.1, -9540.375, -0.026481085, -0.2529197, 7056.032, 149854.98, 0.0, 10.002041, 9.997953 
4.351031e+2, 2.954244e+2, 158589.95, -181349.38, -9532.689, 0.01445516, -0.2222886, 158857.06, 203672.17, 0.0, 10.002426, 9.997921 
4.3511614e+2, 3.054211e+2, 180972.72, -246322.9, -3818.4292, -0.070858404, -0.29532585, 181006.84, 181006.84, 0.0, 10.00268, 9.997018 
4.3513057e+2, 3.1541875e+2, 342403.47, 57218.64, 22362.072, -0.029820075, -0.23475298, 344146.28, 344146.28, 0.0000001100893, 10.002817, 9.999037 
4.4487163e+2, 1.2541316e+2, -1948637.1, -1704949.9, -28483.943, 0.008212163, -0.33664265, -1701664.8, 9250.961, 0.00000631539, 9.99787, 10.001094 
4.4488692e+2, 1.3541347e+2, -1820360.4, -1621678.9, 604.1353, 0.07531424, -0.3892969, -1621677.0, -8765.104, 0.0000013346397, 9.998201, 10.000835 
4.449003e+2, 1.4541432e+2, -1688152.5, -1511479.5, -15511.396, -0.03524359, -0.38419178, -1510128.0, 4776.024, 0.000000013876045, 9.998456, 10.000793 
4.4491497e+2, 1.5541546e+2, -1561997.9, -1398310.6, -24440.05, 0.005125761, -0.3496065, -1394739.4, 22154.81, 0.0, 9.998642, 10.000808 
4.4492915e+2, 1.6541635e+2, -1460612.4, -1335160.6, -37831.074, 0.019655569, -0.32403234, -1324635.5, -5748.276, 0.0, 9.998822, 10.000482 
4.449428e+2, 1.75417e+2, -1335636.6, -1222265.0, -35698.09, -0.0032564863, -0.30807492, -1211961.0, 8921.314, 0.0, 9.999, 10.000499 
4.449564e+2, 1.8541743e+2, -1215928.5, -1132238.8, -47986.21, -0.012976477, -0.30642328, -1110415.1, 12463.965, 0.0, 9.999228, 10.000333 
4.4497e+2, 1.9541764e+2, -1077737.5, -1014182.94, -47953.695, -0.0061254627, -0.31960434, -988433.25, 36444.066, 0.0, 9.9995, 10.0003395 
4.4498348e+2, 2.0541802e+2, -973693.7, -950393.6, -55230.066, 0.002710864, -0.29816753, -905598.25, 21276.885, 0.0, 9.9997015, 10.000008 
4.4499686e+2, 2.1541852e+2, -854841.3, -841324.8, -51566.938, 0.0115083875, -0.24988706, -796075.2, 32797.406, 0.0, 9.999841, 10.000017 
4.450102e+2, 2.2541846e+2, -741953.8, -772398.4, -43716.6, 0.008581861, -0.23920564, -710885.06, 19988.928, 0.0, 10.000099, 9.999693 
4.4502357e+2, 2.3541793e+2, -592322.44, -650474.25, -44092.09, -0.003369019, -0.26286402, -568582.44, 64296.32, 0.0, 10.000457, 9.999685 
4.4503692e+2, 2.4541725e+2, -499079.03, -634171.75, -48169.52, -0.007312613, -0.2602844, -483662.7, 51223.1, 0.0, 10.000766, 9.998975 
4.4505033e+2, 2.5541648e+2, -361627.72, -516559.9, -49647.543, -0.005488921, -0.23832162, -347083.63, 89811.055, 0.0, 10.001035, 9.9989805 
4.4506362e+2, 2.6541525e+2, -251288.56, -467333.9, -46883.11, -0.016856825, -0.2330781, -241553.33, 97353.94, 0.0, 10.001355, 9.998491 
4.450769e+2, 2.7541363e+2, -99948.6, -343582.25, -45368.824, -0.03748132, -0.24482249, -91774.39, 149148.58, 0.0, 10.001721, 9.998492 
4.4509086e+2, 2.8541192e+2, 2107.395, -306495.66, -21066.217, -0.025421811, -0.23287788, 3538.802, 146478.08, 0.0, 10.00202, 9.997931 
4.4510534e+2, 2.954102e+2, 133429.88, -195201.92, -22648.875, 0.009554797, -0.20253187, 134983.47, 179939.45, 0.0, 10.00226, 9.997906 
4.4511873e+2, 3.0540675e+2, 172892.72, -242289.97, -16975.355, -0.07718101, -0.29177946, 173585.63, 173585.63, 0.00000000000009396187, 10.00259, 9.997088 
4.4513342e+2, 3.1540474e+2, 365174.1, 64879.7, 11139.889, -0.032433774, -0.2035307, 365586.78, 365586.78, 0.00000013361628, 10.002989, 9.999006 
4.548696e+2, 1.2539843e+2, -1950148.3, -1708202.9, -19027.863, 0.016036596, -0.34971341, -1706715.5, 4344.5024, 0.0000053674253, 9.997871, 10.001071 
4.5488483e+2, 1.3539895e+2, -1822995.1, -1627608.3, 12847.549, 0.04742081, -0.37632287, -1626767.1, -13712.746, 0.0000010357217, 9.998202, 10.000794 
4.5489848e+2, 1.4539973e+2, -1697145.1, -1530423.5, -8418.417, -0.06401514, -0.36833546, -1529999.5, -14952.157, 0.000000007555667, 9.998457, 10.000664 
4.549138e+2, 1.5540057e+2, -1570598.9, -1416290.6, -17461.506, 0.024735544, -0.35283133, -1414339.4, 2701.3984, 0.0, 9.998643, 10.000685 
4.5492816e+2, 1.6540144e+2, -1456427.0, -1326492.8, -31304.99, 0.04283704, -0.32645458, -1319343.8, -309.734, 0.0, 9.998822, 10.000541 
4.549417e+2, 1.7540233e+2, -1331742.4, -1214054.3, -28874.963, -0.015618548, -0.2930808, -1207351.5, 13675.508, 0.0, 9.998999, 10.000555 
4.5495546e+2, 1.8540278e+2, -1215736.6, -1131674.0, -37688.93, -0.030387744, -0.29037508, -1117251.0, 5772.406, 0.0, 9.999227, 10.000338 
4.5496956e+2, 1.9540288e+2, -1077193.9, -1013020.25, -37816.18, -0.002010288, -0.31642854, -995512.44, 29510.313, 0.0, 9.9995, 10.000348 
4.549832e+2, 2.0540321e+2, -967445.0, -937524.6, -50094.56, 0.007802666, -0.30225408, -900204.1, 26816.549, 0.0, 9.999702, 10.000096 
4.5499656e+2, 2.154038e+2, -848915.4, -829097.2, -46021.45, -0.0002134415, -0.25604853, -791930.1, 37087.004, 0.0, 9.999841, 10.000101 
4.5501018e+2, 2.2540383e+2, -742353.25, -773230.8, -30244.48, -0.0034306832, -0.24063234, -723834.94, 7182.735, 0.0, 10.000098, 9.999688 
4.55024e+2, 2.3540339e+2, -592723.8, -651251.0, -30786.39, -0.0019860994, -0.25423053, -579512.0, 53509.54, 0.0, 10.000457, 9.9996805 
4.550377e+2, 2.4540268e+2, -501684.63, -639602.7, -38188.97, -0.0038031493, -0.25355104, -491816.34, 43212.742, 0.0, 10.000766, 9.998938 
4.550513e+2, 2.5540173e+2, -363938.72, -521464.5, -39532.043, -0.009057722, -0.24332458, -354574.56, 82465.11, 0.0, 10.001035, 9.998947 
4.5506495e+2, 2.654005e+2, -250313.11, -465460.4, -33221.137, -0.02059313, -0.2369385, -245300.2, 93752.16, 0.0, 10.001355, 9.998505 
4.550786e+2, 2.7539903e+2, -99229.484, -342098.16, -31910.55, -0.035571527, -0.23676406, -95106.734, 145960.14, 0.0, 10.00172, 9.998503 
4.5509294e+2, 2.8539735e+2, -786.3983, -312524.9, -12155.277, -0.021155437, -0.22116715, -313.1593, 142770.03, 0.0, 10.00202, 9.9978895 
4.5510763e+2, 2.9539555e+2, 131364.23, -199711.28, -13520.896, 0.013237461, -0.19385512, 131915.5, 177016.38, 0.0, 10.002261, 9.997874 
4.5512128e+2, 3.0539194e+2, 180902.7, -225499.3, -1880.4624, -0.08003304, -0.30292025, 180911.4, 180911.4, 0.00000000000087855477, 10.002589, 9.997205 
4.5513627e+2, 3.1539023e+2, 363608.84, 62961.965, 24540.885, -0.046941455, -0.19826227, 365598.88, 365598.88, 0.00000014519496, 10.002982, 9.998997 
4.6486723e+2, 1.2538324e+2, -1988903.8, -1719714.0, -44884.043, 0.011449509, -0.35386088, -1712427.4, -1218.1733, 0.000004304928, 9.997576, 10.001135 
4.6488297e+2, 1.3538393e+2, -1829760.9, -1625962.1, -3812.803, 0.045585856, -0.36963183, -1625890.9, -12688.781, 0.0000007438799, 9.998135, 10.000838 
4.6489686e+2, 1.4538474e+2, -1700867.8, -1539092.0, -29951.775, -0.07147489, -0.35721457, -1533724.8, -18530.016, 0.0000000034677494, 9.998461, 10.000602 
4.6491235e+2, 1.5538548e+2, -1584485.1, -1429486.6, -33994.05, 0.022088377, -0.34510875, -1422358.9, -5169.5273, 0.0, 9.998575, 10.000626 
4.6492693e+2, 1.6538632e+2, -1464209.4, -1325252.4, -44285.37, 0.040586304, -0.32067543, -1312338.8, 6844.122, 0.0, 9.998748, 10.000586 
4.6494058e+2, 1.7538725e+2, -1332060.9, -1209265.0, -43089.22, -0.021776617, -0.28824654, -1195653.6, 25521.89, 0.0, 9.998976, 10.000599 
4.6495456e+2, 1.8538779e+2, -1220355.3, -1126682.6, -49659.156, -0.03614703, -0.28332683, -1105257.1, 17914.041, 0.0, 9.999165, 10.0004015 
4.649689e+2, 1.9538799e+2, -1099543.5, -1016723.5, -45159.098, -0.0032640481, -0.30419803, -996862.56, 28306.813, 0.0, 9.999317, 10.00041 
4.6498284e+2, 2.0538835e+2, -982825.56, -941860.7, -56651.223, 0.007756522, -0.29216734, -902102.9, 25064.05, 0.0, 9.999583, 10.000124 
4.6499643e+2, 2.1538886e+2, -831445.7, -817814.7, -57338.363, -0.0021595508, -0.25454566, -766888.2, 62275.707, 0.0, 9.9999485, 10.000127 
4.650103e+2, 2.253889e+2, -725232.3, -764951.75, -42747.152, -0.0057159364, -0.24026456, -697956.8, 33207.54, 0.0, 10.0002165, 9.999688 
4.650244e+2, 2.3538852e+2, -601101.56, -655179.56, -42931.145, -0.003267015, -0.248421, -577404.06, 55763.645, 0.0, 10.000399, 9.9996805 
4.6503842e+2, 2.4538781e+2, -512894.22, -647220.75, -47171.523, -0.0053119007, -0.24619576, -497984.0, 37191.28, 0.0, 10.000699, 9.998918 
4.6505234e+2, 2.5538683e+2, -355859.2, -519789.66, -47445.375, -0.011621091, -0.23769951, -343117.72, 94068.69, 0.0, 10.0011, 9.998927 
4.650663e+2, 2.653856e+2, -239019.33, -459306.97, -41523.656, -0.021986498, -0.23180352, -231452.16, 107747.164, 0.0, 10.0014305, 9.998511 
4.6508035e+2, 2.7538413e+2, -101870.62, -342516.94, -40934.402, -0.034181993, -0.23128328, -95098.19, 146115.66, 0.0, 10.001699, 9.99851 
4.6509492e+2, 2.853825e+2, -875.20166, -311643.06, -19991.47, -0.021266695, -0.21150246, 405.5567, 143635.28, 0.0, 10.002015, 9.997897 
4.6510988e+2, 2.9538077e+2, 148101.31, -189895.13, -17824.434, 0.008326431, -0.17619886, 149038.69, 194285.23, 0.0, 10.002369, 9.99789 
4.651238e+2, 3.0537707e+2, 192089.1, -205340.11, -5328.5596, -0.08419267, -0.30361402, 192160.52, 192160.52, 0.00000000000042122027, 10.002603, 9.997337 
4.651391e+2, 3.1537545e+2, 324329.13, 42226.676, 20218.627, -0.0458364, -0.19929782, 325770.84, 325770.84, 0.00000014428599, 10.00272, 9.9989805 
4.7486463e+2, 1.2536761e+2, -1979430.1, -1698415.6, -27607.715, -0.0077791824, -0.3495097, -1695729.0, 15634.38, 0.0000032345054, 9.997568, 10.001285 
4.7488135e+2, 1.3536839e+2, -1820727.4, -1607164.9, 16755.535, 0.07031157, -0.3694733, -1605858.3, 7496.6304, 0.00000048107097, 9.998134, 10.000968 
4.7489545e+2, 1.4536934e+2, -1700161.0, -1537860.0, -25793.195, -0.057055663, -0.35098964, -1533859.5, -18513.215, 0.000000000765976, 9.998462, 10.00061 
4.7491068e+2, 1.5537022e+2, -1583928.0, -1428342.9, -29729.373, -0.0037452031, -0.32611126, -1422855.8, -5515.9727, 0.0, 9.998575, 10.000634 
4.749254e+2, 1.6537102e+2, -1462339.4, -1321426.6, -35852.844, 0.011681945, -0.30652204, -1312829.0, 6504.646, 0.0, 9.998748, 10.000611 
4.7493955e+2, 1.7537178e+2, -1330001.8, -1204996.8, -34518.438, -0.02231257, -0.29398715, -1196098.4, 25229.748, 0.0, 9.998976, 10.000628 
4.7495377e+2, 1.8537243e+2, -1211661.6, -1108628.5, -43952.168, -0.03044475, -0.28547838, -1092426.9, 30895.715, 0.0, 9.999165, 10.000525 
4.7496814e+2, 1.9537298e+2, -1091339.8, -999650.7, -39081.918, -0.010060278, -0.28278497, -985253.06, 40063.926, 0.0, 9.999316, 10.000528 
4.7498235e+2, 2.0537342e+2, -985521.2, -947430.44, -42938.742, 0.0023354194, -0.26785704, -919502.9, 7811.0234, 0.0, 9.999583, 10.000086 
4.7499642e+2, 2.1537375e+2, -833900.6, -823015.0, -43866.06, 0.005415911, -0.24533066, -784255.4, 45057.457, 0.0, 9.9999485, 10.000091 
4.7501057e+2, 2.2537369e+2, -724877.44, -764318.7, -35959.867, 0.0015436024, -0.23799835, -703585.7, 27728.418, 0.0, 10.0002165, 9.999693 
4.7502476e+2, 2.3537332e+2, -600831.94, -654580.5, -35784.742, -0.0073785516, -0.24546145, -582953.8, 50363.414, 0.0, 10.000399, 9.999685 
4.7503906e+2, 2.4537267e+2, -513420.5, -648263.9, -32225.938, -0.012032101, -0.23833609, -506114.72, 29209.65, 0.0, 10.000698, 9.998911 
4.750534e+2, 2.5537175e+2, -356495.8, -520988.53, -32638.947, -0.013449455, -0.2215475, -350256.22, 87078.67, 0.0, 10.001099, 9.9989195 
4.7506773e+2, 2.653705e+2, -239210.27, -459659.28, -31524.832, -0.021263247, -0.2176669, -234790.72, 104557.44, 0.0, 10.00143, 9.998508 
4.7508204e+2, 2.753689e+2, -101685.5, -342259.78, -30838.086, -0.033549562, -0.22826952, -97795.414, 143568.44, 0.0, 10.001699, 9.998512 
4.7509685e+2, 2.8536737e+2, 2935.0313, -303709.38, -6805.729, -0.025842313, -0.20389947, 3086.0046, 146464.88, 0.0, 10.002015, 9.997952 
4.751121e+2, 2.9536587e+2, 151814.9, -181467.05, -4877.0654, -0.0049949745, -0.14999819, 151886.25, 197279.33, 0.0, 10.002366, 9.99795 
4.7512636e+2, 3.0536214e+2, 201892.84, -184140.52, -957.5554, -0.08988522, -0.29437938, 201895.22, 201895.22, 0.0, 10.002598, 9.997485 
4.7514197e+2, 3.153605e+2, 322712.4, 39326.45, 22735.482, -0.031457916, -0.2087519, 324524.8, 324524.8, 0.00000012581201, 10.002717, 9.998962 
4.848621e+2, 1.2535189e+2, -1952497.5, -1683017.0, -29702.361, -0.02513285, -0.3378752, -1679782.0, 31736.693, 0.000002270887, 9.997743, 10.001306 
4.8487943e+2, 1.3535269e+2, -1849562.5, -1619660.8, 8547.12, 0.07594538, -0.3561075, -1619343.5, -5833.424, 0.0000002759338, 9.997931, 10.00098 
4.8489377e+2, 1.453537e+2, -1738977.1, -1544056.3, -42066.758, -0.053296518, -0.3391774, -1535365.1, -19864.477, 0.000000000009128432, 9.998141, 10.000722 
4.849091e+2, 1.5535462e+2, -1608122.4, -1428183.1, -38242.64, -0.008275419, -0.32001582, -1420392.8, -2899.5586, 0.0, 9.998359, 10.000739 
4.84924e+2, 1.6535546e+2, -1487106.8, -1334781.8, -40058.57, 0.007944479, -0.301976, -1324889.5, -5402.5996, 0.0, 9.998584, 10.000599 
4.8493847e+2, 1.7535621e+2, -1353462.5, -1217187.4, -41768.723, -0.017562531, -0.28725588, -1205404.0, 16077.673, 0.0, 9.998818, 10.000621 
4.849529e+2, 1.8535694e+2, -1216731.5, -1094786.0, -52937.965, -0.025667623, -0.2771774, -1075011.6, 48463.656, 0.0, 9.99906, 10.000671 
4.8496744e+2, 1.9535767e+2, -1083106.1, -980077.5, -46327.36, -0.0126180295, -0.27395445, -962310.1, 63157.426, 0.0, 9.999306, 10.000668 
4.8498186e+2, 2.0535812e+2, -990654.9, -953255.1, -44864.93, -0.002638663, -0.2610212, -923348.94, 4114.967, 0.0, 9.999562, 10.000055 
4.849963e+2, 2.1535838e+2, -853840.7, -835782.75, -45290.24, 0.0024316793, -0.24239953, -798630.25, 30833.404, 0.0, 9.9998255, 10.000062 
4.850107e+2, 2.253583e+2, -743280.9, -775497.06, -41183.063, -0.00018926285, -0.2351214, -715167.75, 16297.563, 0.0, 10.0001, 9.999671 
4.850251e+2, 2.3535794e+2, -604454.5, -658583.0, -42870.53, -0.008423107, -0.23934455, -580820.06, 52648.473, 0.0, 10.000383, 9.999664 
4.8503974e+2, 2.4535729e+2, -518374.1, -650606.06, -36024.484, -0.01078104, -0.2309728, -509196.75, 26278.918, 0.0, 10.000665, 9.998911 
4.8505446e+2, 2.5535637e+2, -379002.78, -531809.5, -36019.742, -0.008795272, -0.21475194, -370937.8, 66548.3, 0.0, 10.000945, 9.998919 
4.8506913e+2, 2.653551e+2, -259646.47, -473227.06, -35538.336, -0.01883375, -0.21080293, -253888.36, 85611.26, 0.0, 10.001306, 9.998475 
4.8508367e+2, 2.753535e+2, -98934.55, -344398.38, -37459.645, -0.03816718, -0.2207032, -93345.195, 148170.63, 0.0, 10.001734, 9.998481 
4.850988e+2, 2.8535193e+2, 6831.9165, -295396.78, -18176.97, -0.03221925, -0.19647545, 7921.21, 151451.86, 0.0, 10.002014, 9.998009 
4.8511434e+2, 2.953505e+2, 126580.164, -186645.61, -16245.803, -0.008365545, -0.14324506, 127420.516, 172964.61, 0.0, 10.002163, 9.998012 
4.8512882e+2, 3.0534673e+2, 178174.27, -182457.97, -15414.915, -0.08924375, -0.29577368, 178831.95, 178831.95, 0.0, 10.002379, 9.9976015 
4.8514464e+2, 3.153453e+2, 308075.8, 26123.834, 4281.776, -0.02845657, -0.20340456, 308140.84, 308140.84, 0.00000009052117, 10.002644, 9.998906 
4.9485967e+2, 1.2533608e+2, -1960760.8, -1700136.9, -27348.148, -0.041329112, -0.31860062, -1697298.0, 14376.961, 0.0000015131092, 9.997743, 10.001188 
4.9487716e+2, 1.3533682e+2, -1857788.8, -1636437.4, 15402.649, 0.061034124, -0.32936564, -1635370.8, -21703.33, 0.00000014199817, 9.997929, 10.000867 
4.9489182e+2, 1.4533779e+2, -1723976.3, -1512274.8, -34096.02, -0.06164706, -0.32181987, -1506918.9, 8739.239, 0.0, 9.998138, 10.000941 
4.949076e+2, 1.5533869e+2, -1593774.8, -1398032.0, -30194.303, 0.008374649, -0.3270777, -1393480.1, 24169.441, 0.0, 9.998357, 10.000948 
4.949228e+2, 1.6533962e+2, -1490911.5, -1342527.0, -31395.57, 0.02968341, -0.30715388, -1336157.8, -16515.297, 0.0, 9.998583, 10.000546 
4.949374e+2, 1.7534056e+2, -1356731.6, -1223958.4, -32834.785, -0.007597848, -0.26762944, -1216282.1, 5354.062, 0.0, 9.998817, 10.000574 
4.94952e+2, 1.8534136e+2, -1205085.4, -1070576.1, -43668.137, -0.022079684, -0.25813144, -1057643.0, 65986.12, 0.0, 9.999059, 10.000838 
4.9496675e+2, 1.95342e+2, -1071834.0, -956677.94, -36973.492, -0.011156811, -0.27786687, -945828.9, 79792.2, 0.0, 9.999306, 10.000829 
4.9498138e+2, 2.0534247e+2, -992145.44, -956443.94, -35007.555, -0.0073442273, -0.27181196, -934998.6, -7381.604, 0.0, 9.999562, 10.000034 
4.9499598e+2, 2.1534279e+2, -855358.7, -839064.75, -35365.426, -0.011336582, -0.24581559, -810920.06, 18696.324, 0.0, 9.9998255, 10.00004 
4.9501067e+2, 2.2534272e+2, -746680.94, -782600.5, -30602.89, -0.011158674, -0.2316956, -729157.06, 2460.9211, 0.0, 10.0001, 9.999623 
4.9502552e+2, 2.353424e+2, -607695.2, -665421.5, -32306.115, -0.006617369, -0.22991355, -593236.6, 40384.91, 0.0, 10.000383, 9.999618 
4.9504048e+2, 2.4534169e+2, -517924.34, -649851.06, -25666.713, -0.0018085911, -0.22390752, -513106.72, 22522.377, 0.0, 10.000665, 9.998917 
4.950555e+2, 2.553407e+2, -378617.0, -531152.0, -25365.023, 0.0019619742, -0.21716473, -374509.66, 63130.43, 0.0, 10.000945, 9.998923 
4.9507046e+2, 2.6533937e+2, -264379.84, -483030.16, -19543.135, -0.0149670895, -0.21116005, -262646.8, 77006.9, 0.0, 10.001306, 9.998408 
4.9508533e+2, 2.7533782e+2, -103744.516, -353991.47, -21770.396, -0.047974102, -0.20883302, -101864.7, 139805.03, 0.0, 10.001732, 9.998416 
4.9510074e+2, 2.8533626e+2, 10535.717, -287289.9, -12676.545, -0.0404869, -0.18915707, 11074.304, 154759.36, 0.0, 10.002012, 9.998066 
4.9511653e+2, 2.953347e+2, 130812.555, -177770.02, -10515.016, -0.0024703015, -0.15476453, 131170.44, 176869.89, 0.0, 10.002162, 9.998073 
4.9513125e+2, 3.05331e+2, 184047.34, -170083.9, -5519.2427, -0.082770266, -0.3071928, 184133.33, 184133.33, 0.0, 10.002378, 9.997686 
4.951472e+2, 3.153299e+2, 301154.63, 12486.598, 12805.485, -0.036793396, -0.18619695, 301721.6, 301721.6, 0.000000050936965, 10.002641, 9.998815 
5.048574e+2, 1.2532029e+2, -1948698.3, -1697440.8, -23825.994, -0.042921714, -0.3005819, -1695201.4, 16629.137, 0.0000009949754, 9.997839, 10.00116 
5.0487506e+2, 1.353209e+2, -1865452.6, -1644427.3, 30688.133, 0.062003806, -0.31978187, -1640245.5, -26421.148, 0.000000065122016, 9.997894, 10.000829 
5.048899e+2, 1.4532182e+2, -1733868.8, -1514313.8, -20077.102, -0.06189183, -0.31587058, -1512493.0, 3322.4814, 0.0, 9.998059, 10.000966 
5.04906e+2, 1.5532276e+2, -1600400.8, -1398542.3, -31333.658, 0.015394021, -0.32107317, -1393790.4, 24016.176, 0.0, 9.9983, 10.000972 
5.0492144e+2, 1.6532372e+2, -1498639.1, -1340979.3, -36315.52, 0.03877302, -0.30110344, -1333016.5, -13217.669, 0.0, 9.998507, 10.000594 
5.0493616e+2, 1.7532472e+2, -1373541.3, -1226997.8, -30171.139, -0.00068372185, -0.2614348, -1221029.0, 762.92505, 0.0, 9.99868, 10.00062 
5.04951e+2, 1.8532552e+2, -1221822.8, -1078778.5, -40994.418, -0.019541394, -0.25300768, -1067863.0, 55921.754, 0.0, 9.998944, 10.000837 
5.0496596e+2, 1.9532615e+2, -1074682.5, -957942.94, -47030.754, -0.015069912, -0.2747968, -941353.25, 84423.91, 0.0, 9.999286, 10.00083 
5.049809e+2, 2.0532662e+2, -988231.25, -949930.44, -50132.06, -0.011203019, -0.27045164, -915415.56, 12357.281, 0.0, 9.99957, 10.000075 
5.0499576e+2, 2.1532695e+2, -856179.1, -835260.2, -45821.125, -0.009277322, -0.24600166, -798719.94, 31051.453, 0.0, 9.999802, 10.000077 
5.050108e+2, 2.2532688e+2, -754017.6, -795343.06, -37901.695, -0.0071179173, -0.23147863, -731512.25, 261.10037, 0.0, 10.00009, 9.99954 
5.050259e+2, 2.3532647e+2, -607172.8, -673905.1, -42258.785, -0.0042754984, -0.22788751, -586695.6, 47082.51, 0.0, 10.000425, 9.999539 
5.050412e+2, 2.4532577e+2, -506959.28, -641512.25, -37072.594, -0.002176112, -0.21889223, -497421.06, 38364.727, 0.0, 10.000728, 9.998943 
5.0505644e+2, 2.5532484e+2, -368873.78, -523644.5, -35216.184, -0.0018783596, -0.20758256, -361237.53, 76558.22, 0.0, 10.001, 9.998948 
5.050717e+2, 2.6532352e+2, -269701.56, -488721.13, -24351.12, -0.019283826, -0.20446666, -267026.8, 72782.73, 0.0, 10.001284, 9.998379 
5.0508696e+2, 2.7532184e+2, -129216.195, -369475.5, -24147.252, -0.05022574, -0.21216366, -126813.305, 115013.5, 0.0, 10.001572, 9.998386 
5.0510263e+2, 2.8532022e+2, -13982.218, -299736.5, -21653.045, -0.041519377, -0.19226597, -12350.771, 131491.64, 0.0, 10.001847, 9.998059 
5.0511867e+2, 2.9531875e+2, 123011.414, -181657.83, -24200.3, -0.0028407304, -0.14723732, 124921.695, 170777.81, 0.0, 10.00211, 9.998071 
5.051336e+2, 3.0531517e+2, 191588.69, -151829.7, -18383.43, -0.07927174, -0.29878157, 192569.95, 192569.95, 0.0, 10.002368, 9.997817 
5.051499e+2, 3.1531408e+2, 292514.1, 2883.141, 1360.5612, -0.030322287, -0.18628958, 292520.47, 292520.47, 0.000000020855737, 10.002605, 9.998765 
5.148554e+2, 1.253045e+2, -1944008.0, -1687987.6, -27054.88, -0.030704534, -0.28455, -1685159.9, 26825.604, 0.00000067894854, 9.99784, 10.0012245 
5.148731e+2, 1.3530496e+2, -1862411.8, -1638188.6, 33046.91, 0.07908003, -0.32706693, -1633419.5, -19438.781, 0.000000029496794, 9.997893, 10.000872 
5.14888e+2, 1.4530583e+2, -1746763.4, -1540895.1, -10947.33, -0.054271743, -0.32108375, -1540314.6, -24342.05, 0.0, 9.998057, 10.000784 
5.1490426e+2, 1.5530683e+2, -1612158.9, -1423063.0, -22460.117, 0.011909589, -0.30167457, -1420431.9, -2468.0251, 0.0, 9.9983, 10.000803 
5.149199e+2, 1.6530776e+2, -1488015.6, -1318889.9, -30110.701, 0.03431174, -0.28347453, -1313689.0, 6267.069, 0.0, 9.998507, 10.000746 
5.149349e+2, 1.7530867e+2, -1363832.0, -1206600.5, -23439.797, 0.0026473717, -0.2688678, -1203180.5, 18768.44, 0.0, 9.998679, 10.000761 
5.1495e+2, 1.8530944e+2, -1233937.8, -1103773.4, -28096.904, -0.01840294, -0.26201677, -1097967.4, 25974.867, 0.0, 9.998943, 10.000667 
5.149652e+2, 1.9531007e+2, -1086064.8, -981659.9, -34291.273, -0.024670871, -0.264542, -971404.5, 54531.332, 0.0, 9.999286, 10.000667 
5.1498044e+2, 2.0531057e+2, -980833.06, -934686.6, -41490.88, -0.01446817, -0.25678056, -910284.94, 17646.46, 0.0, 9.99957, 10.00018 
5.149958e+2, 2.1531089e+2, -849254.6, -821029.75, -37053.938, 0.008464095, -0.24287619, -795491.75, 34436.95, 0.0, 9.999803, 10.000175 
5.150111e+2, 2.2531074e+2, -762277.4, -812627.7, -25310.088, 0.011762835, -0.23437709, -751753.94, -19822.709, 0.0, 10.00009, 9.999422 
5.150264e+2, 2.353102e+2, -614979.9, -690160.9, -29722.133, -0.0015702583, -0.23328307, -604649.06, 29289.217, 0.0, 10.000425, 9.999428 
5.1504177e+2, 2.4530956e+2, -503756.97, -634883.1, -26934.568, -0.011917429, -0.21604757, -498439.97, 37505.68, 0.0, 10.000728, 9.998989 
5.1505727e+2, 2.5530887e+2, -365919.9, -517559.63, -25002.533, -0.020151347, -0.18630771, -361903.8, 76049.29, 0.0, 10.001, 9.99899 
5.150728e+2, 2.6530746e+2, -269345.5, -488020.88, -13574.49, -0.031793486, -0.19078763, -268506.06, 71461.0, 0.0, 10.001283, 9.998384 
5.1508856e+2, 2.7530548e+2, -129003.75, -369041.06, -13344.746, -0.045500617, -0.22986838, -128264.13, 113722.83, 0.0, 10.001572, 9.998389 
5.1510453e+2, 2.853039e+2, -19083.889, -310232.25, -11869.617, -0.035882674, -0.20527475, -18600.787, 125401.91, 0.0, 10.001846, 9.997988 
5.1512074e+2, 2.953027e+2, 118236.09, -191313.47, -14249.48, -0.009321054, -0.12185836, 118890.66, 164904.84, 0.0, 10.002109, 9.998005 
5.15136e+2, 3.052992e+2, 203285.52, -127100.94, -9344.776, -0.07883572, -0.27164197, 203549.63, 203549.63, 0.0, 10.002365, 9.997989 
5.1515263e+2, 3.1529787e+2, 291299.1, 1196.5563, 8492.505, -0.011021074, -0.20204519, 291547.5, 291547.5, 0.0000000053166334, 10.002601, 9.998755 
5.248532e+2, 1.2528843e+2, -1978473.0, -1709471.4, -36299.418, -0.017772436, -0.28539488, -1704659.3, 7483.769, 0.0000005002885, 9.997625, 10.00118 
5.248712e+2, 1.3528883e+2, -1863866.3, -1645127.4, 20696.227, 0.08976717, -0.32639444, -1643186.4, -29047.248, 0.000000016983103, 9.9979105, 10.000816 
5.248862e+2, 1.452897e+2, -1734572.6, -1536967.5, -18977.78, -0.050065856, -0.31710702, -1535161.4, -19030.146, 0.0, 9.99815, 10.000767 
5.249025e+2, 1.5529072e+2, -1609614.1, -1423693.3, -18267.67, 0.0140211955, -0.29209983, -1421915.4, -3793.2256, 0.0, 9.998325, 10.000787 
5.249184e+2, 1.6529164e+2, -1481464.5, -1313940.3, -25688.447, 0.035657138, -0.2768082, -1310089.6, 10024.784, 0.0, 9.998544, 10.000762 
5.2493364e+2, 1.7529245e+2, -1345725.1, -1196596.0, -29522.348, 0.0045741177, -0.2728981, -1190964.3, 31143.605, 0.0, 9.998797, 10.000772 
5.2494895e+2, 1.8529321e+2, -1231778.3, -1112325.3, -34431.61, -0.014031149, -0.26219726, -1103111.4, 20990.117, 0.0, 9.999, 10.000581 
5.2496445e+2, 1.9529395e+2, -1111706.0, -1003198.25, -34153.3, -0.016113652, -0.24797982, -993343.4, 32751.49, 0.0, 9.999148, 10.000585 
5.2498007e+2, 2.0529437e+2, -997858.2, -940859.06, -38625.844, -0.005453016, -0.24239497, -921356.75, 6734.146, 0.0, 9.999444, 10.000198 
5.249957e+2, 2.1529454e+2, -838151.94, -813825.8, -40936.777, 0.01439647, -0.24735692, -783283.4, 46805.688, 0.0, 9.999871, 10.000192 
5.2501124e+2, 2.2529434e+2, -754679.6, -814703.44, -32181.21, 0.014064205, -0.24184188, -740687.56, -8595.638, 0.0, 10.000167, 9.99937 
5.2502674e+2, 2.3529384e+2, -629676.4, -702673.2, -31651.541, -0.0031934364, -0.22969061, -617863.8, 16235.191, 0.0, 10.000348, 9.999379 
5.250424e+2, 2.4529323e+2, -519897.56, -642148.2, -26337.816, -0.014849028, -0.20821887, -514464.75, 21641.53, 0.0, 10.000615, 9.998993 
5.2505815e+2, 2.552925e+2, -371985.5, -520033.8, -27693.703, -0.021939155, -0.18029308, -366974.75, 71139.0, 0.0, 10.0009575, 9.998993 
5.250741e+2, 2.652911e+2, -274079.4, -489366.03, -19129.166, -0.033408783, -0.18791433, -272392.9, 67734.836, 0.0, 10.001247, 9.998391 
5.2509004e+2, 2.7528906e+2, -140627.92, -373847.13, -18787.363, -0.048195988, -0.2314772, -139124.17, 103023.555, 0.0, 10.001489, 9.998395 
5.2510625e+2, 2.8528744e+2, -31678.291, -323983.28, -15682.012, -0.04065956, -0.20643355, -30839.365, 113324.54, 0.0, 10.001794, 9.997918 
5.2512276e+2, 2.952863e+2, 119662.05, -197842.86, -18032.74, -0.016525585, -0.11734972, 120682.94, 166859.06, 0.0, 10.002151, 9.99794 
5.251383e+2, 3.0528286e+2, 207830.11, -113392.11, -21908.47, -0.082727775, -0.25743124, 209317.45, 209317.45, 0.0, 10.002348, 9.998091 
5.251551e+2, 3.1528157e+2, 256910.58, -22305.502, -10921.931, -0.011789526, -0.19872385, 257337.16, 257337.16, 0.00000000056215, 10.002395, 9.998693 
5.3485096e+2, 1.2527202e+2, -1990428.0, -1733737.8, -31178.438, -0.005481953, -0.3038162, -1730005.0, -17701.654, 0.00000041209, 9.997623, 10.001015 
5.348691e+2, 1.3527252e+2, -1875007.8, -1668940.5, 31271.762, 0.09302736, -0.31773213, -1664299.4, -49999.71, 0.000000018082496, 9.997912, 10.000652 
5.348843e+2, 1.4527343e+2, -1723497.3, -1514384.0, -12691.546, -0.0502863, -0.30351192, -1513616.6, 2674.7944, 0.0, 9.998151, 10.000921 
5.3490096e+2, 1.552745e+2, -1599570.0, -1402774.9, -11781.731, 0.021415763, -0.29187173, -1402072.0, 16209.294, 0.0, 9.998324, 10.000931 
5.34917e+2, 1.6527537e+2, -1490318.1, -1332277.1, -16196.295, 0.04263238, -0.2809043, -1330634.4, -10360.565, 0.0, 9.998543, 10.000637 
5.3493243e+2, 1.7527609e+2, -1354180.3, -1214395.4, -20040.25, 0.0047587985, -0.27333307, -1211579.0, 10689.624, 0.0, 9.998798, 10.00065 
5.3494805e+2, 1.8527688e+2, -1231665.1, -1112223.0, -28908.172, -0.006666118, -0.25336477, -1105594.3, 18667.89, 0.0, 9.999, 10.000582 
5.3496385e+2, 1.9527777e+2, -1111756.5, -1003243.1, -28365.334, 0.010597795, -0.22502826, -996275.8, 29978.488, 0.0, 9.999148, 10.000586 
5.349797e+2, 2.0527807e+2, -1002913.9, -951242.8, -22617.232, 0.015869047, -0.227194, -942741.56, -14490.352, 0.0, 9.999443, 10.000128 
5.3499544e+2, 2.152779e+2, -842905.06, -823749.1, -25198.035, 0.00842395, -0.25940597, -806370.1, 23882.23, 0.0, 9.99987, 10.000124 
5.3501123e+2, 2.2527768e+2, -753587.44, -812584.94, -25463.092, -0.00035611237, -0.2540021, -744117.7, -11862.269, 0.0, 10.000167, 9.999385 
5.35027e+2, 2.3527743e+2, -628767.56, -700975.4, -24773.924, -0.009268894, -0.2172593, -621085.2, 13174.997, 0.0, 10.000348, 9.999391 
5.35043e+2, 2.4527681e+2, -522513.7, -647832.5, -13523.91, -0.011302861, -0.19535792, -521070.84, 15196.843, 0.0, 10.000616, 9.998954 
5.350593e+2, 2.5527585e+2, -374506.66, -525528.75, -14982.436, -0.007916419, -0.1890138, -373034.63, 65242.99, 0.0, 10.000958, 9.998955 
5.3507537e+2, 2.652744e+2, -273446.9, -488242.34, -10169.589, -0.024591545, -0.19557948, -272966.5, 67325.05, 0.0, 10.001247, 9.998399 
5.3509146e+2, 2.752726e+2, -140309.72, -373197.16, -9642.374, -0.058165204, -0.21789448, -139911.17, 102398.01, 0.0, 10.001489, 9.9984 
5.351079e+2, 2.8527093e+2, -36780.715, -334261.38, -2325.504, -0.05571065, -0.19623049, -36762.54, 107563.59, 0.0, 10.001792, 9.9978485 
5.3512484e+2, 2.9526943e+2, 114369.68, -207959.16, -4800.71, -0.024856463, -0.13204382, 114441.164, 160783.0, 0.0, 10.002146, 9.997873 
5.351406e+2, 3.0526617e+2, 209901.5, -108522.68, -20091.1, -0.09109934, -0.25514373, 211164.14, 211164.14, 0.0, 10.002345, 9.998126 
5.3515726e+2, 3.152651e+2, 249119.4, -38977.31, -10311.382, -0.0318381, -0.17711622, 249487.98, 249487.98, 0.0000000000003731001, 10.002397, 9.998578 
5.448486e+2, 1.2525539e+2, -1993572.8, -1723619.1, -60863.3, 0.00539833, -0.29997024, -1710531.5, 1936.1249, 0.00000036785775, 9.997553, 10.001118 
5.448669e+2, 1.3525604e+2, -1881568.0, -1661680.5, 27601.285, 0.09640895, -0.30711594, -1658268.8, -43806.836, 0.000000024396927, 9.997824, 10.000745 
5.4488236e+2, 1.4525701e+2, -1734463.3, -1516544.3, -15563.008, -0.04822263, -0.29451463, -1515438.4, 1014.5886, 0.0, 9.998062, 10.000949 
5.448993e+2, 1.5525801e+2, -1608202.6, -1404107.9, -24694.184, 0.031511683, -0.2901147, -1401162.5, 17280.754, 0.0, 9.998254, 10.000956 
5.449156e+2, 1.6525887e+2, -1502402.1, -1340160.9, -27161.992, 0.05467274, -0.2804318, -1335734.4, -15298.369, 0.0, 9.998469, 10.000618 
5.449313e+2, 1.7525962e+2, -1369426.8, -1223819.4, -23014.422, 0.01415626, -0.26880416, -1220268.4, 2162.1553, 0.0, 9.998703, 10.000631 
5.449471e+2, 1.8526039e+2, -1232163.6, -1117193.0, -28976.744, 0.0010583965, -0.24711357, -1110302.8, 14121.345, 0.0, 9.999017, 10.000539 
5.449632e+2, 1.9526123e+2, -1077723.0, -991597.3, -31863.016, 0.01707993, -0.21907558, -981090.94, 45325.742, 0.0, 9.999402, 10.000543 
5.449793e+2, 2.0526147e+2, -978945.94, -948074.8, -27805.797, 0.01855243, -0.22198014, -931707.56, -3293.2324, 0.0, 9.999644, 10.000052 
5.4499525e+2, 2.152612e+2, -865010.8, -842536.3, -30879.984, 0.0055280672, -0.25541168, -820912.5, 9503.921, 0.0, 9.999754, 10.000051 
5.450113e+2, 2.2526094e+2, -778071.0, -826853.06, -32192.303, -0.0037409898, -0.24906865, -762073.06, -29653.156, 0.0, 10.0000105, 9.999362 
5.450274e+2, 2.3526071e+2, -623094.75, -700792.94, -34347.008, -0.008791573, -0.20922595, -610088.56, 24336.041, 0.0, 10.000399, 9.999368 
5.450437e+2, 2.4526007e+2, -508746.44, -642401.56, -22760.254, -0.009226326, -0.18702766, -504976.88, 31455.45, 0.0, 10.000716, 9.998941 
5.450602e+2, 2.5525907e+2, -373488.7, -526098.94, -22235.518, -0.0064571756, -0.18284595, -370314.94, 68127.68, 0.0, 10.000971, 9.998945 
5.450766e+2, 2.6525766e+2, -275872.56, -490412.9, -18721.988, -0.025719525, -0.18772833, -274251.03, 66205.46, 0.0, 10.001236, 9.998389 
5.450928e+2, 2.7525586e+2, -138493.0, -373427.6, -19571.58, -0.06339533, -0.20560671, -136873.72, 105600.09, 0.0, 10.001507, 9.998389 
5.451096e+2, 2.8525415e+2, -47567.504, -340097.53, -10395.465, -0.059686244, -0.18693824, -47198.55, 97292.664, 0.0, 10.001721, 9.997842 
5.4512686e+2, 2.9525256e+2, 76031.984, -226825.9, -8432.292, -0.022694727, -0.13103294, 76266.58, 122774.49, 0.0, 10.001885, 9.997869 
5.451428e+2, 3.0524948e+2, 190829.75, -113718.06, -21906.105, -0.093082674, -0.23905143, 192397.38, 192397.38, 0.0, 10.002197, 9.99816 
5.451596e+2, 3.152483e+2, 277278.97, -36162.113, -13409.771, -0.053660925, -0.1686066, 277851.63, 277851.63, 0.000000000015387011, 10.002637, 9.998481 
5.548462e+2, 1.252385e+2, -1965880.6, -1666940.0, -57110.727, 0.013275709, -0.27265957, -1656400.9, 56235.133, 0.0000003291145, 9.997556, 10.001505 
5.548648e+2, 1.3523939e+2, -1855862.9, -1608779.1, 37562.754, 0.099365555, -0.293288, -1603194.9, 11430.821, 0.000000025104656, 9.997825, 10.001108 
5.548805e+2, 1.4524038e+2, -1742138.6, -1532298.5, -8317.373, -0.044363193, -0.28957838, -1531969.3, -15353.506, 0.0, 9.998061, 10.000842 
5.548977e+2, 1.5524127e+2, -1615616.5, -1419360.9, -17630.588, 0.043897256, -0.28682688, -1417789.6, 818.4682, 0.0, 9.998253, 10.000852 
5.5491424e+2, 1.6524214e+2, -1496150.3, -1326988.3, -18548.9, 0.07164504, -0.27528912, -1324978.1, -4377.472, 0.0, 9.998468, 10.00071 
5.549301e+2, 1.7524302e+2, -1363474.0, -1211271.8, -14121.951, 0.032706715, -0.25897843, -1209972.5, 12620.836, 0.0, 9.998702, 10.000718 
5.549462e+2, 1.8524374e+2, -1238371.0, -1130083.9, -14498.788, 0.0089593, -0.2432589, -1128176.3, -3588.968, 0.0, 9.999016, 10.000451 
5.549624e+2, 1.9524434e+2, -1083827.5, -1004473.1, -17628.098, 0.0029378321, -0.23035344, -1000733.4, 25848.678, 0.0, 9.999403, 10.000454 
5.549787e+2, 2.0524456e+2, -984568.25, -959973.44, -23809.3, 0.002204489, -0.22704025, -945473.25, -16893.078, 0.0, 9.999644, 9.99997 
5.5499494e+2, 2.1524444e+2, -870567.94, -854196.0, -26568.91, 0.0053824238, -0.23545332, -834580.56, -3999.324, 0.0, 9.999754, 9.99997 
5.5501133e+2, 2.2524415e+2, -782272.2, -835711.0, -17645.422, 0.0036404696, -0.22695738, -776971.5, -44386.06, 0.0, 10.0000105, 9.999301 
5.5502784e+2, 2.3524366e+2, -627229.9, -709587.44, -19881.145, -0.00206101, -0.20543364, -622681.75, 11910.616, 0.0, 10.0004, 9.999307 
5.550444e+2, 2.4524301e+2, -507574.6, -640180.4, -13354.409, -0.00877475, -0.18325296, -506243.06, 30357.113, 0.0, 10.000717, 9.998957 
5.550611e+2, 2.552422e+2, -372445.4, -524032.38, -12701.171, -0.01741045, -0.16230734, -371388.56, 67220.18, 0.0, 10.000971, 9.99896 
5.550777e+2, 2.652408e+2, -277942.94, -494687.1, -8653.283, -0.036793724, -0.16482483, -277598.0, 63024.586, 0.0, 10.001236, 9.998361 
5.550943e+2, 2.7523887e+2, -140615.03, -377603.13, -9560.047, -0.06441388, -0.19426283, -140230.02, 102411.51, 0.0, 10.001505, 9.998362 
5.551114e+2, 2.8523713e+2, -44262.336, -332843.38, -4350.9297, -0.053385843, -0.17828748, -44196.754, 100462.35, 0.0, 10.001719, 9.997893 
5.551288e+2, 2.9523566e+2, 79353.84, -219509.16, -2069.5217, -0.010951625, -0.115226485, 79368.18, 126042.69, 0.0, 10.001883, 9.99792 
5.55145e+2, 3.0523276e+2, 192642.78, -109121.14, -5336.599, -0.089400835, -0.20997217, 192737.13, 192737.13, 0.0, 10.002193, 9.998194 
5.55162e+2, 3.1523135e+2, 270542.1, -48415.41, 1844.1337, -0.07791743, -0.17070395, 270552.75, 270552.75, 0.0000000020600701, 10.002629, 9.998401 
5.648438e+2, 1.252216e+2, -1974544.5, -1654313.9, -44733.176, 0.014722193, -0.25371617, -1648182.5, 64620.883, 0.00000027083397, 9.997425, 10.001655 
5.6486267e+2, 1.3522255e+2, -1860055.5, -1595846.4, 37227.875, 0.110868014, -0.28307745, -1590701.1, 24090.342, 0.000000017878008, 9.997731, 10.001242 
5.648786e+2, 1.4522353e+2, -1753003.8, -1541771.0, -17399.771, -0.031915408, -0.28507537, -1540347.3, -23566.059, 0.0, 9.998006, 10.000804 
5.64896e+2, 1.5522438e+2, -1620033.9, -1425694.8, -21591.328, 0.04917415, -0.2819175, -1423324.9, -4550.6157, 0.0, 9.998241, 10.0008135 
5.6491274e+2, 1.6522524e+2, -1490904.8, -1327154.8, -22567.496, 0.0762228, -0.26848328, -1324101.5, -3334.5024, 0.0, 9.998516, 10.000685 
5.6492895e+2, 1.7522612e+2, -1347551.8, -1206505.1, -27216.78, 0.04286471, -0.24904083, -1201435.5, 21323.87, 0.0, 9.998824, 10.000691 
5.6494534e+2, 1.8522672e+2, -1234268.3, -1136600.4, -30441.436, 0.018052196, -0.23918234, -1127889.3, -3134.9978, 0.0, 9.999082, 10.000375 
5.649618e+2, 1.9522712e+2, -1105572.1, -1023485.56, -32938.824, 0.004846946, -0.24023041, -1011902.7, 14848.365, 0.0, 9.999291, 10.000378 
5.6497824e+2, 2.0522732e+2, -998417.7, -973234.6, -40195.063, 0.0013756312, -0.23231274, -943705.0, -14955.472, 0.0, 9.999578, 9.999911 
5.649948e+2, 2.1522735e+2, -847734.9, -849727.06, -41428.19, 0.0058486, -0.21920566, -807290.8, 23458.807, 0.0, 9.99994, 9.999912 
5.6501144e+2, 2.2522701e+2, -753035.7, -823942.3, -27900.535, 0.004226624, -0.20919399, -743373.8, -10619.785, 0.0, 10.000221, 9.99928 
5.650282e+2, 2.3522636e+2, -623970.4, -710319.7, -27216.803, -0.0024244718, -0.20443502, -616107.75, 18654.697, 0.0, 10.000432, 9.999286 
5.6504506e+2, 2.4522564e+2, -517498.88, -646713.6, -22467.906, -0.011586121, -0.18726768, -513703.6, 23067.225, 0.0, 10.000657, 9.99894 
5.650619e+2, 2.5522482e+2, -385114.44, -531960.5, -24205.713, -0.023828883, -0.16051218, -381227.34, 57551.76, 0.0, 10.000892, 9.998942 
5.6507885e+2, 2.652235e+2, -294217.3, -501520.38, -19915.71, -0.040751636, -0.15710132, -292321.34, 48471.25, 0.0, 10.00112, 9.998369 
5.650958e+2, 2.7522165e+2, -164114.03, -387565.13, -18288.602, -0.060654, -0.18097381, -162627.08, 80184.016, 0.0, 10.001339, 9.998373 
5.65113e+2, 2.852199e+2, -63124.754, -338095.3, -13705.35, -0.051022813, -0.16753618, -62443.33, 82385.5, 0.0, 10.001574, 9.997927 
5.6513053e+2, 2.9521838e+2, 72771.445, -219005.84, -12548.717, -0.017843256, -0.11314301, 73310.15, 120154.93, 0.0, 10.001822, 9.997952 
5.651471e+2, 3.0521572e+2, 181830.36, -102226.15, -9101.933, -0.09548866, -0.18919615, 182121.72, 182121.72, 0.0, 10.002068, 9.998302 
5.6516445e+2, 3.1521428e+2, 225244.8, -67900.8, 1729.4365, -0.080406696, -0.16482835, 225255.0, 225255.0, 0.000000017271022, 10.002308, 9.998422 
5.7484114e+2, 1.2520473e+2, -1982166.0, -1670353.4, -38648.523, 0.0073938235, -0.24355471, -1665634.5, 47334.715, 0.00000019303324, 9.997426, 10.001544 
5.748606e+2, 1.3520554e+2, -1867954.8, -1612530.5, 48662.48, 0.13100037, -0.27666122, -1603573.6, 11385.272, 0.000000007774616, 9.997731, 10.001128 
5.7487684e+2, 1.4520644e+2, -1750884.5, -1537279.3, -8512.4795, -0.010488582, -0.28096431, -1536940.6, -19991.271, 0.0, 9.998005, 10.000835 
5.748942e+2, 1.5520735e+2, -1618059.4, -1421592.3, -12659.842, 0.046825904, -0.2751399, -1420779.9, -1838.4146, 0.0, 9.99824, 10.000842 
5.749111e+2, 1.6520816e+2, -1501231.3, -1348635.0, -11028.262, 0.06763073, -0.25983456, -1347842.0, -26907.408, 0.0, 9.998516, 10.000538 
5.749278e+2, 1.7520893e+2, -1357751.9, -1227880.8, -15807.843, 0.044224065, -0.23899204, -1225984.4, -3055.7173, 0.0, 9.998825, 10.0005455 
5.7494444e+2, 1.8520936e+2, -1238987.9, -1146538.9, -22713.113, 0.028173003, -0.2349109, -1141260.0, -16334.97, 0.0, 9.999082, 10.000306 
5.7496125e+2, 1.9520953e+2, -1110332.9, -1033351.94, -25080.316, 0.022767855, -0.24864602, -1025901.8, 1021.7614, 0.0, 9.99929, 10.00031 
5.74978e+2, 2.0520972e+2, -1001207.8, -979010.06, -26740.164, 0.016065499, -0.23774673, -961156.9, -32234.482, 0.0, 9.9995775, 9.999871 
5.7499474e+2, 2.152099e+2, -850413.56, -855398.44, -28025.129, 0.0068651205, -0.20673548, -824770.25, 6151.203, 0.0, 9.99994, 9.999873 
5.750116e+2, 2.2520958e+2, -751808.4, -821590.3, -20059.453, -0.0021066405, -0.19582434, -746453.06, -13527.292, 0.0, 10.000222, 9.999296 
5.7502854e+2, 2.3520876e+2, -622768.06, -708018.2, -19317.744, -0.0099180015, -0.20620652, -618594.9, 16340.002, 0.0, 10.000433, 9.999302 
5.7504565e+2, 2.4520794e+2, -520777.5, -653770.94, -13719.252, -0.017729681, -0.1989111, -519377.0, 17567.219, 0.0, 10.000657, 9.998892 
5.750628e+2, 2.5520703e+2, -388378.56, -538981.06, -15469.756, -0.026066273, -0.17699596, -386805.97, 52147.617, 0.0, 10.000893, 9.998894 
5.7508e+2, 2.652058e+2, -291176.0, -495333.5, -11851.465, -0.038047034, -0.164175, -290490.34, 50476.04, 0.0, 10.00112, 9.998412 
5.7509714e+2, 2.7520418e+2, -161130.4, -381173.75, -10181.251, -0.05264297, -0.16590263, -160660.34, 82322.22, 0.0, 10.001337, 9.998418 
5.7511455e+2, 2.8520247e+2, -62433.52, -335924.7, -4568.3994, -0.052800007, -0.15476015, -62357.23, 82643.17, 0.0, 10.001571, 9.997944 
5.7513213e+2, 2.9520074e+2, 72856.484, -217463.61, -3283.2522, -0.042694192, -0.12402465, 72893.61, 119912.25, 0.0, 10.001816, 9.997966 
5.75149e+2, 3.0519843e+2, 193068.67, -77351.516, -202.51285, -0.11126144, -0.17634277, 193068.83, 193068.83, 0.00000000021282408, 10.00206, 9.998477 
5.751669e+2, 3.1519714e+2, 232206.31, -52137.82, 9181.726, -0.063747406, -0.14991717, 232502.48, 232502.48, 0.0000000699572, 10.002302, 9.998533 
5.848386e+2, 1.2518762e+2, -1974267.4, -1676098.5, -47947.457, 0.014025864, -0.238777, -1668577.9, 44559.086, 0.00000011738098, 9.997521, 10.001458 
5.848584e+2, 1.351883e+2, -1871453.4, -1624377.1, 46778.37, 0.14230531, -0.27430293, -1615817.3, -689.26917, 0.0000000014227642, 9.997751, 10.001037 
5.848749e+2, 1.4518912e+2, -1753357.1, -1542209.6, -12529.601, 0.0015456679, -0.2813256, -1541468.8, -24349.434, 0.0, 9.998005, 10.000801 
5.8489245e+2, 1.5519e+2, -1615283.3, -1424075.3, -22111.813, 0.051682755, -0.27460575, -1421551.5, -2439.7944, 0.0, 9.998277, 10.000807 
5.849097e+2, 1.6519077e+2, -1504055.1, -1361879.4, -20120.139, 0.06822581, -0.25746432, -1359086.9, -37981.418, 0.0, 9.9985485, 10.000431 
5.8492666e+2, 1.7519143e+2, -1366099.4, -1243774.8, -22025.734, 0.044000164, -0.23391008, -1239929.6, -16829.166, 0.0, 9.998819, 10.000438 
5.849436e+2, 1.8519181e+2, -1242499.6, -1156230.1, -29436.424, 0.031124867, -0.22895224, -1147143.1, -22045.416, 0.0, 9.999093, 10.000234 
5.8496064e+2, 1.9519189e+2, -1103908.6, -1038073.4, -32220.88, 0.032376755, -0.2436399, -1024928.5, 2168.541, 0.0, 9.999369, 10.000239 
5.849777e+2, 2.0519198e+2, -992737.3, -979046.7, -30739.31, 0.02344072, -0.23532921, -954399.7, -25303.082, 0.0, 9.999655, 9.999834 
5.849946e+2, 2.151921e+2, -851564.94, -860036.5, -32025.889, 0.0038972606, -0.20828658, -823495.94, 7600.5356, 0.0, 9.99995, 9.999836 
5.850117e+2, 2.2519177e+2, -754891.2, -826312.0, -29664.563, -0.0075218915, -0.19406585, -744177.25, -11076.434, 0.0, 10.000216, 9.999267 
5.85029e+2, 2.3519105e+2, -622006.0, -710953.0, -32451.373, -0.010494508, -0.1945214, -611425.1, 23684.205, 0.0, 10.000452, 9.999271 
5.8504635e+2, 2.4519013e+2, -519710.72, -658723.94, -28080.889, -0.01664264, -0.18904422, -514252.63, 22866.594, 0.0, 10.000689, 9.998843 
5.8506364e+2, 2.5518906e+2, -387715.4, -543885.0, -30003.977, -0.02626517, -0.17973803, -382149.3, 56980.867, 0.0, 10.00092, 9.998847 
5.8508104e+2, 2.6518783e+2, -293649.6, -493399.38, -29436.295, -0.04017954, -0.16557433, -289402.0, 51740.957, 0.0, 10.00109, 9.99844 
5.850984e+2, 2.751864e+2, -179068.27, -386694.56, -28943.402, -0.0573013, -0.15328285, -175109.02, 68048.664, 0.0, 10.001201, 9.9984455 
5.8511597e+2, 2.8518468e+2, -90656.266, -341180.03, -20324.088, -0.060002778, -0.1455218, -89018.16, 56157.242, 0.0, 10.001341, 9.998018 
5.851337e+2, 2.9518282e+2, 32702.771, -228737.02, -14943.485, -0.052191563, -0.1335117, 33554.145, 80748.805, 0.0, 10.001505, 9.998038 
5.8515084e+2, 3.0518085e+2, 152795.38, -85629.945, -10073.072, -0.11474778, -0.16031842, 153220.19, 153220.19, 0.000000006848287, 10.001736, 9.998576 
5.851691e+2, 3.1517968e+2, 198230.8, -60339.67, -7227.89, -0.06025415, -0.13406253, 198432.69, 198432.69, 0.00000018333391, 10.002034, 9.998606 
5.9483635e+2, 1.2517025e+2, -1978168.8, -1684886.1, -45167.35, 0.034556944, -0.24042995, -1678087.6, 35219.113, 0.000000058921596, 9.997524, 10.001396 
5.9485614e+2, 1.3517086e+2, -1875835.3, -1634105.1, 55358.52, 0.14395446, -0.27624246, -1622030.5, -6731.9644, 0.000000000010343272, 9.997753, 10.00097 
5.9487295e+2, 1.4517157e+2, -1760871.8, -1558046.5, -2256.3362, 0.0031603854, -0.28634936, -1558021.4, -40730.234, 0.0, 9.998005, 10.000692 
5.948909e+2, 1.5517233e+2, -1622628.3, -1439561.3, -11986.949, 0.063725136, -0.28050402, -1438779.6, -19494.955, 0.0, 9.998278, 10.000701 
5.949083e+2, 1.6517304e+2, -1508797.4, -1371875.6, -10077.991, 0.07824732, -0.26159036, -1371137.9, -49858.52, 0.0, 9.998549, 10.000362 
5.949254e+2, 1.7517367e+2, -1370858.4, -1253728.8, -11885.631, 0.041964155, -0.23399559, -1252534.9, -29260.035, 0.0, 9.998819, 10.00037 
5.949426e+2, 1.8517405e+2, -1248010.4, -1167836.1, -19113.752, 0.026491847, -0.2213583, -1163512.5, -38240.215, 0.0, 9.999093, 10.0001545 
5.9496003e+2, 1.9517416e+2, -1109284.6, -1049477.6, -21919.785, 0.033411607, -0.22503643, -1042304.25, -15032.852, 0.0, 9.99937, 10.000161 
5.949773e+2, 2.0517412e+2, -995184.56, -984286.94, -19753.668, 0.023276368, -0.22485858, -969244.4, -39972.164, 0.0, 9.999655, 9.999799 
5.949945e+2, 2.1517393e+2, -854089.9, -865397.3, -21025.443, -0.0033235294, -0.22375757, -837971.3, -6696.739, 0.0, 9.99995, 9.9998 
5.950119e+2, 2.2517361e+2, -760206.1, -837461.5, -20777.73, -0.012255945, -0.2040173, -754972.5, -21693.393, 0.0, 10.000216, 9.99919 
5.950295e+2, 2.3517314e+2, -627351.9, -722171.2, -23573.74, -0.0044223107, -0.16974577, -621814.4, 13471.367, 0.0, 10.000453, 9.999195 
5.9504706e+2, 2.4517225e+2, -523214.9, -666088.06, -19439.318, -0.008610957, -0.1580767, -520617.22, 16678.592, 0.0, 10.000689, 9.998793 
5.950646e+2, 2.5517094e+2, -391173.44, -551048.0, -21420.262, -0.024729503, -0.1688854, -388353.25, 50955.58, 0.0, 10.000919, 9.998798 
5.9508204e+2, 2.6516962e+2, -292818.3, -491598.72, -25383.828, -0.047237363, -0.16135563, -289628.03, 51694.242, 0.0, 10.001089, 9.998452 
5.950994e+2, 2.7516824e+2, -178513.45, -385250.6, -24852.012, -0.07432967, -0.14330336, -175567.94, 67768.46, 0.0, 10.001199, 9.998457 
5.9511715e+2, 2.8516656e+2, -82087.97, -322882.2, -14304.851, -0.07283096, -0.13992552, -81241.14, 64112.61, 0.0, 10.001338, 9.998146 
5.951352e+2, 2.951647e+2, 40889.93, -210943.44, -8947.705, -0.047921013, -0.14156522, 41207.44, 88580.24, 0.0, 10.001501, 9.998162 
5.951526e+2, 3.0516306e+2, 153993.77, -81867.24, 717.86847, -0.10720516, -0.14119095, 153995.94, 153995.94, 0.000000033052434, 10.00173, 9.998605 
5.95171e+2, 3.151619e+2, 199469.53, -55821.156, 2645.2686, -0.06925945, -0.1156156, 199496.94, 199496.94, 0.00000037488923, 10.002025, 9.998641 
6.04834e+2, 1.2515244e+2, -1968314.6, -1680580.5, -75834.43, 0.050454464, -0.23979965, -1661817.3, 51664.336, 0.000000021349177, 9.997596, 10.001391 
6.048539e+2, 1.3515304e+2, -1851282.3, -1623230.4, 34151.613, 0.1425008, -0.2757002, -1618225.9, -2752.3364, 0.0, 9.997926, 10.00096 
6.0487103e+2, 1.4515369e+2, -1734921.5, -1552869.1, -20019.287, 0.002906736, -0.28693607, -1550693.8, -33227.11, 0.0, 9.998216, 10.000626 
6.048893e+2, 1.5515442e+2, -1597904.6, -1434774.3, -26729.656, 0.07286777, -0.27838615, -1430506.1, -11045.548, 0.0, 9.998479, 10.000636 
6.0490704e+2, 1.6515505e+2, -1485319.4, -1366370.4, -23124.299, 0.088400304, -0.2583837, -1362033.0, -40577.242, 0.0, 9.998736, 10.000309 
6.049243e+2, 1.7515565e+2, -1350887.5, -1249899.3, -24007.117, 0.04630487, -0.23118177, -1244482.8, -21030.725, 0.0, 9.998982, 10.000318 
6.049418e+2, 1.8515597e+2, -1231326.8, -1167694.4, -29712.193, 0.024430547, -0.21577871, -1155978.0, -30528.203, 0.0, 9.999242, 10.000083 
6.0495937e+2, 1.9515608e+2, -1092473.0, -1049267.4, -32065.076, 0.023979787, -0.21383731, -1032206.94, -4757.8867, 0.0, 9.999519, 10.00009 
6.0497695e+2, 2.0515597e+2, -984738.9, -986610.6, -31827.516, 0.014526941, -0.21381176, -953833.5, -24382.865, 0.0, 9.999759, 9.999732 
6.049944e+2, 2.1515568e+2, -857057.7, -874087.2, -35487.67, -0.003519824, -0.21831688, -829077.56, 2376.7737, 0.0, 9.999962, 9.999734 
6.0501206e+2, 2.2515531e+2, -768349.4, -846822.44, -35690.043, -0.010720779, -0.19577247, -754545.5, -21086.08, 0.0, 10.000183, 9.999142 
6.050298e+2, 2.3515491e+2, -635416.4, -731550.7, -36532.58, -0.0077114496, -0.15085107, -623109.0, 12356.664, 0.0, 10.000422, 9.9991455 
6.0504764e+2, 2.4515395e+2, -534057.94, -672593.06, -31418.646, -0.013513686, -0.14014497, -527265.5, 10210.535, 0.0, 10.000619, 9.998781 
6.050654e+2, 2.5515252e+2, -412550.7, -562778.1, -30681.313, -0.028182713, -0.1625887, -406526.16, 32963.734, 0.0, 10.000779, 9.998786 
6.05083e+2, 2.651511e+2, -316807.06, -506371.44, -37279.164, -0.050190024, -0.15870498, -309739.38, 31764.492, 0.0, 10.000937, 9.998425 
6.0510045e+2, 2.751498e+2, -195879.0, -396705.03, -39896.203, -0.07769591, -0.13712126, -188243.5, 55274.703, 0.0, 10.001093, 9.998429 
6.051184e+2, 2.8514814e+2, -94988.61, -320748.16, -32726.463, -0.07367003, -0.13299453, -90340.24, 55195.03, 0.0, 10.001213, 9.99822 
6.0513663e+2, 2.9514635e+2, 16926.889, -214999.7, -31326.598, -0.043282893, -0.13577285, 21083.705, 68637.2, 0.00000000003092486, 10.001305, 9.99823 
6.051542e+2, 3.051449e+2, 114700.91, -102237.125, -20284.967, -0.098980986, -0.11541722, 116581.37, 116581.37, 0.00000008707832, 10.001467, 9.998591 
6.051729e+2, 3.151435e+2, 153652.38, -75046.336, -22576.379, -0.065160416, -0.116871454, 155859.73, 155859.73, 0.0000006525611, 10.001698, 9.998666 
6.1483175e+2, 1.2513416e+2, -1964455.6, -1673183.5, -69281.75, 0.059928056, -0.2369927, -1657544.0, 56117.7, 0.0000000039655865, 9.997598, 10.001441 
6.1485183e+2, 1.3513482e+2, -1847296.1, -1616098.9, 45923.2, 0.13755243, -0.27244726, -1607311.0, 8341.719, 0.0, 9.99793, 10.001008 
6.148692e+2, 1.4513548e+2, -1736147.1, -1556170.1, -10497.955, 0.0005617519, -0.28294045, -1555559.9, -37914.348, 0.0, 9.998219, 10.000602 
6.1488783e+2, 1.5513624e+2, -1599243.4, -1438106.3, -17032.564, 0.078789234, -0.26802114, -1436325.5, -16686.262, 0.0, 9.998481, 10.000613 
6.149059e+2, 1.6513687e+2, -1487719.6, -1371964.9, -14095.568, 0.09848298, -0.24752055, -1370273.1, -48638.45, 0.0, 9.998737, 10.00027 
6.149234e+2, 1.7513736e+2, -1353353.8, -1255575.1, -14950.502, 0.057035867, -0.22523133, -1253340.3, -29708.506, 0.0, 9.998983, 10.0002775 
6.14941e+2, 1.8513761e+2, -1235649.4, -1177085.8, -19474.777, 0.024870774, -0.21212573, -1171200.9, -45570.668, 0.0, 9.999244, 10.000018 
6.1495864e+2, 1.9513766e+2, -1097002.1, -1058923.5, -21788.87, 0.003732192, -0.21013737, -1049027.5, -21397.58, 0.0, 9.99952, 10.000023 
6.1497647e+2, 2.0513755e+2, -991505.7, -1000875.44, -24383.615, -0.0031667284, -0.2022855, -971360.94, -41729.117, 0.0, 9.999759, 9.999634 
6.1499447e+2, 2.151373e+2, -863670.3, -887993.94, -27937.627, 0.003094272, -0.19200157, -845362.1, -13726.328, 0.0, 9.999962, 9.999639 
6.1501235e+2, 2.2513688e+2, -769969.4, -850280.8, -26781.361, -0.0030020725, -0.16924587, -761857.9, -28216.324, 0.0, 10.000183, 9.999118 
6.1503017e+2, 2.3513632e+2, -636974.7, -734892.4, -27608.656, -0.020388408, -0.13751885, -629726.7, 5922.311, 0.0, 10.000422, 9.999123 
6.150481e+2, 2.4513528e+2, -532377.8, -669168.7, -25527.365, -0.03135225, -0.13500099, -527769.25, 9890.472, 0.0, 10.000619, 9.998806 
6.150661e+2, 2.5513384e+2, -411282.94, -559885.94, -24738.105, -0.036666002, -0.16108564, -407272.94, 32400.395, 0.0, 10.000777, 9.998807 
6.1508393e+2, 2.6513243e+2, -321953.56, -516714.5, -31494.09, -0.04939501, -0.15782215, -316987.4, 24700.264, 0.0, 10.000936, 9.998354 
6.1510164e+2, 2.7513102e+2, -200799.42, -406524.7, -34073.055, -0.068372995, -0.13424358, -195302.95, 48400.02, 0.0, 10.00109, 9.9983635 
6.151197e+2, 2.851294e+2, -93678.984, -317518.28, -29349.799, -0.06343744, -0.12458116, -89894.62, 55825.227, 0.0, 10.00121, 9.998244 
6.15138e+2, 2.9512772e+2, 17386.854, -213331.38, -27815.865, -0.038542286, -0.11738587, 20693.016, 68429.74, 0.0000000010306047, 10.001301, 9.998242 
6.151558e+2, 3.051264e+2, 110134.17, -110927.09, -11465.323, -0.090504594, -0.083714835, 110727.23, 110727.23, 0.00000016756015, 10.001462, 9.998533 
6.151747e+2, 3.1512445e+2, 153569.2, -74089.13, -14665.505, -0.050332848, -0.13362524, 154510.05, 154510.05, 0.000001002472, 10.001693, 9.998675 
6.248294e+2, 1.251157e+2, -1964942.0, -1676917.9, -75441.336, 0.067496605, -0.23187654, -1658354.3, 55489.055, 0.00000000008306351, 9.99761, 10.001409 
6.2484986e+2, 1.3511637e+2, -1835387.9, -1613585.6, 38456.715, 0.14133891, -0.2624691, -1607107.1, 8727.211, 0.0, 9.998026, 10.000978 
6.2486756e+2, 1.4511703e+2, -1721797.9, -1548637.8, -25271.3, 0.00583505, -0.27292782, -1545024.9, -27197.578, 0.0, 9.998315, 10.000607 
6.248863e+2, 1.5511781e+2, -1597692.3, -1437003.4, -29801.371, 0.077324115, -0.25639102, -1431654.5, -11833.675, 0.0, 9.99849, 10.000615 
6.249046e+2, 1.651184e+2, -1489506.1, -1379109.6, -23764.076, 0.09597165, -0.23617263, -1374211.5, -52395.0, 0.0, 9.998754, 10.000214 
6.249224e+2, 1.7511882e+2, -1340036.3, -1255535.8, -26267.758, 0.0595183, -0.21608235, -1248035.9, -24221.66, 0.0, 9.999104, 10.00022 
6.2494034e+2, 1.8511897e+2, -1216954.8, -1171608.9, -32131.023, 0.027381837, -0.20849892, -1154956.8, -29143.213, 0.0, 9.999388, 9.999987 
6.249582e+2, 1.9511889e+2, -1086492.4, -1057522.4, -32058.467, 0.0012635574, -0.21531528, -1036828.44, -9014.355, 0.0, 9.999609, 9.99999 
6.249762e+2, 2.0511876e+2, -991768.8, -1011935.8, -35606.5, -0.0056401496, -0.2028509, -964845.56, -35029.156, 0.0, 9.9998045, 9.999536 
6.249944e+2, 2.1511857e+2, -867726.56, -900631.6, -39310.863, 0.0052843173, -0.17518725, -841564.2, -9743.817, 0.0, 9.999981, 9.999542 
6.250125e+2, 2.2511815e+2, -771418.06, -848072.7, -35587.605, -0.0024031922, -0.15074448, -757443.75, -23617.365, 0.0, 10.000161, 9.999144 
6.2503046e+2, 2.3511748e+2, -646339.8, -736513.3, -32748.885, -0.027191006, -0.13215451, -635701.25, 133.0107, 0.0, 10.000344, 9.999148 
6.250485e+2, 2.451164e+2, -551216.9, -679091.06, -32868.2, -0.041850056, -0.13519426, -543263.25, -5418.0225, 0.0, 10.000494, 9.998797 
6.2506664e+2, 2.5511494e+2, -436618.53, -572807.75, -34425.414, -0.047361042, -0.16005433, -428411.22, 11447.699, 0.0, 10.000607, 9.9988 
6.250847e+2, 2.651136e+2, -349784.97, -529305.8, -38560.43, -0.054439254, -0.1525682, -341852.8, 20.055016, 0.0, 10.000741, 9.998362 
6.2510264e+2, 2.7511224e+2, -228519.22, -419059.25, -35741.152, -0.06218287, -0.121456355, -222035.58, 21851.857, 0.0, 10.000896, 9.99837 
6.2512094e+2, 2.851106e+2, -118118.87, -328326.94, -30748.857, -0.05379596, -0.11689806, -113713.31, 32191.398, 0.0, 10.001039, 9.998252 
6.251393e+2, 2.9510874e+2, -1732.7645, -222117.8, -30344.408, -0.032614723, -0.12711738, 2368.9614, 50292.082, 0.000000004235602, 10.001168, 9.998246 
6.2515724e+2, 3.051076e+2, 89202.99, -120969.28, -8651.989, -0.08329667, -0.07613293, 89558.56, 89558.56, 0.000000262113, 10.001319, 9.998533 
6.251763e+2, 3.151056e+2, 132342.1, -73196.55, -8955.137, -0.042630967, -0.13333091, 132731.53, 132731.53, 0.0000013873902, 10.001499, 9.998775 
6.34827e+2, 1.2509705e+2, -1973251.5, -1694302.3, -65133.133, 0.07162914, -0.22475171, -1679843.5, 34182.887, 0.0, 9.99761, 10.001289 
6.3484794e+2, 1.3509771e+2, -1842977.6, -1629991.6, 53527.156, 0.15425238, -0.24530013, -1617296.0, -1277.7308, 0.0, 9.998028, 10.000866 
6.3486594e+2, 1.4509833e+2, -1719245.1, -1543912.6, -19015.322, 0.019056259, -0.25633886, -1541874.0, -23862.152, 0.0, 9.998317, 10.000639 
6.3488466e+2, 1.5509911e+2, -1595504.6, -1432788.8, -23504.54, 0.067855194, -0.24330886, -1429461.5, -9456.39, 0.0, 9.99849, 10.000645 
6.3490313e+2, 1.6509965e+2, -1494949.8, -1390592.0, -10856.1875, 0.07992877, -0.22431593, -1389474.5, -67473.586, 0.0, 9.998754, 10.000134 
6.3492143e+2, 1.751e+2, -1345401.8, -1266945.9, -13290.442, 0.053193312, -0.20363331, -1264755.6, -40756.26, 0.0, 9.999104, 10.000142 
6.349397e+2, 1.8510003e+2, -1216790.9, -1171633.4, -24051.275, 0.03169467, -0.20477845, -1161223.3, -35223.727, 0.0, 9.999389, 9.999986 
6.349579e+2, 1.9509977e+2, -1086350.8, -1057611.9, -23930.14, 0.016606262, -0.22933449, -1044068.4, -16066.94, 0.0, 9.99961, 9.9999895 
6.3497615e+2, 2.0509961e+2, -998607.56, -1026474.6, -29250.592, 0.0071436935, -0.21556933, -980141.4, -50137.105, 0.0, 9.999805, 9.999436 
6.349943e+2, 2.1509951e+2, -874615.9, -915161.56, -32802.742, 0.0028370435, -0.16789176, -856327.0, -24318.885, 0.0, 9.999981, 9.999443 
6.3501257e+2, 2.250991e+2, -766199.2, -837361.6, -28795.82, -0.009231279, -0.14023525, -756006.8, -21992.959, 0.0, 10.000161, 9.999218 
6.3503075e+2, 2.3509838e+2, -641244.8, -725959.5, -25892.016, -0.028365888, -0.13478133, -633958.0, 2063.4695, 0.0, 10.000344, 9.999221 
6.350489e+2, 2.450973e+2, -554040.75, -685034.2, -28739.043, -0.045253724, -0.14069825, -548013.0, -9980.515, 0.0, 10.000493, 9.998757 
6.350671e+2, 2.5509587e+2, -439183.97, -578200.0, -30181.844, -0.060464196, -0.15920705, -432913.97, 7132.526, 0.0, 10.000606, 9.998764 
6.3508534e+2, 2.650946e+2, -344346.28, -517822.6, -32809.504, -0.06546975, -0.1428533, -338348.4, 3711.0767, 0.0, 10.00074, 9.998441 
6.351036e+2, 2.7509347e+2, -223615.11, -408163.84, -29952.592, -0.059325896, -0.09948685, -218875.47, 25196.229, 0.0, 10.000893, 9.998447 
6.35122e+2, 2.850917e+2, -119219.05, -329767.13, -25928.484, -0.04502948, -0.11004694, -116073.03, 30016.898, 0.0, 10.001035, 9.998245 
6.351404e+2, 2.9508942e+2, -2873.219, -223656.52, -25493.86, -0.02584795, -0.16290261, 32.320854, 48144.85, 0.000000008608103, 10.0011635, 9.998238 
6.351586e+2, 3.0508852e+2, 92143.12, -113860.65, -1878.1227, -0.07761057, -0.0909863, 92160.24, 92160.24, 0.00000035003856, 10.001314, 9.998585 
6.351778e+2, 3.1508687e+2, 143587.7, -48230.37, -2917.7708, -0.042643357, -0.115380034, 143632.08, 143632.08, 0.0000017531552, 10.001492, 9.99895 
6.4482504e+2, 1.2507817e+2, -1905571.1, -1673782.9, -66380.17, 0.08193623, -0.2301794, -1656118.9, 58092.19, 0.0, 9.998128, 10.001181 
6.4484614e+2, 1.3507883e+2, -1810015.0, -1625486.6, 57697.65, 0.15665156, -0.2409439, -1608931.3, 7272.382, 0.0, 9.998302, 10.000764 
6.4486444e+2, 1.4507939e+2, -1691097.8, -1536464.1, -19736.936, 0.025205914, -0.24897586, -1533984.8, -15786.575, 0.0, 9.998536, 10.000584 
6.4488333e+2, 1.5508015e+2, -1547409.1, -1415753.9, -30914.89, 0.07060523, -0.23287429, -1408855.9, 11335.816, 0.0, 9.998848, 10.000589 
6.4490205e+2, 1.6508065e+2, -1448183.5, -1369801.8, -18640.137, 0.077780984, -0.21475354, -1365594.8, -43406.85, 0.0, 9.999083, 10.000119 
6.449205e+2, 1.7508093e+2, -1327236.3, -1260244.5, -16540.932, 0.04578106, -0.19866969, -1256383.0, -32196.527, 0.0, 9.999238, 10.000123 
6.44939e+2, 1.850809e+2, -1218923.9, -1181962.5, -29810.836, 0.02747623, -0.20196736, -1165368.8, -39181.266, 0.0, 9.999414, 9.999902 
6.449576e+2, 1.9508055e+2, -1091076.1, -1069180.4, -36182.906, 0.023360165, -0.22637606, -1042325.3, -14134.815, 0.0, 9.999618, 9.999906 
6.4497596e+2, 2.0508039e+2, -998776.5, -1025166.1, -42067.34, 0.014084886, -0.2093819, -967883.1, -37689.56, 0.0, 9.999799, 9.999448 
6.4499426e+2, 2.1508037e+2, -876964.6, -915072.44, -37209.164, -0.00014543999, -0.1552228, -854214.56, -22017.951, 0.0, 9.99996, 9.999454 
6.450126e+2, 2.2507992e+2, -772597.0, -839712.94, -31775.236, -0.014485417, -0.13194837, -759940.25, -25737.744, 0.0, 10.000114, 9.999224 
6.450311e+2, 2.3507904e+2, -652766.3, -730709.75, -34014.938, -0.028818883, -0.14177124, -640009.8, -3798.5686, 0.0, 10.000262, 9.999228 
6.450494e+2, 2.4507798e+2, -566792.75, -687489.8, -38634.336, -0.04356384, -0.14550538, -555485.5, -17263.666, 0.0, 10.00039, 9.99879 
6.4506763e+2, 2.550768e+2, -452634.38, -580943.9, -34900.76, -0.059042513, -0.14482224, -443755.63, -3521.608, 0.0, 10.000498, 9.998796 
6.45086e+2, 2.650756e+2, -364954.9, -523777.1, -36948.082, -0.06299359, -0.12545368, -356780.16, -14533.722, 0.0, 10.000582, 9.998476 
6.4510435e+2, 2.7507436e+2, -257972.7, -420633.6, -37366.91, -0.054464277, -0.09497312, -249799.36, -5539.9736, 0.0, 10.00064, 9.998483 
6.4512295e+2, 2.8507257e+2, -155232.36, -341319.6, -30682.486, -0.040175315, -0.112993635, -150303.89, -4026.049, 0.0, 10.000763, 9.998296 
6.4514154e+2, 2.9507032e+2, -30749.393, -231849.83, -26364.594, -0.023123916, -0.16775216, -27350.402, 20949.77, 0.000000011710588, 10.00095, 9.998284 
6.451598e+2, 3.0506963e+2, 65483.094, -117139.8, -603.7755, -0.07398586, -0.08166777, 65485.09, 65485.09, 0.00000040808163, 10.00109, 9.99867 
6.4517915e+2, 3.1506798e+2, 115330.38, -36049.133, -113.611145, -0.040479083, -0.117598385, 115330.47, 115330.47, 0.0000020409286, 10.001187, 9.99918 
6.548233e+2, 1.2505907e+2, -1911008.6, -1687691.1, -64733.836, 0.09791276, -0.2493602, -1670283.5, 44113.74, 0.0, 9.998138, 10.00108 
6.548443e+2, 1.3505974e+2, -1815603.0, -1638664.8, 63734.62, 0.14753774, -0.25027013, -1618097.8, -1707.2727, 0.0, 9.998308, 10.000671 
6.5486294e+2, 1.4506024e+2, -1700981.4, -1557855.5, -8268.575, 0.023269022, -0.2515266, -1557379.4, -38993.305, 0.0, 9.998539, 10.000436 
6.548823e+2, 1.5506096e+2, -1557014.3, -1436670.1, -19341.97, 0.0858421, -0.22498575, -1433637.9, -13257.307, 0.0, 9.998851, 10.000444 
6.5490127e+2, 1.6506141e+2, -1444519.6, -1363053.3, -13018.736, 0.09009327, -0.20716867, -1361023.4, -38646.176, 0.0, 9.999085, 10.000164 
6.549197e+2, 1.7506163e+2, -1323990.3, -1253969.6, -10874.666, 0.037058577, -0.20138526, -1252319.6, -27943.924, 0.0, 9.999239, 10.000166 
6.549383e+2, 1.8506157e+2, -1230902.3, -1207058.5, -22410.313, 0.014213857, -0.20023929, -1193596.3, -67219.13, 0.0, 9.999415, 9.99973 
6.549572e+2, 1.9506125e+2, -1103007.0, -1094113.8, -28722.916, 0.021161838, -0.20619234, -1069495.4, -41113.996, 0.0, 9.999618, 9.999735 
6.549758e+2, 2.050611e+2, -990056.75, -1007278.9, -36250.98, 0.014944174, -0.18397897, -961408.1, -31023.896, 0.0, 9.9998, 9.999571 
6.549942e+2, 2.1506113e+2, -868430.1, -897591.1, -31327.959, -0.003792766, -0.1371241, -848455.9, -16070.027, 0.0, 9.999961, 9.999574 
6.5501267e+2, 2.250606e+2, -776895.6, -848843.4, -26324.264, -0.018276848, -0.12589741, -768292.75, -33900.504, 0.0, 10.000114, 9.999161 
6.550313e+2, 2.3505948e+2, -656965.5, -739631.7, -28501.453, -0.028757697, -0.15294957, -648091.44, -11688.043, 0.0, 10.000262, 9.9991665 
6.550498e+2, 2.4505852e+2, -559745.56, -672892.1, -34693.438, -0.037159517, -0.14961104, -549954.9, -11541.682, 0.0, 10.00039, 9.998891 
6.550683e+2, 2.5505775e+2, -445879.75, -566752.9, -30891.693, -0.04374832, -0.117462896, -438442.38, 1979.0697, 0.0, 10.000497, 9.998895 
6.5508676e+2, 2.6505655e+2, -365733.7, -525252.2, -34795.03, -0.047595337, -0.10059179, -358474.34, -16040.644, 0.0, 10.000581, 9.9984665 
6.551051e+2, 2.7505496e+2, -258530.23, -421654.78, -35090.684, -0.04778693, -0.10677247, -251301.97, -6851.6094, 0.0, 10.000639, 9.998477 
6.551237e+2, 2.850532e+2, -148237.4, -326409.63, -23632.424, -0.03928622, -0.1251138, -145156.13, 1312.2649, 0.0, 10.000761, 9.9984 
6.551424e+2, 2.9505143e+2, -24612.994, -218283.72, -19231.059, -0.024600584, -0.14370482, -22721.86, 25764.408, 0.000000011654482, 10.000946, 9.99838 
6.551609e+2, 3.050509e+2, 72820.734, -100901.54, 3140.6042, -0.07272027, -0.04953999, 72877.49, 72877.49, 0.00000041978168, 10.001085, 9.998784 
6.5518034e+2, 3.1504887e+2, 133673.94, 3239.101, 2833.3418, -0.037129957, -0.13625818, 133735.45, 133735.45, 0.000002202322, 10.001182, 9.999453 
6.6482145e+2, 1.2503973e+2, -1902865.8, -1697427.3, -88083.02, 0.09660129, -0.25450945, -1664832.6, 49754.15, 0.0, 9.998254, 10.000957 
6.6484267e+2, 1.3504037e+2, -1787860.8, -1637439.6, 42606.906, 0.14228654, -0.24645008, -1626209.6, -9628.849, 0.0, 9.998551, 10.000563 
6.648616e+2, 1.4504084e+2, -1669887.8, -1546649.5, -25207.49, 0.028911866, -0.24528804, -1541692.9, -23115.76, 0.0, 9.99877, 10.0004015 
6.648813e+2, 1.5504153e+2, -1547700.9, -1435903.4, -27618.818, 0.093875274, -0.2158642, -1429452.5, -8880.949, 0.0, 9.998932, 10.00041 
6.649003e+2, 1.6504195e+2, -1443453.6, -1367088.8, -22825.246, 0.09470413, -0.19872524, -1360786.4, -38217.816, 0.0, 9.999113, 10.000123 
6.649189e+2, 1.7504208e+2, -1316483.3, -1254914.9, -27465.691, 0.033274923, -0.19701922, -1244443.4, -19875.318, 0.0, 9.9993105, 10.000124 
6.649377e+2, 1.8504202e+2, -1222021.5, -1203183.6, -35941.15, 0.007755418, -0.19317563, -1175447.8, -48878.113, 0.0, 9.999478, 9.999725 
6.6495675e+2, 1.9504178e+2, -1103317.1, -1094714.8, -29604.799, 0.01742578, -0.18985847, -1069100.4, -40527.223, 0.0, 9.999619, 9.99973 
6.649755e+2, 2.0504166e+2, -988882.7, -1003801.06, -33839.402, 0.014625667, -0.16727084, -961690.1, -31114.32, 0.0, 9.999796, 9.999597 
6.649942e+2, 2.1504164e+2, -858941.5, -890101.1, -36382.25, -0.000029238829, -0.12844738, -834943.56, -2365.9612, 0.0, 10.000013, 9.9995985 
6.650129e+2, 2.2504108e+2, -772198.56, -845332.44, -35761.266, -0.012938178, -0.120840564, -757618.56, -23034.477, 0.0, 10.000142, 9.999171 
6.6503155e+2, 2.3503998e+2, -667937.4, -743563.44, -32557.043, -0.024234183, -0.14737074, -655852.6, -19257.488, 0.0, 10.000182, 9.999178 
6.6505015e+2, 2.4503906e+2, -572749.56, -667432.6, -35670.324, -0.032839168, -0.14515834, -560815.56, -22211.152, 0.0, 10.000251, 9.998995 
6.6506875e+2, 2.5503835e+2, -460379.72, -562065.1, -31648.121, -0.039023157, -0.115757085, -451334.3, -10722.709, 0.0, 10.000348, 9.998999 
6.650873e+2, 2.6503727e+2, -383704.53, -531308.2, -35100.61, -0.04304229, -0.09669666, -375782.66, -33159.547, 0.0, 10.000447, 9.998489 
6.651057e+2, 2.7503577e+2, -270341.03, -424684.22, -33385.215, -0.043958064, -0.095578566, -263429.16, -18789.947, 0.0, 10.000547, 9.9985 
6.651244e+2, 2.8503406e+2, -158846.77, -319460.25, -18861.143, -0.035704724, -0.115266286, -156661.6, -10004.928, 0.0, 10.000637, 9.998507 
6.651433e+2, 2.9503226e+2, -50584.938, -219522.73, -14349.064, -0.020756911, -0.1447151, -49374.84, -700.80365, 0.000000008469742, 10.00072, 9.99848 
6.651619e+2, 3.050318e+2, 37179.664, -116249.08, 3983.0754, -0.066660844, -0.05141283, 37282.996, 37282.996, 0.00000038345433, 10.0008335, 9.998799 
6.6518146e+2, 3.1502965e+2, 116563.17, 16385.107, -4445.2417, -0.03155562, -0.14825702, 116760.03, 116760.03, 0.0000022156387, 10.000973, 9.999643 
6.7481947e+2, 1.2502016e+2, -1912758.1, -1718825.8, -81227.23, 0.0749181, -0.24562609, -1689299.6, 25479.957, 0.0, 9.998258, 10.000809 
6.7484117e+2, 1.3502076e+2, -1795950.0, -1655683.4, 53158.3, 0.14067605, -0.22824936, -1637813.9, -21039.473, 0.0, 9.998557, 10.000435 
6.7486054e+2, 1.4502119e+2, -1663518.6, -1534547.4, -19521.479, 0.04235874, -0.2293281, -1531657.3, -12886.158, 0.0, 9.998774, 10.000483 
6.748802e+2, 1.550219e+2, -1541859.8, -1424157.0, -21612.281, 0.09397985, -0.20555532, -1420314.1, 450.66922, 0.0, 9.998933, 10.000491 
6.748994e+2, 1.6502228e+2, -1452845.0, -1386656.6, -15437.866, 0.09075944, -0.18961535, -1383233.0, -60470.766, 0.0, 9.999113, 9.999989 
6.7491823e+2, 1.750223e+2, -1325680.1, -1274238.9, -20180.809, 0.034278687, -0.18520829, -1267266.8, -42503.28, 0.0, 9.999311, 9.999991 
6.749371e+2, 1.8502228e+2, -1210316.4, -1179233.1, -30910.594, 0.008128053, -0.18036611, -1160176.9, -33412.293, 0.0, 9.999479, 9.99989 
6.7495626e+2, 1.950222e+2, -1091719.3, -1070881.0, -24520.592, 0.011952964, -0.17745337, -1054657.8, -25891.977, 0.0, 9.999619, 9.999893 
6.749753e+2, 2.0502207e+2, -994030.75, -1014710.2, -25826.322, 0.0128750065, -0.15942298, -976551.25, -45783.15, 0.0, 9.999796, 9.999521 
6.749943e+2, 2.1502188e+2, -863940.44, -900716.06, -28353.645, 0.010876192, -0.12909535, -848534.2, -15762.353, 0.0, 10.000014, 9.999526 
6.750131e+2, 2.2502138e+2, -766364.5, -833466.8, -34377.777, 0.001275848, -0.11671328, -751879.06, -17101.172, 0.0, 10.000143, 9.999253 
6.750318e+2, 2.3502053e+2, -662121.8, -731745.4, -31108.846, -0.015476761, -0.12538645, -650247.2, -13460.736, 0.0, 10.000182, 9.999259 
6.7505044e+2, 2.4501964e+2, -565253.1, -652124.2, -32160.254, -0.03070652, -0.13221015, -554643.06, -15847.74, 0.0, 10.000252, 9.9991 
6.7506903e+2, 2.5501865e+2, -452963.6, -546714.75, -28110.3, -0.04467187, -0.1387411, -445181.06, -4376.6353, 0.0, 10.000347, 9.999104 
6.7508763e+2, 2.6501772e+2, -380269.78, -524093.94, -31433.53, -0.049184997, -0.11314658, -373699.94, -30885.324, 0.0, 10.000446, 9.998539 
6.751063e+2, 2.7501678e+2, -266911.5, -417552.2, -29622.607, -0.04321783, -0.062641166, -261295.72, -16469.596, 0.0, 10.000546, 9.998549 
6.7512506e+2, 2.850151e+2, -151362.81, -303926.97, -15775.167, -0.029868238, -0.08439922, -149748.73, -2905.907, 0.0, 10.000636, 9.998613 
6.751441e+2, 2.950129e+2, -43596.348, -204961.06, -11183.034, -0.012028374, -0.16904338, -42825.016, 6038.433, 0.0000000040864183, 10.00072, 9.99858 
6.7516285e+2, 3.0501232e+2, 31484.352, -127906.414, 9155.528, -0.05619841, -0.08510763, 32008.527, 32008.527, 0.0000003121116, 10.000833, 9.99872 
6.751825e+2, 3.150104e+2, 123656.49, 31650.443, -50.539253, -0.025037315, -0.15181181, 123656.52, 123656.52, 0.0000020914758, 10.00097, 9.999749 
6.848178e+2, 1.2500054e+2, -1862082.9, -1696660.0, -88037.48, 0.06394909, -0.22579825, -1658575.0, 56398.504, 0.0, 9.998616, 10.000788 
6.848398e+2, 1.3500108e+2, -1770931.6, -1643694.3, 59223.926, 0.13957517, -0.21290118, -1620394.5, -3426.0244, 0.0, 9.99873, 10.000434 
6.8485945e+2, 1.4500144e+2, -1652409.1, -1532488.6, -14282.135, 0.053436343, -0.2200968, -1530811.1, -11845.5205, 0.0, 9.998865, 10.000452 
6.848791e+2, 1.5500212e+2, -1527904.8, -1420786.9, -25077.268, 0.092735186, -0.1965389, -1415206.8, 5752.7837, 0.0, 9.999044, 10.00046 
6.848985e+2, 1.6500247e+2, -1436949.5, -1382441.1, -17881.195, 0.085195646, -0.18059464, -1377098.9, -54141.574, 0.0, 9.999238, 9.999956 
6.8491757e+2, 1.7500247e+2, -1307676.6, -1268915.0, -14901.227, 0.033272956, -0.17617887, -1263848.8, -38889.83, 0.0, 9.999451, 9.999961 
6.849367e+2, 1.8500245e+2, -1186324.0, -1164499.9, -29178.984, 0.0087660365, -0.17018677, -1144259.3, -17299.268, 0.0, 9.999631, 9.999917 
6.8495595e+2, 1.950024e+2, -1065818.6, -1055156.5, -33284.516, 0.01102515, -0.16501398, -1026778.8, 2181.7146, 0.0, 9.9997835, 9.999922 
6.849751e+2, 2.0500226e+2, -987899.94, -1013689.4, -39407.55, 0.012101382, -0.14897625, -959331.06, -28368.05, 0.0, 9.999847, 9.999503 
6.849942e+2, 2.15002e+2, -892828.4, -916449.7, -37731.223, 0.011960938, -0.12477852, -865102.5, -32135.076, 0.0, 9.999825, 9.999509 
6.850132e+2, 2.2500153e+2, -795952.1, -840072.9, -41564.504, 0.0043420224, -0.11208005, -770956.5, -35983.234, 0.0, 9.9999075, 9.999321 
6.85032e+2, 2.3500082e+2, -670116.5, -728106.1, -39525.324, -0.01035132, -0.11394095, -650091.44, -13110.907, 0.0, 10.000096, 9.999326 
6.850507e+2, 2.4499999e+2, -563751.94, -639058.9, -42768.168, -0.025317267, -0.12294884, -544423.8, -5435.2266, 0.0, 10.00021, 9.999209 
6.850693e+2, 2.54999e+2, -459856.84, -537530.0, -38470.816, -0.040759213, -0.14078438, -444028.22, -3030.9106, 0.0, 10.000247, 9.999215 
6.8508804e+2, 2.6499817e+2, -387261.03, -514589.28, -37003.406, -0.045610953, -0.11673807, -377288.38, -34282.055, 0.0, 10.000343, 9.998653 
6.851068e+2, 2.749974e+2, -265720.66, -404239.1, -30710.656, -0.038690526, -0.05787372, -259217.19, -14201.282, 0.0, 10.000501, 9.998662 
6.851257e+2, 2.8499585e+2, -150161.55, -298656.6, -18732.393, -0.025607102, -0.07870393, -147834.95, -803.30963, 0.0, 10.000626, 9.998654 
6.8514484e+2, 2.9499355e+2, -41594.88, -199731.14, -19086.305, -0.009296227, -0.17057751, -39323.867, 9728.454, 0.0000000009738006, 10.000715, 9.998617 
6.851637e+2, 3.0499288e+2, 15779.62, -151198.03, -2660.6235, -0.05032942, -0.09291543, 15822.004, 15822.004, 0.00000022618863, 10.0007925, 9.998579 
6.8518347e+2, 3.1499088e+2, 110935.664, 30045.775, -17190.006, -0.015635977, -0.15830036, 114437.16, 114437.16, 0.0000018666766, 10.000863, 9.99979 
6.948164e+2, 1.24980904e+2, -1852997.5, -1679994.6, -87121.4, 0.06254886, -0.19376753, -1643725.4, 71442.67, 0.0, 9.998625, 10.000897 
6.948385e+2, 1.3498138e+2, -1761233.3, -1624493.8, 63275.6, 0.13877465, -0.2007657, -1599706.5, 17455.99, 0.0, 9.998733, 10.000565 
6.948583e+2, 1.4498161e+2, -1663029.3, -1554670.9, -7409.272, 0.061792094, -0.21835315, -1554166.6, -35006.28, 0.0, 9.998866, 10.0003 
6.948781e+2, 1.5498221e+2, -1538328.5, -1442938.5, -18222.088, 0.08962214, -0.18880583, -1439576.1, -18420.63, 0.0, 9.999046, 10.000307 
6.9489765e+2, 1.6498253e+2, -1431664.5, -1372201.1, -9808.49, 0.07754574, -0.1714662, -1370624.9, -47471.47, 0.0, 9.999241, 10.000026 
6.949169e+2, 1.7498258e+2, -1302467.4, -1258475.5, -6846.209, 0.02992601, -0.17006135, -1257434.6, -32280.434, 0.0, 9.999452, 10.000031 
6.9493634e+2, 1.8498254e+2, -1194340.3, -1181370.1, -23553.361, 0.009436888, -0.162859, -1163425.4, -36269.848, 0.0, 9.999632, 9.999802 
6.9495577e+2, 1.9498244e+2, -1073700.0, -1071877.0, -27703.018, 0.01454724, -0.1525326, -1045070.44, -15913.077, 0.0, 9.999784, 9.999806 
6.949749e+2, 2.0498225e+2, -985000.06, -1008134.5, -40502.88, 0.012236295, -0.13584046, -954445.06, -23284.676, 0.0, 9.999848, 9.999541 
6.949939e+2, 2.1498199e+2, -889976.44, -910889.56, -38756.637, 0.0030823015, -0.11552682, -860290.56, -27126.12, 0.0, 9.9998255, 9.999547 
6.950129e+2, 2.2498152e+2, -792175.75, -832591.7, -34545.92, -0.0038936236, -0.10693317, -772361.44, -37191.383, 0.0, 9.999908, 9.9993725 
6.9503206e+2, 2.3498084e+2, -666477.0, -720888.6, -32448.68, -0.008964202, -0.11275241, -651338.1, -14160.825, 0.0, 10.000096, 9.999375 
6.9505095e+2, 2.4498011e+2, -555784.1, -622774.0, -41392.695, -0.016935313, -0.11730425, -536031.9, 3152.1997, 0.0, 10.00021, 9.999321 
6.9506973e+2, 2.5497937e+2, -451826.8, -521032.28, -37102.965, -0.027862385, -0.122514024, -435695.16, 5495.0796, 0.0, 10.000247, 9.999329 
6.950885e+2, 2.649786e+2, -375079.4, -489364.06, -31192.158, -0.03285307, -0.10767222, -367120.3, -23922.066, 0.0, 10.000343, 9.998827 
6.9510734e+2, 2.7497768e+2, -253899.56, -379486.13, -24858.295, -0.030648286, -0.07981891, -249158.19, -3949.7314, 0.0, 10.0005, 9.998833 
6.951264e+2, 2.849762e+2, -152098.45, -302278.44, -15413.646, -0.022932017, -0.09709367, -150532.8, -3309.7676, 0.0, 10.000624, 9.9986315 
6.951455e+2, 2.9497433e+2, -43672.016, -203528.97, -15730.105, -0.0122165, -0.15103118, -42138.86, 7101.9424, 0.000000000021633938, 10.000713, 9.998593 
6.9516444e+2, 3.049735e+2, 1560.6469, -180564.28, 3.493168, -0.048864976, -0.07639556, 1560.6469, 1560.6469, 0.00000014519733, 10.000792, 9.998378 
6.9518447e+2, 3.1497103e+2, 108846.68, 25223.227, -14787.735, -0.0049868813, -0.16681501, 111384.67, 111384.67, 0.0000015881137, 10.000865, 9.999756 
7.048151e+2, 1.2496115e+2, -1828732.1, -1677086.1, -77532.28, 0.059724662, -0.18261757, -1644463.9, 70898.72, 0.0, 9.998831, 10.000818 
7.048372e+2, 1.3496165e+2, -1735591.4, -1618323.0, 60487.625, 0.12799627, -0.18291968, -1592715.1, 24641.707, 0.0, 9.998937, 10.000508 
7.048573e+2, 1.4496174e+2, -1638967.1, -1552620.6, -11360.561, 0.063062824, -0.20606163, -1551151.0, -31795.123, 0.0, 9.999073, 10.000214 
7.048773e+2, 1.5496214e+2, -1510014.4, -1438824.0, -16945.416, 0.09456167, -0.18879342, -1434996.4, -13643.51, 0.0, 9.999283, 10.00022 
7.04897e+2, 1.6496238e+2, -1406790.6, -1361926.4, -11526.074, 0.08134744, -0.17291827, -1359138.5, -35787.24, 0.0, 9.999419, 10.00001 
7.0491636e+2, 1.749625e+2, -1299376.9, -1258558.0, -15225.435, 0.028050145, -0.16179198, -1253504.5, -28153.342, 0.0, 9.99948, 10.000016 
7.0493585e+2, 1.8496248e+2, -1207857.0, -1194422.0, -33076.73, 0.004903803, -0.15085213, -1167387.6, -40034.742, 0.0, 9.999568, 9.999742 
7.0495546e+2, 1.949623e+2, -1092151.0, -1087400.8, -33175.305, 0.010382519, -0.14292891, -1056515.6, -27159.424, 0.0, 9.999687, 9.999746 
7.049747e+2, 2.0496215e+2, -979151.94, -991483.1, -43049.1, 0.010523614, -0.12657556, -941829.2, -10470.274, 0.0, 9.99983, 9.999664 
7.0499384e+2, 2.1496202e+2, -856435.75, -880892.9, -35012.7, 0.006243706, -0.10446891, -831577.56, 1783.2349, 0.0, 9.999996, 9.99967 
7.05013e+2, 2.249616e+2, -765598.7, -817891.9, -28053.367, 0.0008133841, -0.098985314, -753396.44, -18030.707, 0.0, 10.000083, 9.999389 
7.0503217e+2, 2.3496082e+2, -666643.94, -719127.5, -28676.625, -0.006411757, -0.1130485, -654014.4, -16640.613, 0.0, 10.000088, 9.999392 
7.050511e+2, 2.4496016e+2, -561209.06, -614970.2, -41036.38, -0.012713894, -0.11856933, -539033.0, 347.08594, 0.0, 10.000129, 9.9994135 
7.0507e+2, 2.5495958e+2, -451437.22, -510377.4, -38429.375, -0.01804511, -0.117427446, -432478.97, 8905.556, 0.0, 10.000205, 9.999422 
7.0508885e+2, 2.6495883e+2, -376547.7, -479792.88, -33876.28, -0.022295749, -0.10697652, -366424.88, -23033.14, 0.0, 10.00029, 9.998919 
7.0510787e+2, 2.749579e+2, -264712.9, -374415.25, -33682.06, -0.024345202, -0.093644075, -255196.9, -9794.841, 0.0, 10.000381, 9.998924 
7.0512694e+2, 2.8495649e+2, -174061.7, -311730.4, -27376.838, -0.018763024, -0.10866891, -168817.33, -21401.31, 0.0, 10.000468, 9.998641 
7.051462e+2, 2.9495478e+2, -66469.58, -213548.28, -25544.594, -0.007747444, -0.14507529, -62159.313, -12726.727, 0.0, 10.000553, 9.998601 
7.0516527e+2, 3.0495387e+2, -14676.79, -198528.64, -1830.345, -0.042229805, -0.0726033, -14658.569, -14658.569, 0.00000008201181, 10.000725, 9.998287 
7.051854e+2, 3.149514e+2, 130554.77, 42991.83, -9290.438, 0.0009978688, -0.15464981, 131529.64, 131529.64, 0.0000012936833, 10.000983, 9.999822 
7.148138e+2, 1.24941304e+2, -1848452.8, -1718400.0, -75053.664, 0.053569503, -0.194959, -1684121.4, 31435.295, 0.0, 9.998833, 10.000534 
7.148359e+2, 1.349419e+2, -1752967.4, -1655482.9, 64184.24, 0.10569334, -0.15911478, -1623631.0, -6079.6484, 0.0, 9.99894, 10.000252 
7.148563e+2, 1.4494187e+2, -1640044.5, -1556051.0, -3651.397, 0.055797186, -0.18241815, -1555892.5, -36340.6, 0.0, 9.999078, 10.000188 
7.148767e+2, 1.5494192e+2, -1511147.9, -1442012.4, -8864.994, 0.10763566, -0.19685313, -1440893.8, -19342.438, 0.0, 9.999286, 10.000197 
7.1489656e+2, 1.6494204e+2, -1413912.3, -1377326.9, -9198.758, 0.09701911, -0.18563873, -1375144.3, -51593.684, 0.0, 9.999422, 9.999903 
7.149158e+2, 1.7494228e+2, -1306668.6, -1274109.6, -13027.888, 0.027421031, -0.15153852, -1269538.5, -43988.855, 0.0, 9.999482, 9.999909 
7.149353e+2, 1.8494228e+2, -1208251.8, -1195503.5, -28766.928, -0.0052640657, -0.13403627, -1172413.0, -44861.188, 0.0, 9.999569, 9.999735 
7.14955e+2, 1.9494198e+2, -1092543.5, -1088367.3, -28790.84, -0.0018230659, -0.13619232, -1061588.9, -32031.97, 0.0, 9.999687, 9.99974 
7.1497446e+2, 2.0494191e+2, -964584.2, -961530.94, -36945.9, 0.0066613373, -0.12125825, -926080.1, 5478.3774, 0.0, 9.99983, 9.99987 
7.1499395e+2, 2.1494208e+2, -841774.2, -850872.6, -28857.467, 0.021244112, -0.09165101, -817109.56, 16446.908, 0.0, 9.999997, 9.999876 
7.1501327e+2, 2.2494172e+2, -766705.5, -820606.25, -27974.506, 0.018277436, -0.08819407, -754811.4, -19251.182, 0.0, 10.000084, 9.99937 
7.150323e+2, 2.3494081e+2, -667802.0, -721889.1, -28523.0, -0.002849428, -0.114741266, -655540.1, -17970.227, 0.0, 10.000089, 9.9993725 
7.150513e+2, 2.4494009e+2, -556083.1, -604566.6, -38280.7, -0.012764811, -0.12659326, -535014.0, 4562.61, 0.0, 10.000129, 9.999485 
7.1507025e+2, 2.5493962e+2, -446457.9, -500229.53, -35681.75, -0.011386391, -0.12513049, -428666.72, 12913.435, 0.0, 10.000206, 9.999492 
7.1508926e+2, 2.649389e+2, -375761.75, -478232.5, -30510.83, -0.014005041, -0.1144279, -367365.13, -23778.352, 0.0, 10.00029, 9.998929 
7.151082e+2, 2.7493796e+2, -263985.0, -372724.88, -30261.521, -0.019761307, -0.09995531, -256130.73, -10533.97, 0.0, 10.0003805, 9.998937 
7.1512747e+2, 2.849366e+2, -171513.69, -306303.72, -24316.965, -0.013394592, -0.113843925, -167260.92, -19650.34, 0.0, 10.000467, 9.998679 
7.151468e+2, 2.949349e+2, -64048.055, -208636.66, -22510.803, 0.0030517054, -0.15160519, -60624.44, -10996.899, 0.0, 10.000553, 9.998634 
7.151661e+2, 3.0493405e+2, -13805.802, -196867.81, 7909.529, -0.031295296, -0.080585755, -13464.691, -13464.691, 0.00000004119849, 10.000725, 9.998299 
7.151864e+2, 3.1493196e+2, 140690.61, 64359.074, 279.0544, 0.0018312873, -0.123908274, 140691.63, 140691.63, 0.0000010048329, 10.000981, 9.9999695 
7.248127e+2, 1.2492119e+2, -1830277.1, -1722527.9, -96153.664, 0.051728684, -0.19977887, -1666184.5, 49569.527, 0.0, 9.999013, 10.000418 
7.2483486e+2, 1.3492183e+2, -1715556.8, -1647188.8, 56978.016, 0.09432767, -0.1511046, -1614927.0, 2821.8572, 0.0, 9.99924, 10.000164 
7.248555e+2, 1.4492173e+2, -1596503.9, -1540919.4, -4864.5493, 0.052424334, -0.17293589, -1540496.9, -20746.838, 0.0, 9.999403, 10.000134 
7.2487605e+2, 1.5492167e+2, -1478145.6, -1431993.9, -12204.079, 0.10284781, -0.19288225, -1428965.4, -7215.4316, 0.0, 9.999538, 10.000144 
7.24896e+2, 1.6492172e+2, -1393493.5, -1372942.1, -17608.564, 0.0917501, -0.18578106, -1362830.3, -39080.27, 0.0, 9.999587, 9.999853 
7.2491527e+2, 1.7492187e+2, -1300460.9, -1276750.0, -17331.996, 0.023093943, -0.15430576, -1267606.6, -41856.58, 0.0, 9.99955, 9.999858 
7.249348e+2, 1.8492188e+2, -1203112.9, -1191154.0, -25733.162, -0.007556583, -0.13250108, -1170714.8, -42962.484, 0.0, 9.999597, 9.99975 
7.2495466e+2, 1.9492172e+2, -1085142.6, -1082830.0, -23992.896, -0.0009975202, -0.123172164, -1059965.5, -30209.158, 0.0, 9.99973, 9.999757 
7.249744e+2, 2.0492171e+2, -956710.6, -949078.9, -35755.758, 0.0086201085, -0.107271075, -916935.94, 14821.356, 0.0, 9.999847, 9.999947 
7.2499394e+2, 2.1492186e+2, -843490.94, -842967.9, -37569.344, 0.02213119, -0.08758096, -805659.1, 28095.72, 0.0, 9.9999485, 9.999954 
7.2501326e+2, 2.249215e+2, -776120.3, -822975.3, -44825.67, 0.019807044, -0.08781857, -748969.3, -13210.963, 0.0, 10.0000105, 9.999389 
7.250323e+2, 2.3492064e+2, -674696.94, -722992.3, -42638.164, 0.0013178762, -0.11192891, -649843.4, -12075.5, 0.0, 10.000032, 9.999392 
7.250514e+2, 2.4491999e+2, -559544.1, -600824.6, -49461.54, -0.007934057, -0.1224148, -526589.0, 13185.25, 0.0, 10.000082, 9.999533 
7.250704e+2, 2.5491953e+2, -449775.7, -496357.9, -48689.24, -0.008075066, -0.12067798, -419093.5, 22683.709, 0.0, 10.00016, 9.99954 
7.2508955e+2, 2.6491886e+2, -380771.53, -473789.2, -42626.234, -0.009546959, -0.1127282, -364192.6, -20409.2, 0.0, 10.000226, 9.99899 
7.251086e+2, 2.7491793e+2, -273720.2, -370546.4, -38945.2, -0.011394291, -0.10359267, -259999.9, -14206.834, 0.0, 10.000285, 9.998998 
7.2512794e+2, 2.8491664e+2, -182612.3, -311759.63, -30900.188, -0.003428048, -0.11421155, -175599.8, -27793.385, 0.0, 10.000392, 9.998677 
7.251474e+2, 2.9491505e+2, -64325.594, -208975.53, -32061.934, 0.012227746, -0.14119713, -57537.55, -7714.6587, 0.0, 10.000552, 9.998632 
7.2516686e+2, 3.0491406e+2, -13232.728, -196238.92, 653.975, -0.024308909, -0.079818025, -13230.391, -13230.391, 0.000000018939705, 10.000728, 9.9983015 
7.251873e+2, 3.1491214e+2, 140666.98, 77101.59, -8376.742, 0.0009294086, -0.10633342, 141752.36, 141752.36, 0.0000007295325, 10.000928, 10.000082 
7.348117e+2, 1.2490081e+2, -1825688.1, -1713399.6, -89008.61, 0.051422562, -0.19617578, -1664307.4, 51647.234, 0.0, 9.999014, 10.000481 
7.348341e+2, 1.3490142e+2, -1708648.6, -1633729.0, 64964.24, 0.09453884, -0.15968516, -1596198.3, 21751.08, 0.0, 9.999243, 10.000256 
7.348549e+2, 1.4490135e+2, -1601739.9, -1552914.6, 24.801414, 0.053260297, -0.17875013, -1552914.6, -32964.652, 0.0, 9.999407, 10.00005 
7.348754e+2, 1.5490143e+2, -1483528.9, -1444351.0, -7110.489, 0.07880453, -0.1765974, -1443100.5, -21151.771, 0.0, 9.999543, 10.000056 
7.348953e+2, 1.6490139e+2, -1392675.5, -1372324.3, -19076.47, 0.063973844, -0.17268595, -1360879.1, -36929.69, 0.0, 9.999591, 9.999855 
7.349147e+2, 1.7490128e+2, -1299968.6, -1276276.9, -18788.137, 0.014686488, -0.17028113, -1265911.9, -39959.61, 0.0, 9.999552, 9.999861 
7.3493445e+2, 1.8490133e+2, -1200294.4, -1185577.4, -20842.19, -0.0019058578, -0.14675318, -1170832.9, -42878.797, 0.0, 9.999598, 9.999789 
7.3495454e+2, 1.9490154e+2, -1082247.6, -1077194.1, -19025.496, 0.012938529, -0.10394554, -1060528.4, -30573.813, 0.0, 9.999731, 9.999795 
7.3497427e+2, 2.0490155e+2, -960347.25, -957000.0, -32154.27, 0.016419541, -0.08443181, -926475.8, 5479.328, 0.0, 9.999848, 9.999892 
7.349937e+2, 2.1490136e+2, -847163.1, -850948.9, -33924.313, 0.008782218, -0.092225, -815078.94, 18877.016, 0.0, 9.999949, 9.999899 
7.350131e+2, 2.2490096e+2, -772035.4, -814935.7, -44055.47, 0.00519547, -0.09797777, -744485.6, -8525.525, 0.0, 10.000012, 9.999444 
7.3503244e+2, 2.3490031e+2, -670624.4, -714911.9, -41871.773, 0.005840705, -0.1047549, -645401.56, -7433.882, 0.0, 10.000033, 9.999447 
7.350516e+2, 2.4489978e+2, -557836.1, -597480.6, -46607.418, 0.0015414192, -0.106272146, -527010.9, 12962.072, 0.0, 10.000083, 9.999557 
7.3507065e+2, 2.5489935e+2, -448034.78, -492756.3, -45826.64, -0.008110086, -0.10454216, -419404.53, 22571.166, 0.0, 10.000159, 9.999565 
7.350897e+2, 2.648987e+2, -373400.97, -458448.7, -40604.36, -0.009007436, -0.10223273, -357128.63, -13147.037, 0.0, 10.000226, 9.999096 
7.3510903e+2, 2.7489775e+2, -266574.4, -355585.44, -36974.887, 0.00014090295, -0.10424252, -253219.02, -7228.119, 0.0, 10.000283, 9.999102 
7.3512846e+2, 2.8489655e+2, -185432.33, -317437.25, -24995.373, 0.010559331, -0.10976613, -180857.92, -32854.47, 0.0, 10.00039, 9.998639 
7.35148e+2, 2.9489514e+2, -66806.9, -214208.3, -26055.8, 0.020008631, -0.11550014, -62336.645, -12317.908, 0.0, 10.000552, 9.998597 
7.351676e+2, 3.0489397e+2, -14095.491, -198230.69, 7930.9204, -0.021157268, -0.07110739, -13754.528, -13754.528, 0.0000000073965225, 10.000728, 9.998288 
7.351882e+2, 3.14892e+2, 145120.52, 86753.54, -1240.5374, -0.0036607592, -0.10135506, 145146.88, 145146.88, 0.0000004773962, 10.000925, 10.000151 
7.448107e+2, 1.2488031e+2, -1813573.4, -1706758.3, -86101.35, 0.052116435, -0.19278331, -1658845.5, 57310.805, 0.0, 9.999094, 10.000487 
7.448333e+2, 1.34881e+2, -1670510.0, -1611536.0, 63156.92, 0.08292064, -0.14983876, -1571321.6, 46828.22, 0.0, 9.999489, 10.000289 
7.4485433e+2, 1.4488097e+2, -1569026.5, -1538236.9, -10994.441, 0.044907674, -0.16863559, -1534714.0, -14563.821, 0.0, 9.999637, 10.00004 
7.448748e+2, 1.5488099e+2, -1479356.4, -1443653.1, -12331.6, 0.06544169, -0.17026474, -1439808.0, -17658.771, 0.0, 9.9995775, 10.000045 
7.448948e+2, 1.648809e+2, -1391155.8, -1378491.6, -22874.559, 0.052809782, -0.16917348, -1361088.9, -36938.223, 0.0, 9.999631, 9.999793 
7.4491435e+2, 1.748807e+2, -1267747.4, -1267963.6, -27773.299, 0.013578817, -0.16829263, -1240082.0, -13927.236, 0.0, 9.9998045, 9.999796 
7.4493426e+2, 1.8488075e+2, -1154336.6, -1155868.5, -31761.564, 0.0033930691, -0.14227296, -1123331.9, 4824.297, 0.0, 9.999881, 9.999856 
7.4495435e+2, 1.948811e+2, -1059357.8, -1058600.6, -27807.775, 0.020821402, -0.09289304, -1031168.8, -1014.09845, 0.0, 9.999856, 9.999863 
7.4497414e+2, 2.0488109e+2, -961998.5, -964066.44, -39355.754, 0.021734897, -0.07815736, -923663.1, 8492.422, 0.0, 9.999865, 9.999836 
7.4499357e+2, 2.1488066e+2, -857329.75, -862164.6, -41419.355, 0.0061613596, -0.10296643, -818257.3, 15901.397, 0.0, 9.9999075, 9.999842 
7.45013e+2, 2.2488025e+2, -778120.0, -812888.7, -53652.87, -0.0003006406, -0.108732745, -739105.4, -2942.207, 0.0, 9.999949, 9.999488 
7.4503237e+2, 2.3487985e+2, -674077.8, -711622.06, -52543.848, 0.0024744372, -0.09717434, -637053.44, 1115.3123, 0.0, 9.9999895, 9.999491 
7.450516e+2, 2.4487942e+2, -561714.0, -594815.9, -55817.965, 0.002730182, -0.09146935, -520044.84, 20128.229, 0.0, 10.000037, 9.999596 
7.450708e+2, 2.5487897e+2, -454594.0, -491277.5, -53939.008, 0.0004318855, -0.09476701, -415963.5, 26212.45, 0.0, 10.000095, 9.999606 
7.4509e+2, 2.648783e+2, -383523.03, -459809.2, -51676.273, 0.001777034, -0.097553834, -357437.38, -13255.407, 0.0, 10.000141, 9.999127 
7.451093e+2, 2.7487734e+2, -279648.88, -358523.72, -53685.84, 0.007671888, -0.10399236, -252471.89, -6280.575, 0.0, 10.00018, 9.999131 
7.451289e+2, 2.8487623e+2, -194772.45, -319766.22, -36573.875, 0.018559799, -0.10558069, -184857.27, -36654.06, 0.0, 10.000318, 9.998658 
7.4514866e+2, 2.948749e+2, -64343.15, -210858.7, -33744.195, 0.03258787, -0.10046843, -56945.04, -6727.748, 0.0, 10.000561, 9.998615 
7.451684e+2, 3.0487356e+2, -20530.506, -209236.27, -2421.0293, -0.01172844, -0.0723585, -20499.451, -20499.451, 0.0000000015345106, 10.000718, 9.998217 
7.4518895e+2, 3.1487164e+2, 125763.28, 75910.18, -15952.612, -0.009887197, -0.08993745, 130430.97, 130430.97, 0.00000026410652, 10.000799, 10.000136 
7.548098e+2, 1.24859706e+2, -1817968.3, -1715398.1, -71467.94, 0.051035002, -0.19015309, -1678718.3, 37640.566, 0.0, 9.999091, 10.000429 
7.548325e+2, 1.3486063e+2, -1672252.9, -1615926.5, 77331.04, 0.057997614, -0.12054745, -1561789.9, 56560.375, 0.0, 9.999492, 10.0002575 
7.548537e+2, 1.448606e+2, -1563780.4, -1528516.9, -13715.462, 0.02607272, -0.14158732, -1523810.5, -3459.9382, 0.0, 9.999641, 10.000105 
7.548743e+2, 1.5486036e+2, -1474440.6, -1434022.6, -14775.862, 0.06303787, -0.17403561, -1429197.0, -6845.585, 0.0, 9.999579, 10.00011 
7.5489444e+2, 1.6486022e+2, -1400135.3, -1397679.5, -16485.668, 0.058949508, -0.17570123, -1382376.0, -58022.42, 0.0, 9.999633, 9.999661 
7.549142e+2, 1.7486015e+2, -1276811.6, -1287631.1, -21282.06, 0.019822912, -0.1480113, -1260262.5, -33905.344, 0.0, 9.999807, 9.99966 
7.5493413e+2, 1.8486023e+2, -1147364.6, -1142181.9, -32839.8, 0.008052526, -0.11852552, -1111831.4, 16527.004, 0.0, 9.999883, 9.999949 
7.549542e+2, 1.9486046e+2, -1052451.9, -1044776.25, -28922.145, 0.022398062, -0.09008064, -1019438.4, 10918.549, 0.0, 9.999858, 9.999957 
7.54974e+2, 2.0486031e+2, -966071.56, -972907.3, -37972.316, 0.024343863, -0.08873456, -931363.6, 994.86804, 0.0, 9.999866, 9.999775 
7.549936e+2, 2.1485977e+2, -861433.4, -871106.0, -39972.85, 0.014103147, -0.119902715, -826005.3, 8357.828, 0.0, 9.999908, 9.999781 
7.55013e+2, 2.248594e+2, -775788.25, -808375.5, -52206.67, 0.0031998164, -0.12004973, -737391.7, -1024.2404, 0.0, 9.99995, 9.999518 
7.5503224e+2, 2.3485923e+2, -671873.2, -707352.5, -51104.277, -0.008780683, -0.089270286, -635517.2, 2853.9475, 0.0, 9.99999, 9.99952 
7.5505155e+2, 2.4485889e+2, -557824.1, -586961.75, -53742.867, -0.004494731, -0.077984564, -516710.38, 23664.28, 0.0, 10.000038, 9.99965 
7.5507104e+2, 2.548584e+2, -450833.72, -483438.4, -51953.883, 0.017026301, -0.09081796, -412684.5, 29693.475, 0.0, 10.000094, 9.9996605 
7.5509036e+2, 2.648577e+2, -386554.75, -466095.44, -50402.79, 0.022305373, -0.09824406, -362121.34, -17736.889, 0.0, 10.000141, 9.999084 
7.551095e+2, 2.7485672e+2, -282339.6, -364568.72, -52281.934, 0.011185676, -0.10342595, -256942.45, -10548.147, 0.0, 10.000181, 9.999089 
7.551292e+2, 2.8485563e+2, -189892.2, -309900.22, -27774.66, 0.02047924, -0.101878405, -183775.77, -35370.145, 0.0, 10.000319, 9.998726 
7.551494e+2, 2.948544e+2, -60220.273, -201647.16, -24933.088, 0.04907531, -0.09418244, -55953.387, -5535.004, 0.0, 10.000557, 9.998681 
7.551693e+2, 3.0485287e+2, -29445.865, -227497.67, 451.62915, 0.0029682969, -0.08180374, -29444.836, -29444.836, 0.00000000001992495, 10.000716, 9.998093 
7.5518966e+2, 3.1485108e+2, 120241.26, 63197.02, -12906.462, -0.019063162, -0.07454549, 123025.49, 123025.49, 0.000000109993245, 10.000804, 10.000047 
7.6480895e+2, 1.2483904e+2, -1772347.1, -1700657.4, -69179.875, 0.038344495, -0.18444987, -1658587.5, 57973.848, 0.0, 9.999436, 10.000363 
7.648319e+2, 1.3483985e+2, -1679392.1, -1623810.3, 77857.1, 0.054239567, -0.123897664, -1568932.8, 49621.254, 0.0, 9.999462, 10.0002165 
7.6485336e+2, 1.4483975e+2, -1575700.0, -1535574.9, -20863.717, 0.029617552, -0.14605774, -1526692.6, -6137.829, 0.0, 9.999565, 10.0000925 
7.6487386e+2, 1.548396e+2, -1442760.3, -1420149.3, -27728.95, 0.051134665, -0.16953203, -1401509.6, 21045.582, 0.0, 9.999804, 10.000097 
7.6489407e+2, 1.6483948e+2, -1360997.8, -1381875.5, -28950.467, 0.04904854, -0.16793853, -1340661.8, -16104.353, 0.0, 9.999915, 9.999634 
7.6491416e+2, 1.7483935e+2, -1265899.3, -1285466.3, -25733.03, 0.03040158, -0.14301682, -1248152.6, -21591.252, 0.0, 9.999896, 9.999632 
7.649341e+2, 1.8483938e+2, -1140797.9, -1137337.9, -38022.754, 0.019766696, -0.116242915, -1101005.8, 27556.92, 0.0, 9.999921, 9.999964 
7.6495403e+2, 1.948396e+2, -1031458.9, -1032894.8, -40204.44, 0.01470446, -0.09032155, -991966.0, 38595.117, 0.0, 9.999994, 9.999972 
7.649738e+2, 2.0483942e+2, -946306.44, -968463.94, -52240.84, 0.012779571, -0.09163152, -903982.5, 28580.47, 0.0, 10.000024, 9.999729 
7.6499355e+2, 2.148388e+2, -851160.1, -871424.5, -53376.42, 0.0153440405, -0.12575793, -806962.75, 27605.926, 0.0, 10.000003, 9.999733 
7.65013e+2, 2.2483844e+2, -765016.7, -796859.9, -63748.125, 0.010444413, -0.1245433, -715232.0, 21340.834, 0.0, 9.999997, 9.999575 
7.650323e+2, 2.3483838e+2, -664994.44, -697706.06, -60914.785, -0.0027490044, -0.08764947, -618277.9, 20297.447, 0.0, 10.0000105, 9.999576 
7.6505166e+2, 2.448381e+2, -564801.56, -593046.5, -65926.97, 0.0007045865, -0.07227149, -511501.4, 29077.041, 0.0, 10.000002, 9.999625 
7.650711e+2, 2.5483763e+2, -470324.3, -495664.56, -70306.555, 0.021619357, -0.083300866, -411555.34, 31026.916, 0.0, 9.999973, 9.999635 
7.6509047e+2, 2.6483688e+2, -395438.9, -469897.38, -65169.7, 0.026371073, -0.092210844, -357614.13, -13024.929, 0.0, 10.000078, 9.999088 
7.651098e+2, 2.7483585e+2, -261008.61, -354042.28, -63731.547, 0.014790286, -0.1021424, -228623.45, 17976.021, 0.0, 10.000327, 9.999091 
7.6512957e+2, 2.848348e+2, -169766.16, -295968.25, -40463.49, 0.024647001, -0.096088395, -157906.97, -9296.8955, 0.0, 10.000439, 9.998763 
7.651499e+2, 2.9483378e+2, -79312.93, -206588.66, -39863.113, 0.055044644, -0.075393, -67858.55, -17237.473, 0.0, 10.000408, 9.998718 
7.651699e+2, 3.0483207e+2, -55772.133, -250306.19, -9072.65, 0.009440709, -0.07968294, -55349.92, -55349.92, 0.0, 10.00058, 9.998001 
7.651905e+2, 3.1483027e+2, 138471.23, 61910.05, -20406.389, -0.017943684, -0.06093444, 143570.64, 143570.64, 0.000000028836135, 10.000973, 9.999956 
7.7480805e+2, 1.2481834e+2, -1777213.0, -1711852.4, -68235.92, 0.009815229, -0.17541465, -1668874.6, 47888.797, 0.0, 9.999441, 10.000285 
7.7483153e+2, 1.3481861e+2, -1683205.5, -1631542.9, 77702.06, 0.07254516, -0.1616394, -1575491.0, 43270.176, 0.0, 9.999461, 10.000164 
7.7485317e+2, 1.4481845e+2, -1582551.3, -1549742.1, -12414.406, 0.05673944, -0.18398398, -1545574.3, -24811.182, 0.0, 9.999564, 9.999996 
7.7487344e+2, 1.5481871e+2, -1449065.8, -1434189.3, -18863.361, 0.029151589, -0.15664695, -1421350.5, 1409.8541, 0.0, 9.999806, 9.999999 
7.748937e+2, 1.6481866e+2, -1354688.6, -1369938.3, -29927.168, 0.0220275, -0.1451755, -1331430.3, -6668.5474, 0.0, 9.999919, 9.999714 
7.749142e+2, 1.7481828e+2, -1259803.8, -1273412.4, -26650.533, 0.04515326, -0.153582, -1239102.6, -12335.372, 0.0, 9.999898, 9.999714 
7.749343e+2, 1.8481825e+2, -1145261.5, -1146973.0, -35408.375, 0.03869215, -0.13605702, -1110698.5, 18070.594, 0.0, 9.999922, 9.999898 
7.7495384e+2, 1.9481856e+2, -1036015.7, -1042797.1, -37586.96, -0.0024685143, -0.09381973, -1001666.8, 29100.309, 0.0, 9.999996, 9.999905 
7.749736e+2, 2.0481843e+2, -948438.7, -973302.6, -53166.125, -0.013383025, -0.08679512, -906270.4, 26498.639, 0.0, 10.000025, 9.999696 
7.749935e+2, 2.1481776e+2, -853434.06, -876543.25, -54349.855, 0.009616749, -0.120599136, -809424.1, 25351.002, 0.0, 10.000004, 9.999698 
7.7501315e+2, 2.248174e+2, -759491.25, -785751.75, -63426.813, 0.021185087, -0.12226389, -707849.9, 28929.443, 0.0, 9.999998, 9.999651 
7.7503246e+2, 2.3481734e+2, -659246.3, -686062.3, -60512.453, 0.020168982, -0.092081085, -610674.25, 28107.023, 0.0, 10.000011, 9.999656 
7.750518e+2, 2.448171e+2, -571939.3, -608156.1, -67106.5, 0.018072765, -0.074154705, -520540.9, 20243.5, 0.0, 10.000003, 9.999521 
7.7507097e+2, 2.5481662e+2, -477504.63, -511100.66, -71467.086, 0.014320989, -0.072662175, -420887.94, 21900.846, 0.0, 9.999975, 9.999528 
7.750904e+2, 2.6481587e+2, -392181.84, -463445.75, -56156.348, 0.014050318, -0.07977697, -361306.88, -16510.725, 0.0, 10.000079, 9.999132 
7.751101e+2, 2.7481478e+2, -258312.17, -348057.8, -54549.7, 0.018226752, -0.09913851, -232550.44, 14256.251, 0.0, 10.000324, 9.999133 
7.751301e+2, 2.8481385e+2, -169415.31, -294977.63, -41706.656, 0.030723957, -0.087395556, -156824.6, -8008.154, 0.0, 10.000437, 9.998772 
7.7515024e+2, 2.94813e+2, -77991.98, -204620.8, -41248.676, 0.05037217, -0.045513574, -65740.734, -14915.297, 0.0, 10.00041, 9.998731 
7.7517045e+2, 3.048111e+2, -60321.035, -260074.33, 5198.175, 0.007260004, -0.06712343, -60185.85, -60185.85, 0.0, 10.00058, 9.997934 
7.751916e+2, 3.1480923e+2, 130527.055, 47654.508, -5707.0625, -0.008747444, -0.04963102, 130918.23, 130918.23, 0.0000000029769756, 10.000962, 9.999864 
7.848077e+2, 1.2479736e+2, -1747050.9, -1713525.8, -65344.582, 0.016339757, -0.19290149, -1662828.0, 54139.69, 0.0, 9.999718, 10.00014 
7.8483105e+2, 1.3479759e+2, -1644766.8, -1626351.3, 73692.48, 0.06722931, -0.17246222, -1561293.6, 57672.953, 0.0, 9.999783, 10.000045 
7.848528e+2, 1.4479737e+2, -1547886.4, -1545200.6, -13777.434, 0.052977957, -0.18946071, -1532700.8, -11731.23, 0.0, 9.999855, 9.999887 
7.8487325e+2, 1.5479757e+2, -1429994.0, -1437183.0, -20727.39, 0.023376279, -0.15774262, -1412551.8, 10416.3, 0.0, 9.99999, 9.99989 
7.8489363e+2, 1.647975e+2, -1332674.6, -1350657.4, -40871.47, 0.015709981, -0.14506286, -1299817.1, 25152.111, 0.0, 10.000033, 9.999791 
7.849141e+2, 1.7479718e+2, -1242910.1, -1256369.4, -37938.293, 0.040187012, -0.15510304, -1211109.3, 15864.351, 0.0, 9.999975, 9.999794 
7.8493416e+2, 1.8479711e+2, -1145758.9, -1159059.4, -44477.176, 0.035283778, -0.14008676, -1107437.6, 21538.145, 0.0, 9.99997, 9.999791 
7.849538e+2, 1.9479728e+2, -1039590.06, -1056768.4, -49944.973, -0.004190801, -0.10131953, -997501.1, 33474.62, 0.0, 10.000025, 9.999795 
7.8497356e+2, 2.0479712e+2, -942324.1, -965840.06, -67392.98, -0.016569214, -0.09087929, -885671.1, 47306.805, 0.0, 10.000049, 9.999735 
7.849934e+2, 2.1479663e+2, -845518.44, -867999.75, -63048.008, 0.0015722825, -0.11356618, -792716.94, 42265.57, 0.0, 10.000038, 9.999739 
7.850131e+2, 2.247963e+2, -756571.4, -785616.7, -72026.234, 0.015718501, -0.11283864, -697618.3, 39367.89, 0.0, 10.000025, 9.999639 
7.850325e+2, 2.3479615e+2, -660643.5, -688025.3, -76273.38, 0.025283495, -0.08993598, -596842.0, 42146.953, 0.0, 10.000009, 9.999643 
7.850519e+2, 2.4479584e+2, -569429.1, -613304.4, -83307.41, 0.024559816, -0.074454196, -505219.3, 35773.477, 0.0, 10.000048, 9.999464 
7.8507096e+2, 2.5479534e+2, -456319.03, -507608.72, -84335.51, 0.012252537, -0.07013857, -393815.5, 49182.242, 0.0, 10.00015, 9.999468 
7.850905e+2, 2.647946e+2, -374280.56, -452688.22, -65478.742, 0.009862222, -0.07551941, -337166.6, 7838.6885, 0.0, 10.000193, 9.999151 
7.8511035e+2, 2.7479354e+2, -278542.3, -355746.53, -65714.39, 0.018883143, -0.09373376, -240930.89, 6084.6743, 0.0, 10.000177, 9.999151 
7.8513044e+2, 2.8479263e+2, -193153.34, -309211.97, -55021.25, 0.031097231, -0.076476894, -171215.55, -22190.54, 0.0, 10.000286, 9.998746 
7.8515065e+2, 2.9479188e+2, -62884.56, -200307.86, -57366.81, 0.045097735, -0.02564439, -42085.086, 8948.689, 0.0, 10.000527, 9.998705 
7.8517103e+2, 3.047898e+2, -47425.82, -240148.64, -4562.37, 0.004808523, -0.06459011, -47317.875, -47317.875, 0.0, 10.00061, 9.998056 
7.851923e+2, 3.1478816e+2, 73777.8, 29565.5, -1615.1272, -0.0040928824, -0.03758935, 73836.72, 73836.72, 0.0, 10.000533, 9.999946 
7.948078e+2, 1.2477611e+2, -1761545.0, -1744920.5, -61806.94, 0.05719281, -0.23934379, -1690869.4, 26304.754, 0.0, 9.9997225, 9.999923 
7.9483056e+2, 1.347768e+2, -1657606.1, -1654216.5, 75390.56, 0.036887474, -0.15453297, -1580501.6, 38668.184, 0.0, 9.999787, 9.999851 
7.948523e+2, 1.4477652e+2, -1555878.0, -1562969.1, -9513.086, 0.01612505, -0.16009453, -1549271.3, -28097.268, 0.0, 9.99986, 9.9997635 
7.948733e+2, 1.5477614e+2, -1438101.4, -1454747.4, -15838.528, 0.034088366, -0.17321949, -1428532.3, -5354.245, 0.0, 9.999992, 9.999769 
7.9489374e+2, 1.6477598e+2, -1327234.4, -1339977.3, -42954.855, 0.030957242, -0.16875663, -1290181.0, 34999.035, 0.0, 10.000035, 9.999864 
7.9491377e+2, 1.7477605e+2, -1237233.0, -1245121.6, -40215.176, 0.014891015, -0.14739102, -1200769.1, 26410.955, 0.0, 9.999977, 9.99987 
7.9493386e+2, 1.8477598e+2, -1156243.5, -1181158.9, -42731.87, 0.008505264, -0.12774466, -1124190.4, 4991.8735, 0.0, 9.999971, 9.9996395 
7.94954e+2, 1.9477576e+2, -1050433.8, -1079606.5, -48089.97, 0.009427049, -0.112841, -1014766.75, 16420.094, 0.0, 10.000026, 9.999638 
7.9497373e+2, 2.0477556e+2, -934339.8, -949671.2, -67955.38, 0.0034968646, -0.104074016, -873619.1, 59570.5, 0.0, 10.00005, 9.999846 
7.949933e+2, 2.1477541e+2, -837201.6, -851089.1, -63638.934, -0.008794058, -0.104739815, -780128.75, 55061.79, 0.0, 10.000039, 9.999855 
7.9501283e+2, 2.2477517e+2, -763572.75, -800493.4, -72769.125, -0.00606663, -0.09634181, -706958.94, 30234.492, 0.0, 10.000026, 9.9995365 
7.950324e+2, 2.3477483e+2, -667899.3, -703513.3, -76963.15, 0.012548808, -0.081414066, -606710.06, 32488.338, 0.0, 10.00001, 9.9995365 
7.950518e+2, 2.4477439e+2, -570400.44, -615728.5, -79648.36, 0.020019483, -0.07313154, -510254.3, 30949.262, 0.0, 10.00005, 9.999447 
7.950712e+2, 2.547738e+2, -457368.06, -510052.34, -80522.98, 0.015068167, -0.074985065, -398987.97, 44221.055, 0.0, 10.000151, 9.999451 
7.950907e+2, 2.6477304e+2, -374622.66, -453785.5, -66150.09, 0.0134249795, -0.07876587, -337116.3, 8100.1973, 0.0, 10.000194, 9.999144 
7.9511046e+2, 2.747721e+2, -278579.6, -356571.56, -66373.53, 0.016190488, -0.08659359, -240594.2, 6631.9243, 0.0, 10.000179, 9.999145 
7.951306e+2, 2.8477123e+2, -197295.23, -318080.56, -46218.684, 0.0251557, -0.06371237, -181638.97, -32403.22, 0.0, 10.000286, 9.998685 
7.951511e+2, 2.947704e+2, -68155.414, -210062.69, -48317.33, 0.039025422, -0.013700702, -53266.27, -2020.4553, 0.0, 10.000522, 9.998641 
7.9517156e+2, 3.047683e+2, -27535.25, -197788.44, -7407.2705, 0.0019527535, -0.07001845, -27213.588, -27213.588, 0.0, 10.000605, 9.99835 
7.9519284e+2, 3.147671e+2, 91034.87, 64956.797, -4662.744, -0.005381635, -0.027967237, 91843.49, 91843.49, 0.0, 10.000534, 10.000189 
8.048076e+2, 1.2475485e+2, -1784049.9, -1768614.8, -84673.836, 0.07182524, -0.2411169, -1691307.5, 26074.56, 0.0, 9.999623, 9.999808 
8.0483025e+2, 1.3475552e+2, -1625081.8, -1648583.3, 58309.88, 0.022451088, -0.14829466, -1577350.4, 42028.094, 0.0, 10.000054, 9.999762 
8.048521e+2, 1.447552e+2, -1512062.9, -1541501.3, -27927.664, 0.0018038589, -0.15400927, -1495212.9, 26170.176, 0.0, 10.000159, 9.999766 
8.048733e+2, 1.5475474e+2, -1443863.8, -1456914.9, -24484.475, 0.036901683, -0.17595637, -1425050.1, -1662.5626, 0.0, 9.99995, 9.999775 
8.0489373e+2, 1.6475457e+2, -1341137.4, -1348424.1, -45538.902, 0.034637142, -0.17312256, -1299096.4, 26293.404, 0.0, 9.999948, 9.999848 
8.049137e+2, 1.7475466e+2, -1209594.1, -1233662.6, -49970.992, 0.001427589, -0.14578915, -1170228.8, 57160.67, 0.0, 10.000175, 9.999853 
8.049338e+2, 1.847546e+2, -1120425.1, -1165729.6, -55942.87, -0.005670925, -0.12565729, -1082722.4, 46669.41, 0.0, 10.000226, 9.999622 
8.0495405e+2, 1.947543e+2, -1044327.4, -1078665.8, -50898.58, 0.012655714, -0.115765594, -1007780.2, 23616.865, 0.0, 10.000076, 9.9996195 
8.049739e+2, 2.047541e+2, -933862.9, -948093.7, -65624.29, 0.012013203, -0.107024625, -874969.4, 58430.58, 0.0, 10.000048, 9.999857 
8.0499333e+2, 2.14754e+2, -820011.1, -841315.6, -69309.11, -0.008396404, -0.10297837, -760540.44, 74859.81, 0.0, 10.000152, 9.999867 
8.050129e+2, 2.2475374e+2, -742325.5, -796070.6, -83175.2, -0.011648749, -0.09429869, -681789.56, 55613.754, 0.0, 10.000197, 9.999483 
8.050324e+2, 2.3475333e+2, -647233.5, -699667.1, -83786.37, 0.0033909006, -0.083168216, -585658.06, 53751.16, 0.0, 10.000178, 9.999481 
8.0505186e+2, 2.4475284e+2, -550478.1, -606045.06, -80740.06, 0.012503287, -0.07553449, -492874.94, 48539.785, 0.0, 10.000186, 9.999447 
8.050713e+2, 2.5475228e+2, -446315.38, -504445.22, -80436.57, 0.015087617, -0.07514946, -389853.63, 53566.25, 0.0, 10.000226, 9.999453 
8.050909e+2, 2.647515e+2, -369865.66, -459752.03, -69949.766, 0.013503869, -0.07743358, -331665.25, 13762.4795, 0.0, 10.000262, 9.999069 
8.051106e+2, 2.747505e+2, -266931.22, -359568.34, -75456.53, 0.007865998, -0.08417048, -224711.11, 22727.297, 0.0, 10.000297, 9.999067 
8.051308e+2, 2.8474966e+2, -194959.2, -313595.7, -52008.074, 0.017517278, -0.0552007, -175388.33, -25940.447, 0.0, 10.000288, 9.998714 
8.0515146e+2, 2.9474896e+2, -107566.336, -225166.16, -47199.727, 0.042231876, 0.0053404225, -90965.695, -39509.063, 0.0, 10.000235, 9.998674 
8.051721e+2, 3.0474675e+2, -62480.08, -204500.16, -9735.497, 0.0072386996, -0.0681694, -61815.816, -61815.816, 0.0, 10.000322, 9.99844 
8.051933e+2, 3.147456e+2, 95163.18, 67916.71, -22524.584, -0.01239837, -0.027095076, 107863.875, 107863.875, 0.0, 10.000559, 10.000196 
8.14807e+2, 1.2473364e+2, -1784692.3, -1769386.1, -67515.9, 0.05420484, -0.19355957, -1709090.9, 8500.581, 0.0, 9.99962, 9.9998045 
8.148303e+2, 1.347338e+2, -1623287.1, -1645605.3, 73711.9, 0.024305072, -0.15439531, -1559894.4, 59697.953, 0.0, 10.000057, 9.999781 
8.1485236e+2, 1.4473341e+2, -1501778.1, -1521484.0, -35813.37, 0.011196549, -0.17303021, -1474487.0, 47109.984, 0.0, 10.000164, 9.999902 
8.1487316e+2, 1.547334e+2, -1434020.1, -1436875.0, -32548.81, 0.031382658, -0.16524918, -1402867.4, 20729.275, 0.0, 9.999951, 9.999912 
8.148936e+2, 1.6473329e+2, -1348844.6, -1364523.1, -37413.785, 0.025935462, -0.15695803, -1318457.6, 7140.397, 0.0, 9.999948, 9.999738 
8.149138e+2, 1.7473307e+2, -1217370.4, -1250391.8, -41406.305, -0.00013988858, -0.15054089, -1189304.4, 38296.918, 0.0, 10.000177, 9.999738 
8.1493396e+2, 1.8473296e+2, -1111809.0, -1148577.3, -61362.008, -0.007038897, -0.13432382, -1066136.4, 63467.664, 0.0, 10.000228, 9.99974 
8.14954e+2, 1.9473292e+2, -1035495.9, -1060801.1, -56705.324, 0.005216219, -0.10998999, -990048.7, 41557.5, 0.0, 10.000078, 9.999742 
8.149739e+2, 2.0473276e+2, -940201.3, -961556.44, -62153.547, 0.008520673, -0.09957144, -887814.8, 45793.875, 0.0, 10.000049, 9.999765 
8.149936e+2, 2.1473244e+2, -826584.2, -855272.25, -65588.47, 0.0024997613, -0.108217545, -773789.56, 61822.0, 0.0, 10.000153, 9.999772 
8.150131e+2, 2.2473206e+2, -742610.56, -796996.2, -83969.78, -0.0011803504, -0.10655076, -681540.25, 56075.508, 0.0, 10.000198, 9.999477 
8.150325e+2, 2.3473163e+2, -647479.25, -700541.5, -84603.234, -0.0023341698, -0.09498465, -585344.7, 54276.74, 0.0, 10.000179, 9.9994755 
8.150519e+2, 2.447312e+2, -549396.3, -604102.9, -79434.766, 0.0018600174, -0.0816308, -492737.22, 48889.04, 0.0, 10.000187, 9.99946 
8.1507146e+2, 2.5473076e+2, -445076.88, -502202.4, -79075.36, 0.011975821, -0.070989564, -389563.8, 54066.543, 0.0, 10.000226, 9.999468 
8.1509113e+2, 2.6472995e+2, -379397.3, -479937.75, -68806.05, 0.009720058, -0.0716884, -344453.88, 1185.0438, 0.0, 10.000263, 9.998931 
8.151108e+2, 2.7472872e+2, -277082.0, -380894.66, -74055.26, -0.006006478, -0.08547361, -238553.55, 9098.722, 0.0, 10.000298, 9.998921 
8.15131e+2, 2.8472793e+2, -186836.9, -297197.53, -54011.61, 0.007923467, -0.05003543, -164802.44, -15141.093, 0.0, 10.000289, 9.998827 
8.151518e+2, 2.9472753e+2, -98188.62, -206901.73, -49289.832, 0.05303592, 0.030573858, -79168.59, -27502.152, 0.0, 10.000238, 9.998798 
8.151725e+2, 3.047252e+2, -69280.8, -219298.19, -1111.016, 0.019263718, -0.059990346, -69272.57, -69272.57, 0.0, 10.000324, 9.998338 
8.1519365e+2, 3.1472376e+2, 79564.27, 37267.7, -13476.553, -0.025321323, -0.03616332, 83493.22, 83493.22, 0.0000000016901937, 10.000551, 9.99999 
8.248067e+2, 1.2471212e+2, -1714654.1, -1731702.1, -55831.41, 0.04108814, -0.18315856, -1666699.8, 51103.215, 0.0, 10.000085, 9.999839 
8.248303e+2, 1.3471222e+2, -1652435.5, -1652981.0, 85682.94, 0.031636365, -0.15585843, -1567024.9, 52779.004, 0.0, 9.999829, 9.99984 
8.248524e+2, 1.4471182e+2, -1551803.8, -1547174.1, -28979.576, 0.022821138, -0.17758071, -1520417.1, 1391.3145, 0.0, 9.999828, 9.999887 
8.2487303e+2, 1.5471184e+2, -1405420.4, -1425110.3, -37408.203, 0.016326988, -0.16451682, -1376583.3, 47224.54, 0.0, 10.000157, 9.999893 
8.248935e+2, 1.647117e+2, -1304721.3, -1344057.9, -45334.535, 0.009200741, -0.15818533, -1274972.4, 50837.145, 0.0, 10.000255, 9.99973 
8.24914e+2, 1.7471138e+2, -1230543.3, -1257737.0, -41313.918, 0.0091728885, -0.16114432, -1200646.3, 27167.314, 0.0, 10.000092, 9.999728 
8.249342e+2, 1.8471129e+2, -1132853.6, -1156276.1, -61931.832, 0.005617343, -0.14280447, -1081535.5, 48280.535, 0.0, 10.000073, 9.999761 
8.2495403e+2, 1.9471143e+2, -1013613.56, -1047711.56, -65000.387, -0.004323474, -0.103920415, -963463.44, 68353.25, 0.0, 10.000218, 9.9997635 
8.249739e+2, 2.0471127e+2, -918409.94, -959393.1, -74111.5, -0.007269632, -0.09050016, -862009.25, 71810.1, 0.0, 10.000235, 9.99969 
8.2499367e+2, 2.1471077e+2, -839161.1, -869976.94, -76302.11, -0.0015167918, -0.10894131, -776726.8, 59097.477, 0.0, 10.000104, 9.999694 
8.250132e+2, 2.2471033e+2, -754713.9, -793451.2, -89142.945, -0.00056058547, -0.11261978, -682859.6, 54969.156, 0.0, 10.000075, 9.99956 
8.250326e+2, 2.3471e+2, -644054.2, -689139.3, -83020.11, -0.004935186, -0.101341315, -580570.56, 59262.23, 0.0, 10.000161, 9.999562 
8.250521e+2, 2.4470958e+2, -553328.9, -619535.8, -79372.55, -0.0046889116, -0.08564154, -500433.25, 41404.19, 0.0, 10.000218, 9.999339 
8.250716e+2, 2.5470906e+2, -451036.47, -519164.9, -89690.67, 0.0004052572, -0.07013811, -389159.1, 54684.055, 0.0, 10.000247, 9.999342 
8.2509124e+2, 2.647082e+2, -375996.5, -476187.47, -79322.51, 0.0007864996, -0.07050186, -332275.06, 13577.443, 0.0, 10.000278, 9.998949 
8.251111e+2, 2.7470693e+2, -273057.34, -376349.8, -72507.18, -0.0036486345, -0.08866732, -235683.22, 12182.472, 0.0, 10.000314, 9.998944 
8.251313e+2, 2.8470615e+2, -178794.75, -300627.78, -52980.938, 0.008994713, -0.051409714, -158978.36, -9103.776, 0.0, 10.000377, 9.998761 
8.25152e+2, 2.9470578e+2, -69995.7, -200557.73, -62098.258, 0.038859915, 0.03728684, -45177.86, 6701.682, 0.0, 10.0004635, 9.9987335 
8.251727e+2, 3.0470324e+2, -49446.297, -205361.97, -15671.484, 0.008175797, -0.06700337, -47886.72, -47886.72, 0.0, 10.000442, 9.998376 
8.251942e+2, 3.1470186e+2, 36844.348, 9086.959, -17471.662, -0.017533656, -0.046818834, 45278.813, 45278.813, 0.000000023716037, 10.00029, 9.999922 
8.348067e+2, 1.2469029e+2, -1708154.3, -1720616.9, -63614.605, 0.028319884, -0.21368088, -1650466.5, 67550.06, 0.0, 10.000093, 9.999911 
8.348303e+2, 1.3469082e+2, -1646059.5, -1639208.9, 75271.48, 0.04438924, -0.15221232, -1567284.9, 52727.742, 0.0, 9.999826, 9.999935 
8.3485234e+2, 1.4469047e+2, -1564600.9, -1572820.8, -17157.371, 0.03663205, -0.16630398, -1551068.0, -29051.277, 0.0, 9.999824, 9.999714 
8.348729e+2, 1.5469009e+2, -1417838.8, -1451551.4, -24749.102, -0.008888223, -0.17439155, -1404750.9, 19269.963, 0.0, 10.000159, 9.999711 
8.3489347e+2, 1.6468982e+2, -1297428.6, -1330106.8, -51166.277, -0.016259229, -0.17778786, -1260056.0, 65968.055, 0.0, 10.000258, 9.999825 
8.349143e+2, 1.7468962e+2, -1223350.9, -1243215.3, -47570.92, 0.029364994, -0.177714, -1184686.4, 43339.832, 0.0, 10.0000925, 9.999828 
8.3493453e+2, 1.8468964e+2, -1138281.3, -1167664.1, -56850.344, 0.032487415, -0.15102825, -1094254.8, 35772.887, 0.0, 10.000073, 9.999683 
8.349541e+2, 1.9468984e+2, -1019161.56, -1059622.8, -59709.06, -0.016049957, -0.097612016, -976348.94, 55679.457, 0.0, 10.000219, 9.999681 
8.349738e+2, 2.0468965e+2, -922372.9, -968211.0, -78959.53, -0.035671853, -0.079742156, -863073.4, 70958.46, 0.0, 10.0002365, 9.999629 
8.349936e+2, 2.1468902e+2, -843149.7, -878801.1, -81484.305, -0.02076165, -0.10515298, -777564.1, 58474.254, 0.0, 10.000106, 9.999633 
8.350133e+2, 2.2468859e+2, -742791.56, -769084.06, -86342.64, -0.010042791, -0.11266077, -668600.1, 69442.2, 0.0, 10.000076, 9.999727 
8.350327e+2, 2.3468842e+2, -631670.1, -663763.5, -79992.59, -0.0046339747, -0.10229576, -566130.6, 73912.64, 0.0, 10.000162, 9.999737 
8.350522e+2, 2.4468796e+2, -570999.8, -656585.7, -78389.85, -0.0073647606, -0.087463744, -524483.2, 17565.146, 0.0, 10.000219, 9.999084 
8.350716e+2, 2.546872e+2, -469692.97, -558303.1, -88553.04, -0.019662444, -0.07231453, -414979.97, 29078.186, 0.0, 10.000247, 9.999073 
8.3509135e+2, 2.6468623e+2, -364194.03, -452043.75, -77980.336, -0.013655258, -0.073638685, -318618.47, 27449.896, 0.0, 10.000279, 9.999115 
8.351115e+2, 2.746851e+2, -260265.06, -350306.88, -71201.66, 0.013604738, -0.09396788, -221044.89, 27033.89, 0.0, 10.000316, 9.999123 
8.3513176e+2, 2.846843e+2, -194954.38, -334573.44, -49593.72, 0.019904658, -0.059245322, -179131.52, -29043.836, 0.0, 10.000378, 9.998528 
8.3515203e+2, 2.9468367e+2, -87504.88, -236643.77, -58155.004, 0.0012209708, 0.026980486, -67508.98, -15413.207, 0.0, 10.000463, 9.9984865 
8.351728e+2, 3.0468097e+2, -38267.203, -181442.45, -20364.938, -0.024979506, -0.08791283, -35426.883, -35426.883, 0.0, 10.000438, 9.998543 
8.351947e+2, 3.1467977e+2, 40224.51, 17401.088, -22457.754, 0.007589114, -0.06269973, 54003.63, 54003.63, 0.00000010288848, 10.000284, 9.999983 
8.4480697e+2, 1.2466878e+2, -1690202.8, -1722392.1, -64895.56, 0.037970383, -0.21321854, -1639435.9, 78791.65, 0.0, 10.000262, 9.999818 
8.448302e+2, 1.3466918e+2, -1592682.5, -1621706.1, 57632.652, 0.041412268, -0.15660585, -1547762.8, 72461.7, 0.0, 10.00023, 9.999861 
8.4485227e+2, 1.4466877e+2, -1513365.0, -1553760.3, -24852.951, 0.03057572, -0.17079943, -1501537.4, 20691.82, 0.0, 10.0002, 9.999662 
8.44873e+2, 1.546684e+2, -1413019.4, -1454610.6, -21802.393, -0.018143948, -0.17325723, -1403685.3, 20548.406, 0.0, 10.0002165, 9.999662 
8.4489363e+2, 1.6466814e+2, -1304250.8, -1331673.5, -56132.29, -0.02558063, -0.1739551, -1260179.5, 66057.4, 0.0, 10.000205, 9.99984 
8.449144e+2, 1.7466795e+2, -1212674.0, -1235988.8, -59305.402, 0.023694145, -0.17504688, -1163891.1, 64347.668, 0.0, 10.000157, 9.999846 
8.449346e+2, 1.8466794e+2, -1129728.4, -1166290.1, -62679.402, 0.029719587, -0.14991592, -1082718.4, 47521.965, 0.0, 10.000144, 9.999659 
8.449543e+2, 1.9466808e+2, -1028026.1, -1066672.9, -61049.49, -0.016858416, -0.09806923, -983314.9, 48926.742, 0.0, 10.000171, 9.999657 
8.449739e+2, 2.0466793e+2, -930970.75, -969742.7, -81257.76, -0.03792886, -0.07855435, -866818.5, 67426.5, 0.0, 10.000167, 9.999652 
8.449936e+2, 2.1466736e+2, -838300.0, -873719.25, -77775.17, -0.028345147, -0.09881319, -776243.7, 60007.082, 0.0, 10.000128, 9.999657 
8.4501326e+2, 2.2466697e+2, -730781.1, -758868.75, -78107.3, -0.02045786, -0.107919455, -665465.1, 72789.125, 0.0, 10.00014, 9.999766 
8.450328e+2, 2.3466673e+2, -621641.2, -654382.25, -81820.76, -0.01519184, -0.10726601, -554569.3, 85685.81, 0.0, 10.000212, 9.999777 
8.4505236e+2, 2.4466623e+2, -572296.0, -668520.6, -82062.67, -0.015897708, -0.094615646, -525281.7, 16978.969, 0.0, 10.00026, 9.998982 
8.4507185e+2, 2.546654e+2, -472454.66, -571793.75, -80693.63, -0.023531293, -0.072514124, -427369.1, 16902.4, 0.0, 10.000281, 9.998963 
8.4509164e+2, 2.646644e+2, -361219.6, -454619.03, -70690.62, -0.016542053, -0.07152832, -323196.1, 23086.424, 0.0, 10.000318, 9.999078 
8.451118e+2, 2.7466324e+2, -255016.38, -351641.4, -79658.17, 0.007349695, -0.09498316, -210164.94, 38128.62, 0.0, 10.000369, 9.999086 
8.45132e+2, 2.846624e+2, -185972.31, -319451.84, -55123.176, 0.010230399, -0.06570679, -166151.34, -15849.025, 0.0, 10.000394, 9.998624 
8.451523e+2, 2.9466173e+2, -92262.96, -227466.92, -38918.207, -0.011502374, 0.012082296, -81860.74, -29551.268, 0.0, 10.000381, 9.998588 
8.4517306e+2, 3.0465916e+2, -62482.17, -191538.19, -2189.2993, -0.03195885, -0.10255376, -62445.043, -62445.043, 0.00000000024035085, 10.000266, 9.998555 
8.451948e+2, 3.1465825e+2, -6253.39, -17684.766, -17179.36, 0.011020493, -0.04697915, 6136.1553, 6136.1553, 0.00000026211356, 10.000021, 9.999867 
8.548075e+2, 1.24647655e+2, -1708957.3, -1762499.3, -63227.34, 0.06754539, -0.17909639, -1667066.9, 51368.27, 0.0, 10.000266, 9.999541 
8.5483027e+2, 1.3464732e+2, -1610340.6, -1659816.3, 55782.688, 0.021840027, -0.16961713, -1574056.5, 46382.688, 0.0, 10.000236, 9.999597 
8.5485226e+2, 1.4464673e+2, -1507023.6, -1542129.0, -25030.963, 0.0033210535, -0.19234133, -1494004.4, 28441.498, 0.0, 10.000206, 9.999741 
8.5487324e+2, 1.5464678e+2, -1406458.8, -1441749.1, -21340.408, -0.011307917, -0.16033733, -1396413.4, 28032.588, 0.0, 10.000218, 9.99975 
8.5489386e+2, 1.6464669e+2, -1308513.3, -1341016.5, -57802.082, -0.0183234, -0.14540805, -1264721.6, 61726.12, 0.0, 10.000206, 9.999775 
8.549142e+2, 1.7464638e+2, -1217122.3, -1245796.1, -61199.977, -0.008642265, -0.1525227, -1168602.3, 59848.832, 0.0, 10.000159, 9.999779 
8.549344e+2, 1.8464622e+2, -1127435.6, -1162006.1, -62022.07, -0.0038794624, -0.1390927, -1080335.3, 50118.77, 0.0, 10.000146, 9.999687 
8.5495454e+2, 1.9464624e+2, -1025704.56, -1062237.8, -60247.906, -0.0070327166, -0.105248734, -981015.0, 51441.164, 0.0, 10.000172, 9.999687 
8.549744e+2, 2.0464613e+2, -923357.4, -954389.1, -82872.586, -0.013925502, -0.08714331, -854560.7, 79897.945, 0.0, 10.000168, 9.999757 
8.5499376e+2, 2.1464585e+2, -830418.4, -857846.9, -79503.84, -0.02426291, -0.08996645, -763454.6, 73006.75, 0.0, 10.000129, 9.999765 
8.5501325e+2, 2.2464545e+2, -736949.75, -772053.7, -75807.05, -0.031925097, -0.09824012, -676689.25, 61775.316, 0.0, 10.000141, 9.999676 
8.550328e+2, 2.3464495e+2, -628076.25, -668114.25, -79203.05, -0.036685556, -0.11622554, -566401.44, 74066.92, 0.0, 10.000213, 9.999682 
8.550524e+2, 2.4464437e+2, -569367.5, -662647.8, -81279.46, -0.03056009, -0.10717434, -522297.16, 20177.244, 0.0, 10.00026, 9.999023 
8.550722e+2, 2.546437e+2, -469479.56, -565783.94, -79889.54, -0.011951322, -0.0709222, -424352.75, 20130.512, 0.0, 10.000281, 9.999005 
8.5509205e+2, 2.646427e+2, -377548.66, -488604.16, -68639.234, -0.008209477, -0.06441734, -344788.94, 1706.0972, 0.0, 10.000318, 9.998845 
8.551119e+2, 2.7464128e+2, -272059.5, -386982.47, -77149.24, -0.021423703, -0.09192015, -233324.16, 15185.773, 0.0, 10.000368, 9.998845 
8.5513216e+2, 2.8464037e+2, -158308.47, -261641.77, -54937.145, -0.01963074, -0.07085523, -134559.39, 15959.125, 0.0, 10.000392, 9.999022 
8.551528e+2, 2.9464e+2, -62984.29, -166041.92, -39006.18, -0.0016427143, -0.007339707, -49885.703, 2635.269, 0.0, 10.000378, 9.999012 
8.5517347e+2, 3.0463767e+2, -71912.125, -210784.38, -10562.181, -0.014736453, -0.11184578, -71113.4, -71113.4, 0.0000000059514194, 10.000264, 9.998425 
8.551946e+2, 3.1463715e+2, -26051.914, -58951.047, -25159.092, -0.00620301, -0.0056574033, -12442.071, -12442.071, 0.0000005093443, 10.00002, 9.999584 
8.6480784e+2, 1.2462616e+2, -1690748.1, -1758917.9, -78359.05, 0.07220368, -0.15370534, -1639381.8, 79265.3, 0.00000000000000000000885557, 10.000414, 9.999495 
8.6483043e+2, 1.3462558e+2, -1566613.8, -1641893.8, 55063.92, 0.004832068, -0.16715172, -1537554.4, 83098.65, 0.0, 10.00055, 9.999567 
8.6485237e+2, 1.4462489e+2, -1469325.5, -1525116.8, -26498.672, -0.010894129, -0.19619262, -1458745.9, 63914.418, 0.0, 10.00047, 9.999729 
8.648735e+2, 1.5462507e+2, -1415936.8, -1447367.6, -30498.223, -0.0017806655, -0.15186423, -1397343.1, 27316.56, 0.0, 10.000158, 9.999741 
8.648941e+2, 1.6462505e+2, -1326438.6, -1346396.4, -59748.957, -0.00828817, -0.12909204, -1275841.0, 50819.68, 0.0, 10.00007, 9.999804 
8.649142e+2, 1.746248e+2, -1202517.8, -1235028.3, -55310.08, -0.026033383, -0.13326415, -1161123.8, 67539.64, 0.0, 10.000243, 9.999811 
8.649343e+2, 1.8462458e+2, -1113592.3, -1156760.1, -59159.18, -0.02449058, -0.12660442, -1072202.5, 58464.023, 0.0, 10.000247, 9.999675 
8.6495465e+2, 1.9462442e+2, -1045250.2, -1073273.3, -61197.113, -0.0024368106, -0.11082687, -996481.06, 36189.156, 0.0, 10.000045, 9.999672 
8.649745e+2, 2.0462425e+2, -942625.56, -954716.44, -81519.33, -0.0031361834, -0.09976628, -866927.8, 67744.84, 0.0, 9.999997, 9.999837 
8.6499375e+2, 2.1462412e+2, -824376.06, -845423.9, -79901.15, -0.029688267, -0.09698799, -754308.75, 82364.89, 0.0, 10.00013, 9.99985 
8.6501324e+2, 2.2462378e+2, -735533.2, -777093.9, -77250.875, -0.042826887, -0.10173021, -676316.56, 62359.797, 0.0, 10.000176, 9.999624 
8.650329e+2, 2.3462322e+2, -645445.6, -682758.3, -78222.48, -0.040222418, -0.11832589, -583685.5, 56995.484, 0.0, 10.000121, 9.999625 
8.6505264e+2, 2.4462263e+2, -586135.4, -665366.3, -77391.0, -0.033225838, -0.11087534, -538809.75, 3877.5537, 0.0, 10.000123, 9.99907 
8.650723e+2, 2.5462198e+2, -479193.6, -564777.0, -75598.75, -0.021445796, -0.07978764, -435115.84, 9579.959, 0.0, 10.000192, 9.999055 
8.6509216e+2, 2.64621e+2, -388667.6, -492906.38, -56044.34, -0.021324867, -0.07179902, -364253.34, -17546.256, 0.0, 10.000237, 9.998853 
8.65112e+2, 2.7461967e+2, -288160.78, -393881.25, -46707.008, -0.034273587, -0.0901433, -270482.03, -21760.732, 0.0, 10.000256, 9.998851 
8.6513233e+2, 2.8461882e+2, -175969.64, -262106.9, -29376.074, -0.029438822, -0.068830706, -166905.16, -16175.661, 0.0, 10.0002365, 9.999092 
8.65153e+2, 2.9461843e+2, -87419.0, -169181.47, -38939.28, -0.0055903224, -0.0153660085, -71841.91, -19109.922, 0.0, 10.000174, 9.999087 
8.6517364e+2, 3.046162e+2, -81731.39, -195900.58, -17568.58, -0.016468942, -0.120244496, -79089.055, -79089.055, 0.000000027135602, 10.000113, 9.998599 
8.6519456e+2, 3.1461602e+2, -21244.418, -51216.99, -9119.565, -0.0137945125, 0.0027651656, -18687.748, -18687.748, 0.00000083365, 10.000031, 9.999632 
8.7480795e+2, 1.246043e+2, -1676522.1, -1730229.1, -71015.445, 0.046526816, -0.13797694, -1627452.6, 91410.51, 0.0000000055054987, 10.000416, 9.99969 
8.748308e+2, 1.3460398e+2, -1550475.4, -1609791.1, 59720.895, -0.010544335, -0.14805256, -1513453.6, 107411.77, 0.0, 10.000556, 9.999784 
8.7485284e+2, 1.4460331e+2, -1475784.5, -1540103.1, -37844.355, -0.012063808, -0.1810151, -1458280.9, 64591.27, 0.0, 10.000476, 9.999624 
8.7487376e+2, 1.5460327e+2, -1423901.3, -1464280.1, -42616.875, 0.010617087, -0.14791298, -1396933.4, 27940.98, 0.0, 10.000159, 9.999624 
8.7489426e+2, 1.6460325e+2, -1317616.0, -1328121.4, -54085.246, 0.0045337887, -0.12541978, -1268528.9, 58346.6, 0.0, 10.000069, 9.999929 
8.7491435e+2, 1.7460325e+2, -1192734.3, -1215327.9, -48713.598, -0.028392833, -0.117232494, -1154024.6, 74850.695, 0.0, 10.000245, 9.999946 
8.749345e+2, 1.8460308e+2, -1117127.6, -1164850.6, -66381.55, -0.032048844, -0.11228505, -1070449.1, 60428.703, 0.0, 10.00025, 9.999618 
8.749547e+2, 1.9460264e+2, -1049486.3, -1082525.9, -69125.89, -0.0032777423, -0.114735246, -994933.6, 37949.95, 0.0, 10.000046, 9.999609 
8.749745e+2, 2.0460235e+2, -938633.06, -946730.9, -77283.195, -0.00591731, -0.11633903, -865292.8, 69594.125, 0.0, 9.999998, 9.999891 
8.749938e+2, 2.146022e+2, -819941.2, -836693.9, -75130.29, -0.044875763, -0.11989109, -752721.75, 84165.77, 0.0, 10.000132, 9.99991 
8.750133e+2, 2.2460195e+2, -736628.94, -779774.3, -79264.555, -0.053516977, -0.11855908, -676053.9, 62835.613, 0.0, 10.000177, 9.999605 
8.7503314e+2, 2.3460159e+2, -646957.0, -686224.1, -80401.21, -0.026269948, -0.11380325, -583826.9, 57066.14, 0.0, 10.000122, 9.999601 
8.750528e+2, 2.4460103e+2, -582492.4, -657932.4, -75044.9, -0.024058143, -0.10576599, -536221.1, 6678.227, 0.0, 10.000122, 9.999122 
8.750722e+2, 2.546002e+2, -475393.03, -556926.1, -72900.26, -0.0514815, -0.09875695, -432635.0, 12274.122, 0.0, 10.000191, 9.999109 
8.75092e+2, 2.6459932e+2, -372315.7, -458818.6, -55215.93, -0.055580046, -0.0933542, -345428.06, 1490.6483, 0.0, 10.0002365, 9.999088 
8.751123e+2, 2.7459845e+2, -271643.16, -359030.2, -45923.38, -0.032363568, -0.08978432, -251948.34, -3020.4028, 0.0, 10.000252, 9.999092 
8.751326e+2, 2.845977e+2, -193370.11, -297497.63, -31432.572, -0.020307727, -0.060132556, -184617.4, -33681.777, 0.0, 10.000233, 9.998852 
8.75153e+2, 2.9459697e+2, -105650.586, -206613.53, -40572.855, -0.022430327, -0.012821091, -91366.82, -38424.184, 0.0, 10.000172, 9.998832 
8.751735e+2, 3.0459476e+2, -50202.945, -130365.34, -19769.932, -0.03605934, -0.127765, -45592.395, -45592.395, 0.00000006425192, 10.000112, 9.99905 
8.751946e+2, 3.1459484e+2, 3406.638, -73.69394, -11703.316, -0.014027375, -0.02371067, 13498.454, 13498.454, 0.0000011924308, 10.0000305, 9.999984 
8.8480836e+2, 1.245824e+2, -1618704.0, -1699317.8, -58139.49, 0.02450868, -0.14206396, -1588266.0, 130812.6, 0.00000006865042, 10.0008, 9.999718 
8.848313e+2, 1.3458231e+2, -1559243.0, -1609462.5, 55233.13, -0.011208339, -0.13218929, -1523679.9, 97398.625, 0.0, 10.000478, 9.999825 
8.8485324e+2, 1.445817e+2, -1499885.1, -1550640.5, -46811.867, -0.0035071285, -0.16210072, -1472014.6, 51070.0, 0.0, 10.000306, 9.999633 
8.84874e+2, 1.5458152e+2, -1395703.4, -1449811.9, -42221.555, 0.00803865, -0.14409834, -1372612.0, 52476.332, 0.0, 10.00035, 9.999632 
8.8489443e+2, 1.6458146e+2, -1281008.4, -1310226.8, -47340.973, 0.00016166337, -0.12429882, -1246073.6, 81016.086, 0.0, 10.0003195, 9.999931 
8.8491464e+2, 1.745816e+2, -1200822.4, -1219155.3, -52147.883, -0.022982774, -0.10457593, -1157041.5, 72047.17, 0.0, 10.00019, 9.999947 
8.8493466e+2, 1.8458146e+2, -1131787.3, -1164125.1, -75269.22, -0.029046107, -0.09934507, -1070969.9, 60120.656, 0.0, 10.000115, 9.999687 
8.849546e+2, 1.9458096e+2, -1035368.2, -1067505.5, -68110.88, -0.01759664, -0.11449316, -981456.2, 51639.957, 0.0, 10.000108, 9.999681 
8.849743e+2, 2.0458065e+2, -929802.94, -942608.4, -68402.38, -0.022364642, -0.12248326, -867504.25, 67595.125, 0.0, 10.00006, 9.999889 
8.849938e+2, 2.145805e+2, -845103.6, -849113.1, -71129.49, -0.045213778, -0.12528184, -775950.6, 61149.254, 0.0, 9.99996, 9.999907 
8.8501334e+2, 2.2458029e+2, -773462.9, -795972.3, -77881.21, -0.0488641, -0.12077543, -706027.4, 33074.293, 0.0, 9.999918, 9.999619 
8.8503313e+2, 2.3458001e+2, -671746.7, -696579.9, -76645.234, -0.030007366, -0.10963059, -606518.8, 34585.965, 0.0, 9.999946, 9.999615 
8.8505274e+2, 2.4457948e+2, -597705.9, -657345.6, -66588.62, -0.03185742, -0.10164135, -554565.0, -11454.335, 0.0, 9.999985, 9.999191 
8.8507223e+2, 2.5457865e+2, -492367.88, -556860.1, -63225.246, -0.058120538, -0.10236969, -453640.44, -8520.375, 0.0, 10.00004, 9.999182 
8.850921e+2, 2.645778e+2, -394498.13, -458449.84, -53076.094, -0.061437406, -0.10055271, -364510.06, -17381.15, 0.0, 10.000037, 9.999186 
8.851123e+2, 2.7457705e+2, -306223.9, -364471.88, -54529.47, -0.038168475, -0.095802665, -273528.22, -24391.365, 0.0, 9.999968, 9.999191 
8.851326e+2, 2.8457636e+2, -231098.61, -313312.34, -35382.92, -0.026653234, -0.06636647, -217967.8, -66823.86, 0.0, 9.999965, 9.998872 
8.85153e+2, 2.945757e+2, -125088.71, -213738.84, -24697.867, -0.029295258, -0.020477967, -118672.31, -65521.332, 0.0, 10.00003, 9.998851 
8.851735e+2, 3.0457345e+2, -52539.48, -119605.3, -7998.536, -0.040575583, -0.13864155, -51598.74, -51598.74, 0.00000010587227, 10.000045, 9.999155 
8.851946e+2, 3.1457356e+2, -2439.3965, -4361.191, -26666.188, -0.017369216, -0.04686133, 23283.201, 23283.201, 0.0000015115112, 9.999997, 9.99997 
8.948089e+2, 1.24560475e+2, -1628339.5, -1721868.0, -66954.72, 0.0022410539, -0.16770847, -1593434.8, 125858.31, 0.00000033535434, 10.00081, 9.999558 
8.948319e+2, 1.3456063e+2, -1569909.4, -1631756.4, 42124.203, 0.0039097494, -0.11960666, -1548576.8, 72715.15, 0.00000000007521531, 10.000478, 9.999672 
8.948538e+2, 1.445601e+2, -1491159.0, -1532459.8, -46128.043, 0.015718753, -0.13883172, -1461270.0, 62027.508, 0.0, 10.000305, 9.999759 
8.9487416e+2, 1.5455987e+2, -1385459.9, -1429484.1, -40488.07, -0.010731, -0.14024404, -1361387.1, 63913.96, 0.0, 10.000353, 9.99977 
8.948945e+2, 1.6455975e+2, -1289672.3, -1329243.0, -51997.1, -0.022869887, -0.12584169, -1253823.4, 73479.58, 0.0, 10.000323, 9.9998 
8.949149e+2, 1.7455986e+2, -1210567.9, -1239795.5, -57343.906, -0.009883623, -0.095401645, -1166004.9, 63298.016, 0.0, 10.000191, 9.9998045 
8.9493495e+2, 1.8455975e+2, -1117977.3, -1135760.0, -76036.46, -0.015302952, -0.087821394, -1050314.1, 80990.33, 0.0, 10.000116, 9.999882 
8.949544e+2, 1.945594e+2, -1020401.8, -1036964.3, -68665.76, -0.045675904, -0.11004196, -959519.75, 73787.97, 0.0, 10.00011, 9.999891 
8.9497405e+2, 2.0455916e+2, -933687.9, -951270.6, -72273.945, -0.052926354, -0.11813356, -869672.6, 65637.28, 0.0, 10.000062, 9.999829 
8.949939e+2, 2.1455903e+2, -849758.3, -859343.4, -75184.18, -0.031049885, -0.11314599, -779214.06, 58096.65, 0.0, 9.999962, 9.999836 
8.950135e+2, 2.245588e+2, -770254.44, -789753.06, -77267.336, -0.028977325, -0.108337454, -702123.8, 37188.996, 0.0, 9.99992, 9.999661 
8.950328e+2, 2.345585e+2, -668311.06, -689958.6, -75692.17, -0.051179327, -0.105754375, -602672.7, 38643.5, 0.0, 9.999947, 9.9996605 
8.9505243e+2, 2.44558e+2, -591461.25, -644784.7, -64680.42, -0.05672841, -0.09867783, -548162.94, -4841.5986, 0.0, 9.999986, 9.999278 
8.950724e+2, 2.5455734e+2, -486379.7, -544412.8, -61122.188, -0.04249698, -0.091208495, -447736.2, -2407.4036, 0.0, 10.000039, 9.999269 
8.950923e+2, 2.645565e+2, -397157.34, -463780.28, -55528.49, -0.03994547, -0.09376955, -365714.94, -18377.244, 0.0, 10.000035, 9.99915 
8.951121e+2, 2.745555e+2, -309086.13, -370447.72, -56948.52, -0.051220387, -0.107782684, -275079.66, -25731.627, 0.0, 9.999967, 9.999151 
8.9513236e+2, 2.8455484e+2, -212829.56, -275285.1, -32855.727, -0.04785391, -0.08678367, -198728.83, -47374.406, 0.0, 9.999963, 9.999134 
8.95153e+2, 2.9455444e+2, -106390.35, -173922.03, -22110.773, -0.027468022, -0.03775521, -99795.09, -46437.805, 0.0, 10.000024, 9.999127 
8.9517367e+2, 3.0455232e+2, -68695.96, -151907.13, -9339.42, -0.031531133, -0.15274148, -67660.61, -67660.61, 0.00000013409642, 10.000039, 9.998937 
8.951945e+2, 3.1455207e+2, -27710.346, -56370.066, -27440.854, -0.024340188, -0.0707537, -11083.053, -11083.053, 0.0000016978646, 9.999994, 9.999615 
9.048098e+2, 1.2453899e+2, -1599753.0, -1718014.3, -67026.12, -0.0020629142, -0.16035624, -1569502.8, 150001.28, 0.0000010631732, 10.001049, 9.99947 
9.0483254e+2, 1.3453893e+2, -1547830.8, -1630455.1, 42802.414, 0.010847111, -0.121975936, -1529655.6, 91849.37, 0.000000007369457, 10.00067, 9.999587 
9.048542e+2, 1.445384e+2, -1464848.5, -1515862.1, -31609.652, 0.022920407, -0.14097369, -1449738.0, 73772.95, 0.0, 10.00047, 9.999793 
9.0487444e+2, 1.5453835e+2, -1362937.8, -1414107.9, -32980.41, -0.017210612, -0.12753022, -1346781.9, 78730.7, 0.0, 10.000488, 9.99981 
9.048947e+2, 1.645383e+2, -1280558.4, -1324509.5, -51568.87, -0.03084311, -0.11018854, -1246478.0, 81035.97, 0.0, 10.000385, 9.999802 
9.049151e+2, 1.7453828e+2, -1218396.9, -1243227.8, -46581.88, -0.006092811, -0.091571726, -1182604.3, 46910.72, 0.0, 10.000137, 9.999806 
9.04935e+2, 1.8453814e+2, -1133965.9, -1141904.8, -59466.313, -0.010369978, -0.08682449, -1078336.6, 53179.97, 0.0, 10.000001, 9.999895 
9.0495443e+2, 1.9453791e+2, -1036382.0, -1043223.56, -66753.45, -0.0516761, -0.10095501, -972961.75, 60557.273, 0.0, 9.999994, 9.999903 
9.04974e+2, 2.045377e+2, -949310.5, -956585.94, -78858.82, -0.057965882, -0.10589878, -874005.56, 61515.117, 0.0, 9.999946, 9.999848 
9.0499383e+2, 2.1453756e+2, -865246.25, -864540.75, -75355.42, -0.021240462, -0.10371425, -789537.25, 47984.19, 0.0, 9.999846, 9.999855 
9.0501344e+2, 2.2453733e+2, -781743.0, -795936.8, -69896.02, -0.018081285, -0.102712825, -718584.5, 20939.258, 0.0, 9.999844, 9.999655 
9.050327e+2, 2.3453693e+2, -667361.5, -690367.1, -72179.164, -0.05551897, -0.10540029, -605774.3, 35753.5, 0.0, 9.999958, 9.999652 
9.0505236e+2, 2.4453649e+2, -589688.7, -636666.44, -67960.234, -0.06438053, -0.09822274, -541272.6, 2260.1394, 0.0, 9.999968, 9.999342 
9.050724e+2, 2.5453594e+2, -508973.94, -547776.6, -66185.055, -0.039342538, -0.08399471, -459405.2, -13866.3545, 0.0, 9.999852, 9.999335 
9.050923e+2, 2.645352e+2, -424469.6, -470976.6, -57103.363, -0.032811277, -0.08543827, -386066.63, -38519.688, 0.0, 9.999823, 9.999203 
9.051121e+2, 2.7453417e+2, -316162.66, -368041.38, -51818.457, -0.04785481, -0.10512795, -284153.72, -34596.48, 0.0, 9.999894, 9.999203 
9.0513223e+2, 2.845335e+2, -218916.11, -269001.38, -31510.549, -0.048290014, -0.09015234, -203708.92, -52145.51, 0.0, 9.999882, 9.999216 
9.051529e+2, 2.9453313e+2, -137262.19, -179143.64, -35104.457, -0.03230843, -0.04715113, -117327.04, -63761.313, 0.0, 9.999771, 9.999213 
9.051735e+2, 3.0453116e+2, -103361.62, -161546.03, -17533.912, -0.03575476, -0.15528806, -98486.27, -98486.27, 0.0000001316986, 9.999771, 9.999 
9.051944e+2, 3.14531e+2, -45892.19, -70192.79, -13565.66, -0.025655126, -0.06829711, -39831.043, -39831.043, 0.0000016698094, 9.999891, 9.999569 
9.148109e+2, 1.2451801e+2, -1599383.1, -1719927.4, -77356.75, 0.009235302, -0.11627219, -1561590.0, 158120.8, 0.0000026057617, 10.00106, 9.999453 
9.148331e+2, 1.3451733e+2, -1548206.1, -1632249.5, 28173.203, 0.008282179, -0.14021763, -1539635.8, 82081.72, 0.00000007607973, 10.000675, 9.999573 
9.148546e+2, 1.4451665e+2, -1469218.9, -1525547.0, -31283.115, 0.016626026, -0.17050704, -1455289.6, 68435.17, 0.0, 10.000472, 9.999726 
9.14875e+2, 1.5451702e+2, -1367272.5, -1423927.0, -32234.354, -0.0110863075, -0.10549289, -1352687.1, 73035.22, 0.0, 10.000491, 9.999742 
9.148951e+2, 1.6451713e+2, -1270440.0, -1304293.3, -60736.51, -0.023189446, -0.0761962, -1224315.6, 103406.49, 0.0, 10.000387, 9.99994 
9.1491514e+2, 1.745169e+2, -1207809.0, -1221594.4, -56068.586, -0.0120133385, -0.09304884, -1158211.0, 71513.36, 0.0, 10.000137, 9.999955 
9.1493493e+2, 1.845167e+2, -1146223.9, -1167489.9, -60182.098, -0.014770872, -0.09675795, -1095742.8, 35984.25, 0.0, 10.000001, 9.99972 
9.1495454e+2, 1.9451648e+2, -1049636.0, -1071050.0, -67296.71, -0.03558784, -0.087278254, -992199.9, 41529.918, 0.0, 9.999995, 9.999712 
9.149741e+2, 2.0451629e+2, -942608.56, -943147.06, -82751.71, -0.03735963, -0.08567028, -860125.7, 75605.91, 0.0, 9.999947, 9.999941 
9.149937e+2, 2.1451613e+2, -857574.94, -849113.3, -79424.45, -0.015804369, -0.09698333, -773807.06, 63924.887, 0.0, 9.999848, 9.999961 
9.150133e+2, 2.2451583e+2, -785530.44, -804187.9, -66164.89, -0.01640455, -0.10398295, -728039.9, 11694.68, 0.0, 9.9998455, 9.999598 
9.150328e+2, 2.3451535e+2, -671781.9, -699753.2, -67994.86, -0.04352555, -0.10855514, -616349.25, 25390.443, 0.0, 9.999958, 9.999587 
9.1505235e+2, 2.4451491e+2, -586837.1, -630839.1, -71917.305, -0.055155557, -0.1002343, -533630.8, 10114.017, 0.0, 9.999968, 9.999383 
9.150721e+2, 2.5451446e+2, -505703.38, -541299.6, -70495.414, -0.04824506, -0.08058898, -450794.03, -5043.9326, 0.0, 9.999853, 9.999379 
9.1509205e+2, 2.6451385e+2, -414957.7, -451342.34, -54626.82, -0.039864577, -0.07570105, -375573.56, -27816.832, 0.0, 9.999823, 9.999338 
9.1511214e+2, 2.7451307e+2, -307059.72, -348226.66, -48965.926, -0.029449558, -0.088779144, -274526.88, -24762.176, 0.0, 9.999889, 9.999341 
9.1513234e+2, 2.845124e+2, -226366.75, -282967.9, -35271.0, -0.029388607, -0.07744231, -209446.03, -57675.016, 0.0, 9.999875, 9.999124 
9.1515255e+2, 2.9451177e+2, -145018.92, -194349.47, -38867.11, -0.043123435, -0.048851896, -123651.3, -69875.05, 0.0, 9.999766, 9.999111 
9.151731e+2, 3.0450997e+2, -81337.055, -114714.164, -12680.245, -0.05234784, -0.14699318, -77066.21, -77066.21, 0.00000009563079, 9.999765, 9.999324 
9.151943e+2, 3.1451032e+2, -30602.246, -35346.63, -7837.1387, -0.023452468, -0.04581214, -24786.15, -24786.15, 0.0000014046396, 9.999878, 9.999815 
9.2481214e+2, 1.24497e+2, -1614343.8, -1739655.4, -63274.555, 0.028663099, -0.09714687, -1587952.3, 131965.17, 0.000005355975, 10.001012, 9.99934 
9.2483383e+2, 1.3449612e+2, -1512107.5, -1627743.5, 29852.648, 0.0009286029, -0.12934713, -1504855.5, 117070.836, 0.00000033393198, 10.000979, 9.999456 
9.248551e+2, 1.4449534e+2, -1420538.0, -1500708.5, -28670.852, 0.0047751563, -0.16446961, -1411339.9, 112594.77, 0.0, 10.000801, 9.999738 
9.2487556e+2, 1.5449575e+2, -1370755.0, -1423147.9, -23099.889, 0.00030394562, -0.09826155, -1362025.0, 63906.457, 0.0, 10.000459, 9.999763 
9.2489564e+2, 1.6449584e+2, -1290910.5, -1319012.6, -53541.582, -0.007728188, -0.06894205, -1249607.0, 78324.086, 0.0, 10.000269, 9.999895 
9.2491525e+2, 1.7449555e+2, -1192792.9, -1219682.8, -63897.535, -0.01598379, -0.086804315, -1140941.1, 88993.08, 0.0, 10.000265, 9.999907 
9.249349e+2, 1.8449527e+2, -1122938.0, -1156957.4, -69271.31, -0.019609408, -0.09336083, -1068618.6, 63318.77, 0.0, 10.000165, 9.999713 
9.2495465e+2, 1.94495e+2, -1057027.6, -1074874.8, -62491.52, -0.018761203, -0.089472696, -1002825.75, 31114.777, 0.0, 9.999947, 9.999708 
9.249742e+2, 2.0449483e+2, -955080.3, -948315.1, -70076.984, -0.019098213, -0.0875808, -881539.2, 54402.96, 0.0, 9.999859, 9.999948 
9.249935e+2, 2.1449475e+2, -845415.6, -842414.5, -74258.28, -0.020660974, -0.090944774, -769641.6, 68300.16, 0.0, 9.999929, 9.999968 
9.2501307e+2, 2.2449443e+2, -784771.75, -810817.4, -66312.516, -0.02365903, -0.09645082, -730215.4, 9729.191, 0.0, 9.999881, 9.999535 
9.2503273e+2, 2.3449382e+2, -715881.4, -728496.06, -68637.96, -0.027975315, -0.107735984, -653261.56, -11310.291, 0.0, 9.999688, 9.999519 
9.2505234e+2, 2.4449338e+2, -629884.25, -642517.75, -70018.97, -0.03688823, -0.099245355, -565897.7, -21941.168, 0.0, 9.999633, 9.999463 
9.2507184e+2, 2.5449312e+2, -515313.44, -536199.06, -65549.19, -0.05161589, -0.070531406, -459380.44, -13420.326, 0.0, 9.999745, 9.999466 
9.250917e+2, 2.6449263e+2, -427026.97, -449337.0, -53208.332, -0.04992556, -0.060544904, -383816.9, -35851.457, 0.0, 9.999706, 9.999409 
9.2511183e+2, 2.744919e+2, -361370.28, -366584.1, -53179.57, -0.028359987, -0.0739345, -310733.75, -60760.992, 0.0, 9.999483, 9.999411 
9.25132e+2, 2.8449127e+2, -287178.38, -302224.06, -32793.117, -0.025172202, -0.067728914, -261056.28, -109077.52, 0.0, 9.999414, 9.999213 
9.251521e+2, 2.9449064e+2, -172997.92, -197394.6, -22131.686, -0.044899352, -0.049118485, -159925.52, -105941.5, 0.0, 9.99953, 9.999205 
9.251727e+2, 3.044891e+2, -106081.3, -102833.27, 5341.883, -0.05581912, -0.13837644, -98873.99, -98873.99, 0.00000004550982, 9.999494, 9.9995365 
9.251938e+2, 3.1448972e+2, -108842.84, -58245.95, 830.04224, -0.02765032, -0.030192861, -58232.336, -58232.336, 0.0000009683944, 9.999277, 9.999947 
9.348134e+2, 1.2447597e+2, -1629632.6, -1771736.1, -59748.555, 0.05232704, -0.106900536, -1607849.9, 112273.62, 0.000009813605, 10.001012, 9.99912 
9.3483466e+2, 1.3447537e+2, -1527457.0, -1661323.4, 28934.791, -0.011825278, -0.08720486, -1521470.5, 100660.26, 0.0000009955157, 10.000987, 9.999223 
9.348557e+2, 1.4447454e+2, -1412971.4, -1487114.1, -41208.867, -0.013346196, -0.11973495, -1394613.0, 129526.74, 0.00000000002439963, 10.00081, 9.999827 
9.3487614e+2, 1.5447451e+2, -1362968.9, -1407273.3, -36142.83, 0.016710877, -0.106302775, -1342729.8, 83409.555, 0.0, 10.000459, 9.999871 
9.348961e+2, 1.6447444e+2, -1307752.4, -1353762.4, -54052.28, 0.015655499, -0.089943886, -1272013.1, 56127.496, 0.0, 10.000268, 9.999658 
9.3491554e+2, 1.7447424e+2, -1210469.8, -1256963.9, -64088.297, -0.01814771, -0.07283501, -1165542.5, 64601.676, 0.0, 10.000266, 9.99965 
9.3493503e+2, 1.8447393e+2, -1111372.6, -1133792.3, -77454.75, -0.02532193, -0.076127164, -1044320.7, 87826.914, 0.0, 10.000168, 9.999871 
9.349547e+2, 1.944735e+2, -1043894.2, -1048215.25, -71118.05, -0.0014089074, -0.10765569, -974903.9, 59247.125, 0.0, 9.9999485, 9.999891 
9.349742e+2, 2.0447332e+2, -960598.06, -960160.8, -68223.16, -0.0032075723, -0.11197203, -892155.94, 43996.277, 0.0, 9.99986, 9.999866 
9.3499327e+2, 2.1447344e+2, -851944.06, -856330.1, -71879.13, -0.035912484, -0.08571108, -782224.5, 55926.16, 0.0, 9.99993, 9.999872 
9.3501276e+2, 2.2447315e+2, -789665.94, -821469.4, -73250.91, -0.040112082, -0.080149285, -730610.6, 9543.217, 0.0, 9.999883, 9.999461 
9.350326e+2, 2.3447235e+2, -720641.7, -739002.6, -75979.78, -0.009225759, -0.10305541, -653289.75, -11127.148, 0.0, 9.99969, 9.999447 
9.350523e+2, 2.4447191e+2, -621593.3, -625699.1, -66347.45, -0.009981627, -0.0954031, -557267.0, -13099.147, 0.0, 9.999634, 9.999578 
9.350716e+2, 2.544719e+2, -506654.88, -517977.25, -61158.97, -0.049807314, -0.054222032, -450895.63, -4726.754, 0.0, 9.999743, 9.999593 
9.3509126e+2, 2.6447153e+2, -427034.66, -448906.9, -60950.383, -0.06301587, -0.04034286, -376047.06, -27873.836, 0.0, 9.999703, 9.999413 
9.351111e+2, 2.7447075e+2, -361437.94, -366935.2, -61439.66, -0.04388813, -0.060408257, -302685.47, -52504.05, 0.0, 9.999483, 9.999409 
9.351313e+2, 2.8447014e+2, -268951.75, -264177.2, -28885.02, -0.035360914, -0.060791876, -237580.95, -85394.25, 0.0, 9.9994135, 9.9994755 
9.351517e+2, 2.944697e+2, -154839.78, -157519.36, -17666.996, -0.039084543, -0.048507985, -138461.84, -84272.58, 0.0, 9.999519, 9.999483 
9.351722e+2, 3.0446848e+2, -100842.4, -89174.65, -2281.9812, -0.047604013, -0.12988901, -88744.22, -88744.22, 0.000000010385675, 9.999481, 9.999637 
9.3519294e+2, 3.1446916e+2, -108596.0, -56500.625, -6781.7104, -0.038599767, -0.024406886, -55632.266, -55632.266, 0.00000050425, 9.999271, 9.999962 
9.448145e+2, 1.2445484e+2, -1581374.5, -1747432.4, -64064.78, 0.049604736, -0.11839588, -1559531.6, 160799.0, 0.000016619406, 10.001339, 9.999129 
9.448358e+2, 1.344544e+2, -1507413.9, -1651158.4, 37814.203, -0.005360243, -0.08432668, -1498073.3, 124263.08, 0.0000023427797, 10.001123, 9.999226 
9.4485664e+2, 1.4445357e+2, -1406887.6, -1491664.0, -34822.668, -0.003266393, -0.112575926, -1394418.0, 129927.06, 0.0000000053592455, 10.000885, 9.999759 
9.448768e+2, 1.5445344e+2, -1343773.1, -1405840.8, -44158.332, 0.027201578, -0.10403578, -1320834.3, 105511.914, 0.0, 10.000626, 9.999801 
9.448965e+2, 1.6445328e+2, -1288165.6, -1351139.6, -54087.6, 0.025476096, -0.088515416, -1257067.5, 71280.94, 0.0, 10.000433, 9.999596 
9.449159e+2, 1.7445306e+2, -1206720.3, -1261667.3, -48986.36, -0.010749691, -0.068062715, -1178029.1, 52323.176, 0.0, 10.000322, 9.99959 
9.449353e+2, 1.8445273e+2, -1103110.0, -1126826.8, -63006.313, -0.019530678, -0.07165984, -1050855.9, 81500.11, 0.0, 10.000213, 9.999896 
9.4495475e+2, 1.9445229e+2, -1019064.6, -1032734.44, -68412.72, 0.003970342, -0.10751413, -957146.2, 77212.79, 0.0, 10.000105, 9.999922 
9.449741e+2, 2.0445207e+2, -947501.56, -965905.7, -67445.8, 0.001921378, -0.11107298, -888633.0, 47727.555, 0.0, 10.000002, 9.999757 
9.4499326e+2, 2.1445215e+2, -863915.9, -875139.1, -72512.52, -0.030710189, -0.0780541, -796798.2, 41562.023, 0.0, 9.999905, 9.999755 
9.450126e+2, 2.2445183e+2, -798555.7, -822939.56, -76141.31, -0.036286287, -0.06953244, -733636.4, 6727.391, 0.0, 9.99981, 9.999486 
9.450323e+2, 2.3445106e+2, -714213.94, -732462.25, -71476.625, -0.008862172, -0.09382739, -651281.44, -8909.311, 0.0, 9.999721, 9.999477 
9.450519e+2, 2.4445064e+2, -627244.2, -624652.6, -57614.65, -0.0060835048, -0.08678527, -568319.2, -23942.13, 0.0, 9.999579, 9.999612 
9.450713e+2, 2.5445068e+2, -558291.25, -539051.3, -59302.73, -0.03365088, -0.0453789, -488593.38, -42215.652, 0.0, 9.999373, 9.999626 
9.4509083e+2, 2.644503e+2, -481541.66, -468478.03, -61319.676, -0.049694136, -0.03374907, -413343.25, -64961.45, 0.0, 9.999301, 9.999473 
9.451105e+2, 2.7444953e+2, -370029.25, -364261.06, -57292.605, -0.05200542, -0.059097905, -309780.0, -59390.176, 0.0, 9.999395, 9.99947 
9.4513047e+2, 2.8444904e+2, -278367.22, -260529.64, -30242.432, -0.047505308, -0.056514632, -237918.3, -85524.055, 0.0, 9.999313, 9.999549 
9.45151e+2, 2.9444885e+2, -223510.7, -182115.3, -34415.47, -0.033769883, -0.030146196, -162653.08, -108258.12, 0.0, 9.999012, 9.999558 
9.451715e+2, 3.0444768e+2, -168686.28, -105128.83, -21038.457, -0.042936675, -0.10958843, -98795.82, -98795.82, 0.00000000032400083, 9.998944, 9.999785 
9.451919e+2, 3.1444812e+2, -117360.94, -50875.17, -20397.467, -0.05982768, -0.04532025, -45116.184, -45116.184, 0.00000016973306, 9.999169, 10.00005 
9.548155e+2, 1.2443367e+2, -1561616.5, -1709354.6, -67723.76, 0.013205582, -0.13099341, -1535270.1, 185268.16, 0.000026449812, 10.00135, 9.999386 
9.5483714e+2, 1.3443321e+2, -1489368.0, -1614193.6, 29492.865, 0.02090317, -0.12345084, -1482750.5, 139791.97, 0.0000047469885, 10.001125, 9.999479 
9.548578e+2, 1.4443247e+2, -1423581.0, -1526596.3, -43804.832, 0.036829073, -0.14598082, -1407472.9, 117077.7, 0.000000046136613, 10.000886, 9.999519 
9.5487744e+2, 1.5443252e+2, -1362032.6, -1444693.8, -53707.355, 0.031494245, -0.091177784, -1335593.8, 90957.62, 0.0, 10.000628, 9.999533 
9.548969e+2, 1.644324e+2, -1279561.6, -1334267.9, -58714.8, 0.02060539, -0.06327373, -1242141.1, 86412.7, 0.0, 10.000436, 9.99971 
9.549163e+2, 1.7443202e+2, -1196729.5, -1241539.3, -53244.22, 0.0061486578, -0.07255916, -1161368.3, 69190.18, 0.0, 10.000323, 9.999728 
9.5493567e+2, 1.8443167e+2, -1110673.5, -1143148.9, -67171.39, -0.0019514218, -0.080439806, -1057805.1, 74756.93, 0.0, 10.000215, 9.9997835 
9.5495486e+2, 1.9443138e+2, -1027644.0, -1051229.6, -72747.9, -0.0028527947, -0.08893933, -965739.3, 68825.05, 0.0, 10.000107, 9.999794 
9.5497406e+2, 2.044311e+2, -957097.7, -986384.94, -71532.37, -0.004242611, -0.0845471, -898725.5, 37841.547, 0.0, 10.000004, 9.999617 
9.549934e+2, 2.1443088e+2, -873539.2, -895544.3, -76480.805, -0.0054472634, -0.06788628, -807273.6, 31296.572, 0.0, 9.999906, 9.999615 
9.550126e+2, 2.244305e+2, -790161.56, -806009.4, -79737.195, -0.0122742895, -0.06462945, -717955.56, 22618.89, 0.0, 9.999811, 9.999601 
9.550318e+2, 2.3442993e+2, -704724.75, -713324.9, -74912.36, -0.02644631, -0.080191165, -633989.1, 8590.802, 0.0, 9.999722, 9.999608 
9.550512e+2, 2.4442956e+2, -630399.3, -631826.1, -65180.445, -0.025031537, -0.07351404, -565928.4, -21344.299, 0.0, 9.999581, 9.999562 
9.550709e+2, 2.544294e+2, -562076.06, -547506.0, -66966.5, -0.0041432665, -0.043743666, -487429.47, -40842.863, 0.0, 9.999374, 9.999568 
9.550905e+2, 2.6442897e+2, -473825.16, -452546.84, -58244.797, -0.01126193, -0.04027151, -403977.47, -55386.29, 0.0, 9.999301, 9.999582 
9.551098e+2, 2.7442828e+2, -362277.97, -347072.75, -53451.883, -0.053148612, -0.06996556, -300685.5, -50087.445, 0.0, 9.99939, 9.999591 
9.551296e+2, 2.844279e+2, -287136.2, -277205.0, -40527.914, -0.061778016, -0.055472847, -241339.61, -88738.125, 0.0, 9.999307, 9.999438 
9.5515e+2, 2.9442796e+2, -232563.78, -200453.72, -45311.02, -0.029670147, 0.0048308843, -168437.42, -113836.28, 0.0, 9.999009, 9.999434 
9.5517033e+2, 3.044268e+2, -155938.97, -77400.04, -13187.726, -0.042404346, -0.077910535, -75244.79, -75244.79, 0.0, 9.998939, 9.999979 
9.551907e+2, 3.144266e+2, -109468.32, -29845.582, -10553.047, -0.09199539, -0.09545564, -28470.643, -28470.643, 0.000000027453995, 9.999148, 10.000204 
9.6481675e+2, 1.2441293e+2, -1485897.1, -1669977.4, -45709.156, -0.013312446, -0.13848333, -1475171.9, 245569.48, 0.00003990401, 10.001859, 9.99941 
9.6483845e+2, 1.3441254e+2, -1462707.9, -1600110.9, 27513.885, 0.032847706, -0.12748994, -1457403.1, 165341.72, 0.000008636752, 10.001305, 9.999488 
9.64859e+2, 1.4441174e+2, -1415710.1, -1530420.9, -41026.938, 0.056973677, -0.14959931, -1402547.0, 122206.1, 0.00000019058375, 10.000974, 9.99945 
9.648782e+2, 1.5441173e+2, -1324465.9, -1434339.0, -35949.563, 0.02980529, -0.09710677, -1313748.9, 113006.16, 0.0, 10.000921, 9.999461 
9.648974e+2, 1.6441153e+2, -1234200.3, -1314971.3, -39709.023, 0.015169811, -0.07138578, -1217948.4, 110809.766, 0.0, 10.00076, 9.999686 
9.649168e+2, 1.7441112e+2, -1178205.1, -1234751.1, -46417.023, 0.01871535, -0.0820424, -1152128.3, 78634.516, 0.0, 10.000462, 9.999708 
9.64936e+2, 1.844108e+2, -1111297.3, -1154845.5, -62301.26, 0.0141298035, -0.08205454, -1067074.8, 65691.72, 0.0, 10.00026, 9.9996805 
9.64955e+2, 1.9441056e+2, -1024153.6, -1061442.4, -66343.125, -0.0011172105, -0.071467645, -973884.8, 60883.84, 0.0, 10.000183, 9.999686 
9.6497405e+2, 2.0441021e+2, -953460.3, -996084.9, -63947.164, -0.005405561, -0.06443047, -907367.44, 29405.084, 0.0, 10.000079, 9.999513 
9.649934e+2, 2.1440971e+2, -875879.1, -908074.56, -66262.766, 0.00456222, -0.06564835, -823786.7, 14991.746, 0.0, 9.99994, 9.999512 
9.6501255e+2, 2.2440927e+2, -787582.2, -801645.44, -70543.664, -0.0017740789, -0.063545905, -723720.56, 17062.709, 0.0, 9.999816, 9.999629 
9.650315e+2, 2.3440894e+2, -703870.4, -708993.9, -73091.555, -0.028572492, -0.05928884, -633295.7, 9490.883, 0.0, 9.999712, 9.999642 
9.650507e+2, 2.444086e+2, -634835.94, -638735.56, -70631.28, -0.03118206, -0.05054455, -566127.56, -21337.023, 0.0, 9.999572, 9.999519 
9.650703e+2, 2.544082e+2, -563525.1, -553457.1, -71996.46, -0.0037727687, -0.040846087, -486318.9, -39523.504, 0.0, 9.999388, 9.99952 
9.650898e+2, 2.6440775e+2, -486953.13, -451157.28, -60308.93, -0.0019996276, -0.041931543, -406146.53, -57346.254, 0.0, 9.999178, 9.999651 
9.6510917e+2, 2.7440727e+2, -423783.16, -368091.75, -58993.08, -0.031697575, -0.057126455, -330702.75, -79897.88, 0.0, 9.998931, 9.999667 
9.6512884e+2, 2.8440696e+2, -358759.78, -313356.2, -45718.91, -0.04683732, -0.04107448, -285013.0, -132205.08, 0.0, 9.998822, 9.999423 
9.651488e+2, 2.944068e+2, -251089.8, -211516.72, -43104.574, -0.04501392, 0.0056432476, -183874.25, -129064.82, 0.0, 9.998892, 9.999415 
9.65169e+2, 3.0440575e+2, -171197.23, -70615.79, -8377.286, -0.06236841, -0.07220094, -69922.83, -69922.83, 0.0, 9.998774, 10.000105 
9.651895e+2, 3.144057e+2, -209997.38, -68303.03, -11179.504, -0.08694513, -0.09017548, -67426.41, -67426.41, 0.00000000015790982, 9.998416, 10.000293 
9.748184e+2, 1.2439271e+2, -1500881.9, -1703207.9, -60724.67, -0.033172276, -0.14295709, -1484055.6, 236883.66, 0.000057479218, 10.001867, 9.999179 
9.7483975e+2, 1.3439243e+2, -1480303.4, -1637648.0, 6716.818, 0.029035663, -0.09397258, -1480017.1, 142925.64, 0.000014404859, 10.001308, 9.9992285 
9.7485995e+2, 1.443915e+2, -1407966.8, -1515205.6, -43691.074, 0.055218287, -0.12087559, -1392420.0, 132532.28, 0.0000005546723, 10.000977, 9.999554 
9.7487897e+2, 1.5439107e+2, -1314792.9, -1415382.3, -37590.49, 0.021545872, -0.122622736, -1302297.5, 124659.09, 0.0, 10.000925, 9.99959 
9.7489816e+2, 1.6439068e+2, -1245334.9, -1339330.0, -50271.203, 0.0090861935, -0.11460579, -1223514.1, 105446.805, 0.0, 10.000765, 9.999517 
9.7491735e+2, 1.7439036e+2, -1190930.9, -1262048.5, -57772.332, 0.026695518, -0.096888274, -1158651.1, 72314.14, 0.0, 10.000464, 9.999519 
9.749364e+2, 1.8439011e+2, -1117847.3, -1169047.5, -65989.914, 0.0283894, -0.07630992, -1072665.8, 60303.227, 0.0, 10.000262, 9.999583 
9.749552e+2, 1.943899e+2, -1030223.3, -1074702.0, -69530.164, 0.009068707, -0.055160776, -979462.44, 55509.402, 0.0, 10.000185, 9.999595 
9.7497416e+2, 2.0438944e+2, -957880.56, -1005887.44, -69479.47, -0.0016235523, -0.050765324, -908375.06, 28601.879, 0.0, 10.000081, 9.999445 
9.749933e+2, 2.1438867e+2, -880284.75, -917728.2, -71790.266, -0.0007439093, -0.07124643, -824815.2, 14169.708, 0.0, 9.999941, 9.999445 
9.750123e+2, 2.243882e+2, -791851.56, -810988.56, -74764.82, -0.0050291647, -0.06626056, -726045.44, 14944.79, 0.0, 9.999818, 9.999564 
9.750313e+2, 2.3438811e+2, -708091.7, -718159.25, -77073.516, -0.015867716, -0.03136993, -635887.75, 7104.2573, 0.0, 9.999713, 9.999579 
9.7505033e+2, 2.4438776e+2, -637505.4, -644658.1, -77365.305, -0.024797931, -0.018131658, -563633.8, -18637.459, 0.0, 9.999573, 9.999478 
9.750694e+2, 2.5438705e+2, -566148.4, -559138.56, -78647.28, -0.031414837, -0.03688961, -483918.13, -36914.01, 0.0, 9.999389, 9.999482 
9.7508883e+2, 2.6438656e+2, -485351.5, -447848.72, -69067.836, -0.021266485, -0.039313763, -395032.1, -46022.98, 0.0, 9.999177, 9.999675 
9.751085e+2, 2.743864e+2, -421852.0, -364075.66, -67724.78, 0.0100927325, -0.02177682, -319335.22, -68324.836, 0.0, 9.99893, 9.999696 
9.7512805e+2, 2.8438607e+2, -354108.38, -302962.1, -43243.62, -0.0048886286, -0.013654821, -278295.84, -125282.21, 0.0, 9.998818, 9.999496 
9.7514737e+2, 2.9438543e+2, -246980.69, -200813.02, -39553.895, -0.07831668, -0.026014458, -178099.75, -123079.94, 0.0, 9.998882, 9.999495 
9.7516733e+2, 3.043846e+2, -169283.77, -63484.605, -19742.14, -0.10189287, -0.09186463, -59920.766, -59920.766, 0.0, 9.998758, 10.000161 
9.751883e+2, 3.143853e+2, -211090.28, -67038.484, -22519.6, -0.050249524, -0.03838669, -63600.066, -63600.066, 0.0, 9.9984, 10.00031 
9.848204e+2, 1.2437277e+2, -1501794.3, -1716769.9, -51273.27, -0.022017578, -0.14227925, -1490191.4, 230943.0, 0.00007951568, 10.001918, 9.999062 
9.8484105e+2, 1.3437243e+2, -1444253.9, -1635881.8, 19434.367, 0.0215744, -0.0860193, -1442302.8, 180836.23, 0.000022398126, 10.001625, 9.999087 
9.8486096e+2, 1.443714e+2, -1352078.3, -1492295.8, -19857.953, 0.041644216, -0.11396661, -1349320.1, 175829.23, 0.0000013019285, 10.001378, 9.9995165 
9.848801e+2, 1.5437083e+2, -1278174.1, -1400595.5, -25123.5, 0.025141431, -0.12622324, -1273218.9, 153935.45, 0.0, 10.00119, 9.999564 
9.8489904e+2, 1.643703e+2, -1224908.0, -1345340.6, -48878.36, 0.019531453, -0.124002226, -1207567.3, 121592.53, 0.0, 10.000974, 9.999374 
9.84918e+2, 1.7436984e+2, -1164313.4, -1265761.6, -54002.188, 0.03087754, -0.10699613, -1140948.5, 90217.23, 0.0, 10.000719, 9.999371 
9.8493683e+2, 1.8436944e+2, -1091345.9, -1173338.1, -56236.605, 0.03112806, -0.083557084, -1062748.6, 70422.41, 0.0, 10.000518, 9.99943 
9.8495555e+2, 1.9436917e+2, -1011299.44, -1082522.8, -64115.645, 0.01643602, -0.054667786, -973569.44, 61605.824, 0.0, 10.000389, 9.999442 
9.849744e+2, 2.0436864e+2, -934897.9, -997943.1, -66518.74, 0.0036509456, -0.048657596, -892810.56, 44370.67, 0.0, 10.000253, 9.999416 
9.849932e+2, 2.1436778e+2, -857269.8, -908939.7, -65740.98, -0.0060254214, -0.075368546, -812469.6, 26719.82, 0.0, 10.00011, 9.999424 
9.850122e+2, 2.2436726e+2, -784570.9, -821462.8, -70071.32, -0.010133682, -0.067856446, -730558.3, 10637.091, 0.0, 9.999928, 9.999439 
9.8503107e+2, 2.3436719e+2, -719771.06, -738442.3, -77990.88, -0.0072745355, -0.019691687, -650559.06, -7360.7563, 0.0, 9.999696, 9.999448 
9.850499e+2, 2.4436685e+2, -647927.8, -641962.4, -78559.31, -0.015158186, -0.0002407618, -566329.2, -21126.314, 0.0, 9.999469, 9.999547 
9.850687e+2, 2.543662e+2, -581128.56, -557095.06, -71443.52, -0.03672981, -0.021590658, -496664.72, -49455.23, 0.0, 9.999247, 9.999563 
9.8508775e+2, 2.6436576e+2, -505672.78, -454824.25, -58242.85, -0.03160477, -0.026341235, -416698.38, -67484.445, 0.0, 9.999026, 9.999699 
9.851073e+2, 2.743656e+2, -437603.3, -369180.03, -57849.39, 0.0069998107, -0.011106674, -336183.13, -84967.87, 0.0, 9.998813, 9.999717 
9.851268e+2, 2.843653e+2, -378824.6, -303017.06, -27540.602, -0.0023606333, -0.0037802127, -294068.1, -140849.98, 0.0, 9.998599, 9.999601 
9.85146e+2, 2.943648e+2, -312442.6, -219803.64, -21594.318, -0.07135325, -0.01416975, -215017.27, -159794.1, 0.0, 9.99838, 9.999605 
9.8516583e+2, 3.043642e+2, -245770.39, -73660.04, -3612.7808, -0.09480818, -0.0713791, -73584.234, -73584.234, 0.0, 9.99812, 10.000399 
9.851864e+2, 3.1436503e+2, -280939.9, -76220.8, 6868.6587, -0.051629886, -0.02877768, -75990.6, -75990.6, 0.0, 9.997817, 10.000526 
9.948227e+2, 1.24353185e+2, -1501237.3, -1716068.3, -56265.664, 0.01744677, -0.13651095, -1487393.0, 233933.1, 0.00010622788, 10.001918, 9.999066 
9.948426e+2, 1.3435256e+2, -1445016.1, -1638552.1, 8905.268, 0.010440289, -0.10556211, -1444607.1, 178725.69, 0.00003292342, 10.001629, 9.999067 
9.948621e+2, 1.4435147e+2, -1364112.9, -1518767.8, -26781.9, 0.015686484, -0.13083063, -1359606.4, 165737.61, 0.0000026281716, 10.001384, 9.999332 
9.948814e+2, 1.5435107e+2, -1291096.8, -1428494.3, -32088.188, 0.04070049, -0.107004955, -1283972.3, 143375.5, 0.00000000019976186, 10.001194, 9.999371 
9.949003e+2, 1.6435046e+2, -1232784.4, -1362809.5, -58310.65, 0.046921175, -0.097996555, -1210465.6, 118888.586, 0.0, 10.0009775, 9.999253 
9.949187e+2, 1.7434956e+2, -1171542.6, -1282037.3, -63743.613, 0.031015964, -0.11212572, -1142436.4, 88927.58, 0.0, 10.000724, 9.999257 
9.949372e+2, 1.8434887e+2, -1105558.6, -1203858.5, -61793.016, 0.021733748, -0.10403993, -1075752.3, 57620.09, 0.0, 10.000522, 9.999219 
9.94956e+2, 1.9434842e+2, -1026097.7, -1113985.9, -69366.08, 0.020764312, -0.070162356, -987927.6, 47451.074, 0.0, 10.000391, 9.999226 
9.949747e+2, 2.0434782e+2, -934095.56, -996922.44, -72281.41, 0.010383142, -0.058339134, -886696.56, 50688.707, 0.0, 10.000255, 9.999423 
9.9499327e+2, 2.1434706e+2, -855412.8, -905654.6, -71462.805, -0.011440986, -0.078287326, -804784.2, 34607.777, 0.0, 10.000112, 9.999446 
9.95012e+2, 2.243465e+2, -797675.7, -849211.2, -78800.4, -0.017309908, -0.06840326, -740537.0, 861.7033, 0.0, 9.99993, 9.999248 
9.950308e+2, 2.3434618e+2, -733835.0, -768107.25, -86772.45, -0.0028122573, -0.023812002, -662522.8, -19117.422, 0.0, 9.999698, 9.999244 
9.950495e+2, 2.4434589e+2, -635854.6, -617238.75, -86843.016, -0.0025509016, 0.0034437438, -539206.3, 6203.643, 0.0, 9.99947, 9.999717 
9.950681e+2, 2.5434566e+2, -567339.8, -528574.56, -79476.68, -0.020980153, 0.0045880843, -466151.16, -18739.47, 0.0, 9.999247, 9.999761 
9.950867e+2, 2.643453e+2, -504398.6, -452089.13, -66011.78, -0.0335401, -0.0031468582, -407239.44, -57824.613, 0.0, 9.999025, 9.999719 
9.951056e+2, 2.743448e+2, -437187.75, -367929.97, -65397.824, -0.03858309, -0.02405057, -328558.63, -77139.01, 0.0, 9.99881, 9.999727 
9.95125e+2, 2.843446e+2, -370673.84, -284866.8, -35032.133, -0.03781396, -0.011322908, -272381.16, -118959.55, 0.0, 9.998592, 9.999729 
9.951448e+2, 2.9434484e+2, -304468.9, -200732.23, -28932.043, -0.028517902, 0.0382126, -193208.77, -137788.66, 0.0, 9.998368, 9.999742 
9.9516445e+2, 3.0434456e+2, -219670.7, -16529.648, -14274.335, -0.045367472, -0.012818287, -15531.521, -15531.521, 0.0, 9.998106, 10.000798 
9.9518377e+2, 3.1434488e+2, -254560.64, -19277.521, -3614.3723, -0.08878788, -0.062825724, -19222.012, -19222.012, 0.0, 9.997807, 10.000923 
1.0048248e+3, 1.243335e+2, -1476851.3, -1702628.6, -52803.035, 0.026259253, -0.14601721, -1465112.5, 256406.02, 0.00013782152, 10.002078, 9.999082 
1.0048444e+3, 1.343329e+2, -1394994.0, -1615384.4, 7556.611, 0.012894046, -0.11290212, -1394735.3, 228789.72, 0.000046236724, 10.001977, 9.999059 
1.0048636e+3, 1.4433175e+2, -1320678.9, -1512805.3, -29457.426, 0.016450102, -0.13571502, -1316263.8, 209272.7, 0.00000474816, 10.001747, 9.999198 
1.00488275e+3, 1.543312e+2, -1281367.8, -1439653.1, -31549.773, 0.05410114, -0.11313203, -1275310.9, 152231.13, 0.000000004412824, 10.001329, 9.9992285 
1.00490145e+3, 1.643305e+2, -1220893.6, -1365988.3, -47634.195, 0.059479903, -0.10277185, -1206653.1, 122896.41, 0.0, 10.001098, 9.999173 
1.0049195e+3, 1.7432958e+2, -1119436.8, -1265135.9, -49702.914, 0.024467291, -0.11144639, -1104096.6, 127462.78, 0.0, 10.001117, 9.999184 
1.0049379e+3, 1.8432875e+2, -1049064.6, -1195981.6, -48365.12, 0.009703768, -0.10392226, -1034572.4, 98996.664, 0.0, 10.000994, 9.999045 
1.0049565e+3, 1.9432804e+2, -996110.25, -1119561.9, -53455.516, 0.021338068, -0.07869234, -976180.9, 59397.52, 0.0, 10.000684, 9.999046 
1.0049751e+3, 2.0432736e+2, -913036.0, -988602.8, -54483.04, 0.016567713, -0.06574959, -884517.1, 53068.797, 0.0, 10.000408, 9.999406 
1.0049934e+3, 2.1432672e+2, -845655.7, -901330.75, -55687.813, -0.0090582585, -0.072140336, -811235.2, 28355.93, 0.0, 10.000181, 9.999441 
1.0050119e+3, 2.2432612e+2, -809410.8, -869913.25, -65333.4, -0.017610945, -0.0591511, -767664.9, -26066.568, 0.0, 9.999915, 9.999112 
1.0050304e+3, 2.3432556e+2, -758104.5, -795822.25, -69475.59, -0.0041185725, -0.024956627, -704973.7, -61365.57, 0.0, 9.999601, 9.9991 
1.0050489e+3, 2.443252e+2, -652871.1, -614686.8, -69021.27, -0.0023450304, 0.00003508792, -562165.8, -16552.42, 0.0, 9.999308, 9.999811 
1.0050672e+3, 2.5432515e+2, -589322.4, -526240.2, -68164.84, -0.016209844, 0.009476887, -482672.78, -35060.105, 0.0, 9.999042, 9.999874 
1.0050856e+3, 2.643249e+2, -535806.25, -466572.63, -57365.953, -0.031810667, 0.0047006905, -434188.13, -84573.445, 0.0, 9.998809, 9.9997225 
1.00510426e+3, 2.7432436e+2, -465818.28, -381897.16, -57954.87, -0.049359005, -0.020664291, -352307.34, -100687.36, 0.0, 9.998615, 9.999723 
1.00512326e+3, 2.843242e+2, -412372.72, -292987.1, -36069.75, -0.044260796, -0.012482902, -282935.7, -129313.72, 0.0, 9.998256, 9.999835 
1.005143e+3, 2.943245e+2, -395734.9, -231693.98, -32597.88, -0.0095535135, 0.033295628, -225453.6, -169833.88, 0.0, 9.997687, 9.999856 
1.0051624e+3, 3.0432445e+2, -312776.7, -39227.297, -16691.125, -0.024162253, -0.00718751, -38212.62, -38212.62, 0.0, 9.997373, 10.000995 
1.0051813e+3, 3.1432503e+2, -303419.22, -21999.586, -20569.885, -0.09657391, -0.05226648, -20504.014, -20504.014, 0.0, 9.997382, 10.001108 
1.0148265e+3, 1.2431373e+2, -1475287.9, -1699416.3, -50852.36, -0.002630649, -0.17389068, -1464289.8, 257421.64, 0.00017450533, 10.002078, 9.9991045 
1.0148465e+3, 1.3431346e+2, -1394484.5, -1615210.3, 3902.714, 0.028915318, -0.10720543, -1394415.6, 229299.16, 0.000062540406, 10.001981, 9.999058 
1.0148656e+3, 1.443123e+2, -1325973.3, -1525306.6, -44172.55, 0.044965155, -0.12750188, -1316623.1, 209103.38, 0.000007860604, 10.001753, 9.99911 
1.0148842e+3, 1.5431125e+2, -1287292.4, -1452850.9, -47463.297, 0.06520973, -0.14571197, -1274650.6, 153086.19, 0.000000028517778, 10.001332, 9.999138 
1.01490244e+3, 1.6431043e+2, -1223299.1, -1371762.3, -48118.164, 0.05643153, -0.13977769, -1209067.9, 120677.56, 0.0, 10.001101, 9.999133 
1.0149205e+3, 1.7430991e+2, -1121240.6, -1270091.9, -48929.688, 0.0108709615, -0.105037846, -1106597.3, 125154.125, 0.0, 10.0011215, 9.999147 
1.01493865e+3, 1.8430914e+2, -1057983.5, -1215880.4, -59513.61, -0.0051806155, -0.0828204, -1038064.7, 95696.0, 0.0, 10.0009985, 9.998906 
1.0149571e+3, 1.9430806e+2, -1005722.6, -1140531.4, -65493.42, 0.017754145, -0.080182865, -979144.3, 56629.676, 0.0, 10.000688, 9.998901 
1.01497546e+3, 2.0430726e+2, -915650.9, -994761.94, -63700.957, 0.021742709, -0.07090113, -880223.4, 57559.754, 0.0, 10.00041, 9.999362 
1.01499364e+3, 2.1430679e+2, -847655.1, -906109.5, -64562.313, 0.0009415349, -0.05676646, -806012.56, 33774.152, 0.0, 10.000183, 9.999408 
1.0150118e+3, 2.2430617e+2, -814994.4, -882154.44, -77199.07, -0.011106042, -0.039973274, -764388.2, -22594.088, 0.0, 9.999917, 9.999027 
1.0150299e+3, 2.3430532e+2, -764004.2, -808728.8, -81347.14, -0.011302843, -0.023229852, -702001.6, -58195.176, 0.0, 9.999603, 9.99901 
1.015048e+3, 2.4430482e+2, -651334.6, -612134.3, -79104.086, -0.0146434745, -0.0103026815, -550238.3, -4425.102, 0.0, 9.99931, 9.999828 
1.0150661e+3, 2.5430477e+2, -587136.9, -522131.34, -77963.61, -0.022210224, -0.0061773965, -470166.63, -22354.078, 0.0, 9.9990425, 9.999902 
1.01508446e+3, 2.643046e+2, -537115.4, -469237.16, -64395.316, -0.026867755, -0.002364606, -430384.66, -80571.08, 0.0, 9.998808, 9.999705 
1.015103e+3, 2.743043e+2, -467699.25, -385040.44, -64532.66, -0.027895862, -0.001718723, -349737.06, -97920.484, 0.0, 9.998611, 9.999704 
1.0151218e+3, 2.8430402e+2, -407545.75, -282243.44, -56017.87, -0.023787813, -0.006924718, -260851.92, -107032.5, 0.0, 9.998252, 9.999911 
1.01514064e+3, 2.9430377e+2, -389738.72, -219218.23, -53400.344, -0.01271301, -0.025036085, -203875.77, -148053.75, 0.0, 9.997685, 9.999943 
1.0151596e+3, 3.043039e+2, -312881.75, -38654.797, -16708.521, -0.029727748, -0.05159943, -37640.504, -37640.504, 0.0, 9.997369, 10.001001 
1.01517886e+3, 3.1430542e+2, -306345.22, -24884.705, -18523.967, -0.08031103, -0.0058197826, -23670.809, -23670.809, 0.0, 9.997368, 10.001096 
1.0248286e+3, 1.24294326e+2, -1439543.3, -1689536.5, -30877.803, -0.012517375, -0.1933584, -1435785.9, 286114.84, 0.0002164286, 10.002356, 9.999039 
1.0248487e+3, 1.342941e+2, -1407880.6, -1632084.4, 10364.025, 0.044836354, -0.11313611, -1407402.5, 216501.48, 0.00008198819, 10.001935, 9.998963 
1.02486745e+3, 1.4429294e+2, -1337779.5, -1536295.4, -38419.55, 0.06052885, -0.12660165, -1330603.5, 195312.58, 0.000012107449, 10.001695, 9.999063 
1.0248856e+3, 1.5429175e+2, -1239391.6, -1434457.0, -38378.56, 0.05646973, -0.15360788, -1232112.5, 195815.06, 0.00000009714164, 10.001681, 9.999095 
1.02490366e+3, 1.6429082e+2, -1166614.1, -1353311.8, -36258.22, 0.042068303, -0.15198499, -1159819.8, 170117.2, 0.0, 10.001529, 9.999053 
1.0249216e+3, 1.7429024e+2, -1117598.4, -1277629.1, -40574.895, 0.015720207, -0.116225615, -1107898.8, 124044.96, 0.0, 10.001186, 9.999064 
1.0249397e+3, 1.8428944e+2, -1070559.1, -1225664.9, -51652.684, 0.002924861, -0.09040977, -1054932.4, 79020.79, 0.0, 10.000929, 9.998873 
1.02495775e+3, 1.9428842e+2, -992644.56, -1137391.5, -49100.824, 0.0077471067, -0.08033062, -977560.56, 58405.42, 0.0, 10.000792, 9.998872 
1.02497585e+3, 2.0428757e+2, -901703.5, -1003388.6, -47769.934, 0.008348827, -0.06653009, -882782.7, 55193.055, 0.0, 10.000573, 9.999225 
1.0249939e+3, 2.1428695e+2, -848085.06, -922414.7, -57182.83, 0.0035831206, -0.052281927, -817050.9, 22930.434, 0.0, 10.00025, 9.999263 
1.02501184e+3, 2.2428627e+2, -810072.5, -876621.06, -71579.7, -0.0034552808, -0.03671071, -764411.2, -22421.625, 0.0, 9.999939, 9.999055 
1.0250296e+3, 2.3428544e+2, -755185.1, -799834.56, -66526.39, -0.013292662, -0.022118073, -707337.5, -63336.414, 0.0, 9.999645, 9.99905 
1.0250472e+3, 2.4428493e+2, -651611.56, -623403.56, -62441.75, -0.022349676, -0.008680708, -573492.75, -27484.791, 0.0, 9.999357, 9.999727 
1.0250652e+3, 2.542848e+2, -590070.06, -535660.44, -71743.914, -0.030359507, -0.0011285379, -486136.6, -38127.9, 0.0, 9.999075, 9.999792 
1.0250833e+3, 2.6428458e+2, -545540.1, -466086.3, -62946.332, -0.027284013, 0.0017865559, -431378.9, -81368.68, 0.0, 9.99872, 9.999768 
1.0251017e+3, 2.7428427e+2, -512432.78, -397611.72, -56707.77, -0.009877596, -0.004572854, -374326.88, -122314.234, 0.0, 9.998267, 9.999783 
1.02512e+3, 2.84284e+2, -457788.56, -304178.94, -49631.94, -0.006767407, -0.015580288, -289538.1, -135522.94, 0.0, 9.997899, 9.999929 
1.0251382e+3, 2.9428372e+2, -395224.2, -220104.48, -52485.88, -0.022020323, -0.037142232, -205578.61, -149560.9, 0.0, 9.997642, 9.999957 
1.0251568e+3, 3.0428398e+2, -333171.78, -51136.17, -16079.282, -0.037959415, -0.055882428, -50222.426, -50222.426, 0.0, 9.997241, 10.000976 
1.02517605e+3, 3.1428546e+2, -413573.72, -80968.19, -19783.092, -0.05361881, -0.007449262, -79795.64, -79795.64, 0.0, 9.996651, 10.001056 
1.034831e+3, 1.2427534e+2, -1450821.8, -1713908.5, -40325.125, -0.0047701783, -0.20491515, -1444779.6, 277306.03, 0.0002637313, 10.002358, 9.99887 
1.0348507e+3, 1.3427486e+2, -1421957.9, -1661111.9, -5584.636, 0.060576756, -0.13150626, -1421827.5, 202265.0, 0.00010469639, 10.001933, 9.998766 
1.0348691e+3, 1.442737e+2, -1338376.0, -1537526.6, -39604.363, 0.06251783, -0.13387541, -1330789.0, 195315.86, 0.000017566988, 10.001694, 9.999055 
1.034887e+3, 1.5427276e+2, -1238205.5, -1433176.3, -38546.223, 0.026901405, -0.13590862, -1230861.4, 197252.13, 0.00000023822265, 10.001686, 9.999103 
1.03490494e+3, 1.6427174e+2, -1174554.8, -1371270.5, -48445.688, 0.015535441, -0.13827674, -1163271.1, 166852.61, 0.0, 10.001534, 9.998927 
1.0349231e+3, 1.742706e+2, -1126642.1, -1297151.3, -53755.684, 0.039022915, -0.14523709, -1111109.6, 121026.23, 0.0, 10.001189, 9.99893 
1.0349409e+3, 1.8426968e+2, -1065407.8, -1215542.8, -57755.207, 0.0343243, -0.12733322, -1045760.94, 88385.31, 0.0, 10.000931, 9.998941 
1.03495836e+3, 1.9426912e+2, -986195.56, -1124782.3, -54504.855, -0.008630431, -0.079245165, -967328.0, 68826.1, 0.0, 10.000793, 9.998958 
1.0349761e+3, 2.0426834e+2, -917763.75, -1037526.44, -59825.117, -0.02388793, -0.05254756, -892999.8, 45163.598, 0.0, 10.000576, 9.998989 
1.0349941e+3, 2.1426727e+2, -865855.06, -960052.0, -69688.16, -0.0015010056, -0.058785986, -828842.25, 11332.503, 0.0, 10.000252, 9.999004 
1.03501186e+3, 2.2426644e+2, -800382.44, -857151.2, -82955.88, 0.004952386, -0.04940738, -741089.25, 1095.283, 0.0, 9.999941, 9.999187 
1.03502914e+3, 2.3426591e+2, -743407.1, -776055.75, -77683.57, -0.010329685, -0.02155102, -680351.2, -36159.137, 0.0, 9.999647, 9.999213 
1.03504665e+3, 2.442655e+2, -666729.1, -655333.6, -72959.71, -0.025665576, 0.0047034165, -587849.5, -41651.74, 0.0, 9.999358, 9.999508 
1.0350641e+3, 2.5426522e+2, -607422.4, -571813.4, -81896.586, -0.04092208, 0.024078997, -505808.25, -57607.09, 0.0, 9.999075, 9.999544 
1.0350819e+3, 2.6426485e+2, -536401.7, -447013.16, -78988.43, -0.03333287, 0.01718806, -400950.88, -50746.16, 0.0, 9.998718, 9.9999 
1.0351001e+3, 2.7426434e+2, -501000.13, -373807.34, -73158.484, 0.0045720707, -0.027719608, -340467.34, -88259.1, 0.0, 9.998266, 9.999948 
1.035118e+3, 2.8426412e+2, -460804.56, -310178.9, -58970.836, 0.006705989, -0.037783004, -289838.28, -135628.86, 0.0, 9.997896, 9.99989 
1.0351356e+3, 2.9426435e+2, -399603.63, -228334.0, -60860.043, -0.037915062, -0.0058502834, -208910.42, -152703.03, 0.0, 9.997637, 9.999904 
1.03515394e+3, 3.0426455e+2, -338273.4, -60810.582, -36135.313, -0.04965948, -0.021777634, -56181.73, -56181.73, 0.0, 9.997236, 10.000913 
1.0351731e+3, 3.1426516e+2, -419066.22, -91637.28, -40111.848, -0.018256702, -0.053863302, -86794.97, -86794.97, 0.0, 9.996647, 10.000985 
1.0448337e+3, 1.24256894e+2, -1423018.6, -1708112.5, -23204.61, 0.013606341, -0.19409977, -1421142.3, 301124.44, 0.00031664252, 10.002583, 9.998801 
1.0448528e+3, 1.3425618e+2, -1381316.9, -1652094.4, 13027.863, 0.061763614, -0.13385892, -1380691.5, 243584.16, 0.00013079311, 10.002258, 9.998671 
1.04487084e+3, 1.4425492e+2, -1300299.3, -1531457.9, -9951.923, 0.052003607, -0.13442059, -1299871.6, 226417.17, 0.000024312307, 10.002008, 9.998944 
1.04488865e+3, 1.5425394e+2, -1224025.8, -1438644.5, -17628.818, 0.022919718, -0.13114746, -1222587.4, 205710.56, 0.0000004785213, 10.001837, 9.998992 
1.0449065e+3, 1.6425282e+2, -1167046.6, -1377634.6, -38417.742, 0.015049125, -0.13300037, -1160257.0, 170052.13, 0.0, 10.001629, 9.998837 
1.0449243e+3, 1.7425154e+2, -1104925.5, -1296076.5, -40751.934, 0.037419964, -0.14528865, -1096600.1, 135722.56, 0.0, 10.001379, 9.998845 
1.0449419e+3, 1.8425053e+2, -1035267.7, -1204066.0, -41365.22, 0.030107483, -0.13135079, -1025675.9, 108657.93, 0.0, 10.001151, 9.998914 
1.0449591e+3, 1.9424993e+2, -964161.8, -1116702.5, -46028.785, -0.017266342, -0.08592304, -951349.0, 84992.58, 0.0, 10.000957, 9.998934 
1.04497656e+3, 2.0424907e+2, -913681.44, -1049292.4, -59215.965, -0.033214092, -0.059896633, -891464.06, 46887.617, 0.0, 10.000664, 9.998865 
1.0449943e+3, 2.142479e+2, -876222.6, -979469.4, -60180.73, -0.006551217, -0.0636382, -848557.3, -8192.437, 0.0, 10.000244, 9.998874 
1.0450117e+3, 2.2424702e+2, -802771.9, -851466.9, -67385.47, 0.002954504, -0.052815545, -755470.2, -13095.127, 0.0, 9.999895, 9.999248 
1.0450288e+3, 2.3424658e+2, -738740.94, -765192.7, -68587.66, -0.010921481, -0.025405582, -682115.56, -37734.418, 0.0, 9.999642, 9.9992895 
1.0450459e+3, 2.4424621e+2, -676363.5, -660910.5, -63907.97, -0.02510065, 0.00088510104, -604263.6, -57877.367, 0.0, 9.999297, 9.999498 
1.045063e+3, 2.5424594e+2, -644191.1, -590945.4, -56433.99, -0.039684247, 0.02130417, -555169.75, -106779.8, 0.0, 9.99883, 9.999531 
1.0450804e+3, 2.642456e+2, -573919.8, -459194.9, -47142.574, -0.03344108, 0.016780788, -442308.63, -91915.305, 0.0, 9.998437, 9.999951 
1.04509816e+3, 2.7424517e+2, -514905.0, -374000.8, -49235.59, 0.0006282356, -0.024349803, -358501.5, -106105.53, 0.0, 9.998143, 10.000005 
1.0451158e+3, 2.84245e+2, -472700.03, -307882.16, -35339.945, 0.002872581, -0.03479205, -300624.25, -146227.86, 0.0, 9.997782, 9.99996 
1.045133e+3, 2.9424527e+2, -439359.2, -239092.63, -28586.346, -0.036552392, -0.00881734, -235092.08, -178698.33, 0.0, 9.997329, 9.999977 
1.0451511e+3, 3.042455e+2, -394170.16, -87764.65, -3698.6492, -0.03982168, -0.026072178, -87720.01, -87720.01, 0.0, 9.996855, 10.000911 
1.0451698e+3, 3.1424612e+2, -463317.22, -114507.51, -4212.9556, 0.0039477115, -0.05819644, -114456.63, -114456.63, 0.0, 9.996351, 10.000969 
1.0548365e+3, 1.2423902e+2, -1419843.4, -1702234.1, -28463.063, 0.038674258, -0.1622677, -1417003.0, 305440.34, 0.0003754382, 10.002584, 9.998841 
1.05485484e+3, 1.3423814e+2, -1379829.1, -1650087.6, 1231.7091, 0.047373306, -0.119218335, -1379823.5, 244629.25, 0.00016041061, 10.002263, 9.998682 
1.05487265e+3, 1.4423673e+2, -1315327.9, -1563778.5, -16313.081, 0.027716914, -0.12758169, -1314261.4, 212205.69, 0.000032450233, 10.002012, 9.998721 
1.05489075e+3, 1.5423535e+2, -1240497.9, -1473397.8, -24121.516, 0.04512737, -0.13969147, -1238025.9, 190454.47, 0.0000008393984, 10.001839, 9.998753 
1.0549083e+3, 1.6423413e+2, -1170567.9, -1385585.1, -47621.773, 0.041559983, -0.13660559, -1160492.8, 169999.92, 0.0, 10.001631, 9.998782 
1.0549254e+3, 1.7423314e+2, -1107035.0, -1301450.0, -50187.45, 0.010383177, -0.11579734, -1094843.8, 137659.78, 0.0, 10.001383, 9.998807 
1.0549426e+3, 1.8423206e+2, -1043781.0, -1222774.5, -49196.59, -0.010888824, -0.10163, -1031150.5, 103364.86, 0.0, 10.001155, 9.998784 
1.0549601e+3, 1.9423085e+2, -973336.0, -1136541.3, -53698.938, -0.018637503, -0.100350924, -957252.56, 79275.63, 0.0, 10.000959, 9.998797 
1.0549774e+3, 2.0422977e+2, -914304.94, -1051451.9, -74737.8, -0.019694304, -0.088851064, -881448.4, 57092.004, 0.0, 10.000667, 9.99885 
1.05499454e+3, 2.1422885e+2, -876068.5, -980057.75, -76288.516, -0.011632451, -0.06688531, -835741.0, 4810.5, 0.0, 10.000247, 9.998869 
1.05501145e+3, 2.2422805e+2, -803289.7, -853326.0, -77576.734, -0.009572133, -0.04695917, -746796.75, -4235.7495, 0.0, 9.999898, 9.999234 
1.05502844e+3, 2.3422746e+2, -739208.94, -766682.75, -78100.39, -0.015193891, -0.033654638, -673646.56, -29078.154, 0.0, 9.999643, 9.999279 
1.0550453e+3, 2.4422705e+2, -662882.9, -633321.9, -80779.555, -0.020958457, -0.019716145, -565981.75, -19408.27, 0.0, 9.999298, 9.999688 
1.05506204e+3, 2.542269e+2, -629367.0, -560677.5, -73742.45, -0.027292391, -0.008434334, -513674.16, -65098.945, 0.0, 9.998831, 9.999739 
1.05507895e+3, 2.6422676e+2, -575808.7, -463430.06, -58296.965, -0.027994946, 0.0010281152, -438651.63, -88075.336, 0.0, 9.998437, 9.999923 
1.0550961e+3, 2.7422678e+2, -518481.5, -380964.8, -59679.55, -0.021197366, 0.004243323, -358677.25, -106101.03, 0.0, 9.99814, 9.999959 
1.0551134e+3, 2.8422666e+2, -461725.6, -284157.2, -51345.6, -0.018031158, -0.007364227, -270379.2, -115802.69, 0.0, 9.997776, 10.000126 
1.0551306e+3, 2.9422647e+2, -426757.8, -212298.73, -44875.355, -0.01931831, -0.043310832, -203287.27, -146710.2, 0.0, 9.997326, 10.000163 
1.0551482e+3, 3.042268e+2, -390454.47, -79980.45, -21743.768, -0.009966102, -0.066299796, -78465.04, -78465.04, 0.0, 9.996853, 10.000965 
1.0551661e+3, 3.142282e+2, -460335.47, -108450.47, -22123.47, 0.012326913, -0.020533087, -107064.99, -107064.99, 0.0, 9.99635, 10.001012 
1.0648394e+3, 1.2422133e+2, -1401197.8, -1709258.4, -12599.208, 0.048830673, -0.13345629, -1400683.3, 321934.47, 0.00044022893, 10.002783, 9.998697 
1.0648573e+3, 1.3422002e+2, -1336598.5, -1649413.0, -4388.5874, 0.049461022, -0.115623064, -1336536.9, 288094.28, 0.0001936281, 10.002647, 9.998501 
1.0648749e+3, 1.4421843e+2, -1260347.6, -1541876.0, -24954.059, 0.024150271, -0.12872551, -1258152.9, 268493.9, 0.00004209593, 10.002411, 9.998678 
1.0648927e+3, 1.5421705e+2, -1215800.8, -1464624.6, -17539.246, 0.052157037, -0.13905303, -1214570.6, 214089.08, 0.0000013547506, 10.002023, 9.998723 
1.0649101e+3, 1.6421576e+2, -1160186.0, -1394696.1, -30789.89, 0.045550134, -0.13447319, -1156210.9, 174461.66, 0.0, 10.001764, 9.998655 
1.06492676e+3, 1.7421465e+2, -1072095.3, -1299760.3, -40476.59, -0.006706589, -0.11285538, -1065113.1, 167571.98, 0.0, 10.001689, 9.998671 
1.06494375e+3, 1.8421349e+2, -1004109.2, -1205613.5, -45907.434, -0.030798085, -0.09870439, -994143.25, 140554.48, 0.0, 10.001437, 9.998765 
1.064961e+3, 1.9421226e+2, -975404.94, -1138188.1, -41248.863, -0.017022613, -0.09812609, -965549.25, 71161.17, 0.0, 10.000949, 9.99879 
1.064978e+3, 2.0421118e+2, -932880.56, -1061947.5, -57231.75, -0.011015713, -0.08658799, -911158.3, 27564.262, 0.0, 10.000546, 9.998835 
1.0649946e+3, 2.1421026e+2, -874276.06, -980876.56, -59617.402, -0.015523131, -0.06370489, -847606.6, -6872.649, 0.0, 10.000267, 9.998854 
1.06501125e+3, 2.2420947e+2, -802917.4, -850648.44, -61337.727, -0.018626314, -0.042985518, -760965.9, -18222.418, 0.0, 9.99989, 9.999256 
1.0650279e+3, 2.3420893e+2, -775347.0, -780952.3, -59474.008, -0.019324606, -0.028902408, -718609.6, -73859.336, 0.0, 9.999383, 9.999307 
1.0650443e+3, 2.442085e+2, -701099.1, -639679.7, -62917.992, -0.020871172, -0.021710398, -600376.8, -53621.855, 0.0, 9.998984, 9.999795 
1.0650608e+3, 2.542083e+2, -635569.0, -550656.06, -63042.68, -0.023891414, -0.027701514, -517106.4, -68349.88, 0.0, 9.998733, 9.999854 
1.06507726e+3, 2.6420823e+2, -588106.9, -467923.9, -52731.563, -0.026311126, -0.021708995, -448067.9, -97310.81, 0.0, 9.998347, 9.999935 
1.065094e+3, 2.7420837e+2, -570813.44, -405390.3, -50932.33, -0.028081411, -0.0029894575, -390966.38, -138210.33, 0.0, 9.997778, 9.999965 
1.06511086e+3, 2.8420842e+2, -517898.72, -294789.22, -39308.266, -0.021618871, -0.006855341, -288066.3, -133311.11, 0.0, 9.997321, 10.000272 
1.0651279e+3, 2.9420835e+2, -459766.66, -210331.95, -34710.184, -0.0038616913, -0.04586667, -205591.92, -148837.47, 0.0, 9.997023, 10.000322 
1.0651451e+3, 3.042087e+2, -411365.1, -77338.76, -14790.084, 0.008093333, -0.07533931, -76685.16, -76685.16, 0.0, 9.996655, 10.001079 
1.0651625e+3, 3.142103e+2, -474918.97, -102716.516, -11608.969, 0.010348863, -0.026374858, -102354.79, -102354.79, 0.0, 9.996197, 10.001124 
1.0748421e+3, 1.2420388e+2, -1425114.1, -1759280.6, -10453.994, 0.04139063, -0.10767858, -1424787.4, 298001.78, 0.0005108164, 10.002784, 9.998354 
1.0748601e+3, 1.3420184e+2, -1363397.8, -1705877.6, -9572.507, 0.06865946, -0.12383211, -1363130.4, 261680.17, 0.00023041679, 10.00265, 9.998113 
1.07487746e+3, 1.442001e+2, -1249840.4, -1521289.5, -38769.945, 0.042371687, -0.13839027, -1244411.5, 282416.03, 0.000053336094, 10.002416, 9.998818 
1.0748947e+3, 1.541991e+2, -1202295.8, -1437419.9, -32351.441, 0.043319687, -0.12890851, -1197925.8, 230909.88, 0.0000020676762, 10.002026, 9.998909 
1.07491165e+3, 1.641978e+2, -1174210.0, -1424572.8, -34575.977, 0.025799694, -0.1262668, -1169522.6, 161325.48, 0.0000000000166348, 10.001767, 9.998449 
1.07492834e+3, 1.7419611e+2, -1088428.4, -1334668.1, -43360.23, -0.014009208, -0.13708925, -1081016.3, 151850.64, 0.0, 10.001693, 9.998429 
1.0749452e+3, 1.8419485e+2, -997132.7, -1192282.5, -63512.52, -0.029469773, -0.12332735, -978282.94, 156597.86, 0.0, 10.001441, 9.998856 
1.074962e+3, 1.941942e+2, -966460.8, -1120458.8, -60033.664, -0.012454613, -0.07919488, -945823.3, 91064.77, 0.0, 10.000952, 9.998911 
1.0749786e+3, 2.0419331e+2, -933502.56, -1064045.8, -68715.37, -0.0073419786, -0.052777696, -903999.8, 34898.44, 0.0, 10.000549, 9.99882 
1.0749949e+3, 2.1419212e+2, -875859.25, -984916.75, -70337.375, -0.018372485, -0.054040268, -841389.5, -477.2545, 0.0, 10.00027, 9.998825 
1.0750111e+3, 2.2419128e+2, -798708.9, -842735.3, -79976.75, -0.024428843, -0.040947895, -737771.1, 5151.184, 0.0, 9.999893, 9.99931 
1.0750272e+3, 2.3419093e+2, -770533.94, -771935.6, -78543.445, -0.02357781, -0.011358248, -692688.2, -47761.344, 0.0, 9.999386, 9.999367 
1.0750433e+3, 2.4419056e+2, -699096.6, -636335.56, -72979.02, -0.025065038, -0.0053915707, -588276.3, -41345.504, 0.0, 9.998987, 9.999817 
1.0750595e+3, 2.5419012e+2, -633947.56, -547522.6, -72114.22, -0.02941394, -0.036722846, -506665.03, -57731.08, 0.0, 9.998733, 9.999876 
1.0750757e+3, 2.6418984e+2, -584803.6, -461080.34, -72785.805, -0.02845472, -0.051054154, -427419.0, -76483.2, 0.0, 9.998346, 9.999983 
1.0750918e+3, 2.7418995e+2, -567037.8, -397994.3, -71736.67, -0.020881237, -0.044399496, -371655.44, -118719.88, 0.0, 9.997779, 10.000016 
1.0751083e+3, 2.841902e+2, -509057.84, -276713.7, -50883.8, -0.008979097, -0.03213992, -266058.66, -111125.92, 0.0, 9.997321, 10.000397 
1.075125e+3, 2.9419082e+2, -451043.88, -191495.42, -45262.145, 0.009587049, -0.018266167, -183828.72, -126902.375, 0.0, 9.997019, 10.000454 
1.0751419e+3, 3.0419126e+2, -400548.3, -54479.887, -30963.574, 0.014791235, -0.054745663, -51731.332, -51731.332, 0.0, 9.996653, 10.001237 
1.0751584e+3, 3.1419235e+2, -462011.53, -77737.22, -28526.16, -0.0016880049, -0.07280675, -75631.16, -75631.16, 0.0, 9.996203, 10.001293 
1.0848451e+3, 1.2418623e+2, -1369031.4, -1736617.3, -14101.613, 0.054580685, -0.09662086, -1368491.1, 354471.88, 0.0005868399, 10.003189, 9.998314 
1.08486295e+3, 1.3418402e+2, -1340230.8, -1700802.0, 4515.014, 0.07744171, -0.123949334, -1340174.3, 284811.44, 0.00027068684, 10.002837, 9.998056 
1.08487986e+3, 1.4418228e+2, -1237494.4, -1522380.6, -20294.88, 0.043873344, -0.1335871, -1236055.9, 290946.88, 0.00006622561, 10.002533, 9.998754 
1.0848967e+3, 1.541812e+2, -1169646.6, -1429135.3, -33812.67, 0.037962466, -0.124855824, -1165313.1, 263698.6, 0.000003027, 10.002283, 9.998841 
1.08491346e+3, 1.6417988e+2, -1137802.9, -1402590.6, -34059.336, 0.019093866, -0.12398897, -1133492.0, 197532.55, 0.000000000186287, 10.001999, 9.998487 
1.0849301e+3, 1.741782e+2, -1088868.5, -1329423.9, -20852.22, -0.0145798195, -0.13764128, -1087074.4, 145968.22, 0.0, 10.001667, 9.998477 
1.08494654e+3, 1.8417697e+2, -1018870.2, -1206391.9, -41510.62, -0.027843704, -0.12166267, -1010092.1, 124964.055, 0.0, 10.001308, 9.998821 
1.08496286e+3, 1.9417638e+2, -974130.44, -1128701.8, -51018.016, -0.013943567, -0.06848081, -958809.9, 78253.54, 0.0, 10.000919, 9.99887 
1.0849791e+3, 2.0417549e+2, -933265.3, -1060279.9, -60975.625, -0.009853966, -0.040825397, -908731.7, 30341.938, 0.0, 10.000536, 9.998852 
1.0849951e+3, 2.1417424e+2, -889002.75, -986698.7, -57505.027, -0.019154316, -0.051794477, -862399.06, -21311.213, 0.0, 10.00016, 9.998865 
1.08501084e+3, 2.241734e+2, -806261.2, -840139.06, -67127.82, -0.025392052, -0.042460155, -753968.1, -10870.517, 0.0, 9.999815, 9.999365 
1.0850266e+3, 2.3417318e+2, -747966.4, -754464.94, -66463.44, -0.027621763, -0.007942653, -684672.8, -39571.83, 0.0, 9.999513, 9.999426 
1.0850422e+3, 2.4417284e+2, -682067.56, -628235.75, -62064.1, -0.028972933, 0.00053273694, -587502.44, -40398.137, 0.0, 9.9991045, 9.999816 
1.0850581e+3, 2.5417238e+2, -661141.5, -560986.4, -63467.31, -0.02870025, -0.032214437, -530219.25, -81111.75, 0.0, 9.9985485, 9.999872 
1.0850739e+3, 2.6417208e+2, -620236.7, -470281.94, -66747.79, -0.022730686, -0.053954434, -444875.7, -93766.05, 0.0, 9.99807, 10.000052 
1.0850896e+3, 2.741721e+2, -572800.7, -392198.22, -64275.133, -0.009504748, -0.06225326, -371659.0, -118549.08, 0.0, 9.997704, 10.000092 
1.0851057e+3, 2.8417248e+2, -516470.22, -275510.6, -44606.7, 0.0023703724, -0.045201823, -267518.06, -112411.836, 0.0, 9.997251, 10.000439 
1.0851219e+3, 2.9417342e+2, -497886.9, -209486.45, -45739.566, 0.013207261, -0.00073351694, -202406.1, -145308.97, 0.0, 9.996678, 10.000494 
1.0851383e+3, 3.041739e+2, -435984.56, -66193.88, -29464.795, 0.013375881, -0.039450955, -63860.86, -63860.86, 0.0, 9.9963875, 10.001284 
1.0851548e+3, 3.1417477e+2, -415004.5, -48924.035, -34922.457, -0.0046266722, -0.083264686, -45622.367, -45622.367, 0.0, 9.996501, 10.001348 
1.09484866e+3, 1.2416839e+2, -1349079.4, -1695729.5, -19647.0, 0.088247456, -0.10416244, -1347969.4, 375170.03, 0.00066826155, 10.003191, 9.998594 
1.0948657e+3, 1.3416664e+2, -1319451.5, -1658046.6, -8833.19, 0.0749012, -0.11529082, -1319221.1, 305934.9, 0.00031450897, 10.002838, 9.99835 
1.0948822e+3, 1.4416504e+2, -1256878.8, -1563194.1, -29565.72, 0.027286822, -0.11343684, -1254051.3, 273120.3, 0.000080840386, 10.002534, 9.998473 
1.09489895e+3, 1.5416339e+2, -1192694.8, -1477892.4, -43279.32, 0.035971567, -0.12731647, -1186271.6, 242915.92, 0.0000043066148, 10.002286, 9.998506 
1.0949155e+3, 1.6416198e+2, -1117524.5, -1361388.8, -46598.797, 0.025675146, -0.12802327, -1108923.5, 222277.9, 0.0000000006358386, 10.002002, 9.998769 
1.0949317e+3, 1.7416094e+2, -1064764.6, -1279999.3, -33557.34, -0.008422147, -0.113866515, -1059654.0, 173557.97, 0.0, 10.001669, 9.998816 
1.0949479e+3, 1.8415987e+2, -1029867.8, -1229876.8, -56264.37, -0.0260605, -0.09298615, -1015126.56, 120096.91, 0.0, 10.00131, 9.99866 
1.0949638e+3, 1.9415879e+2, -988365.94, -1159080.3, -65923.13, -0.021630673, -0.06603513, -965872.7, 71363.58, 0.0, 10.000922, 9.99866 
1.0949795e+3, 2.0415771e+2, -927607.75, -1049378.8, -75474.68, -0.018900799, -0.051055204, -891521.75, 47727.008, 0.0, 10.000539, 9.998926 
1.0949952e+3, 2.1415661e+2, -881353.4, -971674.75, -71880.42, -0.018193392, -0.057085454, -841624.25, -363.52875, 0.0, 10.000163, 9.998967 
1.0950107e+3, 2.2415587e+2, -801957.25, -831950.6, -78924.25, -0.021763539, -0.047426302, -736617.5, 6651.648, 0.0, 9.999817, 9.99942 
1.095026e+3, 2.3415563e+2, -743999.3, -746795.44, -77775.82, -0.031517845, -0.018395655, -667609.0, -22336.379, 0.0, 9.999515, 9.999478 
1.0950414e+3, 2.4415538e+2, -683643.5, -632043.0, -82009.45, -0.032732856, -0.00391155, -571871.1, -24595.729, 0.0, 9.999106, 9.999789 
1.0950566e+3, 2.541551e+2, -663008.8, -565505.8, -83980.54, -0.022227766, -0.014714566, -517152.03, -67874.77, 0.0, 9.99855, 9.999841 
1.095072e+3, 2.641549e+2, -614058.0, -457903.34, -80635.86, -0.009713388, -0.031177407, -423738.94, -72460.15, 0.0, 9.998071, 10.000137 
1.0950875e+3, 2.741548e+2, -566200.9, -378147.72, -77357.82, 0.0056283693, -0.057282824, -350415.4, -97136.01, 0.0, 9.997701, 10.00019 
1.095103e+3, 2.841552e+2, -519651.88, -281754.9, -64824.086, 0.012349399, -0.04640186, -265237.88, -109961.96, 0.0, 9.997248, 10.000398 
1.0951185e+3, 2.9415616e+2, -500758.7, -216586.27, -66315.38, 0.0074424916, 0.007352883, -201872.53, -144605.56, 0.0, 9.996682, 10.000444 
1.0951346e+3, 3.0415657e+2, -439758.28, -75189.75, -26491.111, 0.003911852, -0.029294856, -73274.85, -73274.85, 0.0, 9.996391, 10.001221 
1.0951514e+3, 3.1415758e+2, -420076.53, -57568.55, -29379.145, -0.00044226504, -0.056570657, -55202.98, -55202.98, 0.0, 9.996491, 10.001293 
1.1048522e+3, 1.2415118e+2, -1278705.5, -1660444.5, 16310.266, 0.10265654, -0.10542883, -1278009.9, 445299.25, 0.00075576623, 10.00367, 9.998605 
1.1048688e+3, 1.3414952e+2, -1280664.1, -1635989.8, -1758.1779, 0.079958744, -0.10993309, -1280655.4, 344668.94, 0.00036234639, 10.003092, 9.998379 
1.1048849e+3, 1.44148e+2, -1241332.4, -1565556.8, -18105.262, 0.027610518, -0.09610898, -1240324.5, 287014.38, 0.00009737699, 10.002685, 9.9983835 
1.1049012e+3, 1.541462e+2, -1169259.0, -1477562.8, -13725.68, 0.028093046, -0.11741869, -1168649.1, 260708.13, 0.0000060098255, 10.002496, 9.998406 
1.10491745e+3, 1.6414474e+2, -1086554.4, -1342522.6, -21589.738, 0.018951092, -0.11916567, -1084746.3, 246625.55, 0.0000000015512864, 10.002199, 9.998803 
1.1049335e+3, 1.7414382e+2, -1048113.7, -1266723.0, -31311.627, -0.000728402, -0.09725639, -1043717.3, 189663.25, 0.0, 10.001762, 9.998861 
1.1049492e+3, 1.8414277e+2, -1024136.4, -1231023.1, -60997.445, -0.01695722, -0.07625847, -1007491.4, 127900.42, 0.0, 10.001368, 9.998624 
1.1049646e+3, 1.9414155e+2, -975089.1, -1157395.5, -58380.22, -0.029501231, -0.059472747, -957996.5, 79409.74, 0.0, 10.001035, 9.998617 
1.10497996e+3, 2.0414041e+2, -907717.1, -1031948.06, -63634.516, -0.03146822, -0.050369088, -880907.44, 58511.703, 0.0, 10.000642, 9.998995 
1.1049954e+3, 2.1413939e+2, -875313.3, -959668.6, -61928.03, -0.018185101, -0.056559253, -842564.1, -1134.2552, 0.0, 10.000166, 9.999048 
1.1050106e+3, 2.241387e+2, -812488.56, -830421.7, -67628.29, -0.015157872, -0.048256405, -753235.0, -9797.578, 0.0, 9.999718, 9.999478 
1.1050255e+3, 2.3413849e+2, -770491.3, -753178.1, -66212.695, -0.026574558, -0.022304436, -695058.56, -49618.03, 0.0, 9.999306, 9.999535 
1.1050404e+3, 2.4413827e+2, -711769.5, -643944.44, -73062.695, -0.029296633, -0.0072646285, -597307.5, -49864.57, 0.0, 9.998907, 9.999804 
1.1050552e+3, 2.5413805e+2, -665802.44, -565678.5, -72704.555, -0.02026936, -0.012568967, -527467.3, -78022.9, 0.0, 9.998527, 9.99985 
1.1050702e+3, 2.6413792e+2, -616368.56, -453230.06, -70787.23, -0.006002967, -0.025549397, -426797.6, -75352.16, 0.0, 9.998031, 10.000189 
1.1050851e+3, 2.741379e+2, -610154.9, -393026.9, -70955.56, 0.01575805, -0.05068857, -371895.75, -118450.38, 0.0, 9.997373, 10.000245 
1.1051002e+3, 2.8413832e+2, -560241.8, -297730.72, -51025.875, 0.021785786, -0.040512946, -288161.34, -132719.89, 0.0, 9.996955, 10.000428 
1.1051153e+3, 2.941393e+2, -470148.63, -198592.55, -46275.305, 0.006016159, 0.00968994, -190923.45, -133490.94, 0.0, 9.996879, 10.000472 
1.105131e+3, 3.0413967e+2, -416829.06, -67118.48, -1466.5017, -0.0009298533, -0.03343199, -67112.32, -67112.32, 0.0, 9.996563, 10.001193 
1.1051476e+3, 3.1414074e+2, -504710.9, -99950.24, -2361.0427, 0.0022091093, -0.04807968, -99936.47, -99936.47, 0.0, 9.995918, 10.001278 
1.1148557e+3, 1.2413462e+2, -1297500.3, -1700234.4, 2964.3315, 0.09367568, -0.10435854, -1297478.4, 425993.06, 0.00085056474, 10.003673, 9.998331 
1.11487195e+3, 1.3413273e+2, -1298252.4, -1672932.6, -23630.22, 0.09277543, -0.108281985, -1296768.0, 328721.94, 0.00041499882, 10.003093, 9.998125 
1.1148877e+3, 1.4413124e+2, -1233917.6, -1550421.9, -26235.64, 0.045691226, -0.0816687, -1231757.8, 295746.63, 0.00011616446, 10.002686, 9.998487 
1.11490354e+3, 1.5412965e+2, -1159049.8, -1457086.0, -20730.656, 0.01384622, -0.094304435, -1157614.8, 271905.4, 0.000008247579, 10.002499, 9.998546 
1.1149194e+3, 1.6412817e+2, -1101582.4, -1374817.3, -37439.31, -0.0019374462, -0.09679519, -1096545.3, 234989.69, 0.0000000033697685, 10.002203, 9.99858 
1.1149354e+3, 1.7412686e+2, -1065716.8, -1304242.8, -48097.75, 0.008269846, -0.08817608, -1056383.3, 177164.98, 0.0, 10.001765, 9.998603 
1.1149508e+3, 1.8412566e+2, -1017747.0, -1218568.4, -74243.43, -0.00056051294, -0.071935035, -993280.2, 142280.88, 0.0, 10.00137, 9.998709 
1.1149656e+3, 1.9412462e+2, -966181.0, -1139753.0, -71250.56, -0.03773714, -0.048741356, -940679.6, 96893.52, 0.0, 10.001038, 9.998737 
1.1149805e+3, 2.0412359e+2, -902889.2, -1022822.06, -81396.9, -0.0477802, -0.03863504, -861754.56, 77830.07, 0.0, 10.000645, 9.999057 
1.1149955e+3, 2.1412258e+2, -870844.1, -951230.06, -80108.586, -0.019263783, -0.050258517, -821410.9, 20184.246, 0.0, 10.000169, 9.999105 
1.1150104e+3, 2.241219e+2, -808191.2, -822244.2, -83435.66, -0.005786363, -0.045152202, -731486.7, 12115.629, 0.0, 9.99972, 9.999535 
1.1150249e+3, 2.3412175e+2, -766060.1, -744600.94, -81647.85, -0.013189918, -0.019849118, -672980.7, -27375.994, 0.0, 9.999308, 9.999593 
1.11503944e+3, 2.4412154e+2, -708308.5, -637145.06, -87272.38, -0.018994886, -0.009475649, -578479.6, -30872.633, 0.0, 9.998908, 9.99985 
1.11505374e+3, 2.5412127e+2, -662637.25, -559131.75, -86553.58, -0.022807173, -0.025204863, -510038.75, -60429.71, 0.0, 9.998526, 9.999897 
1.1150681e+3, 2.6412117e+2, -615299.94, -451080.44, -94143.195, -0.0114655355, -0.03660979, -408270.4, -56660.645, 0.0, 9.99803, 10.000204 
1.1150825e+3, 2.7412137e+2, -608884.75, -391059.72, -95074.2, 0.020792823, -0.042732365, -355400.3, -101792.2, 0.0, 9.997375, 10.000258 
1.1150972e+3, 2.841219e+2, -553323.4, -283917.13, -55134.207, 0.030239023, -0.027735958, -273070.56, -117467.38, 0.0, 9.996956, 10.000524 
1.11511216e+3, 2.941228e+2, -463706.03, -184293.47, -48116.613, 0.008219155, 0.0069742897, -176239.63, -118645.57, 0.0, 9.996874, 10.000574 
1.1151276e+3, 3.0412307e+2, -417425.28, -67578.484, -23199.21, -0.001761206, -0.050728377, -66046.8, -66046.8, 0.0, 9.996558, 10.001193 
1.11514345e+3, 3.1412426e+2, -502872.28, -97590.375, -25832.238, 0.0028871149, -0.053163193, -95950.49, -95950.49, 0.0, 9.995924, 10.001292 
1.1248596e+3, 1.2411862e+2, -1259230.3, -1703901.6, 21143.092, 0.099329054, -0.08418453, -1258227.3, 465401.66, 0.0009537465, 10.004034, 9.998132 
1.12487525e+3, 1.341163e+2, -1238021.8, -1663230.9, -7377.5356, 0.08470067, -0.11114715, -1237893.9, 387757.56, 0.00047316175, 10.003592, 9.9979515 
1.1248905e+3, 1.4411476e+2, -1171922.8, -1527545.8, -5759.529, 0.040831827, -0.08018834, -1171829.5, 355837.28, 0.00013752929, 10.003142, 9.998425 
1.1249061e+3, 1.5411334e+2, -1137056.1, -1452295.0, -14856.871, 0.013209665, -0.071590275, -1136357.5, 293323.88, 0.00001111389, 10.002675, 9.998493 
1.12492174e+3, 1.6411185e+2, -1100005.8, -1380466.4, -37024.547, 0.0006798785, -0.06945175, -1095200.3, 236496.1, 0.0000000061074554, 10.002243, 9.998522 
1.1249372e+3, 1.7411028e+2, -1056530.6, -1306276.3, -32952.168, 0.012843939, -0.07971936, -1052256.0, 181455.98, 0.0, 10.001858, 9.998544 
1.1249523e+3, 1.8410897e+2, -1001642.56, -1205062.0, -50680.344, 0.0055487123, -0.0732962, -989715.3, 146010.25, 0.0, 10.001457, 9.998759 
1.1249667e+3, 1.9410804e+2, -961826.6, -1130771.6, -52173.734, -0.030603629, -0.047041174, -947013.2, 90723.24, 0.0, 10.001039, 9.998798 
1.12498105e+3, 2.041071e+2, -904995.0, -1017662.44, -68202.445, -0.043824237, -0.03206093, -872869.3, 66877.414, 0.0, 10.000605, 9.999111 
1.1249956e+3, 2.1410622e+2, -869670.4, -944511.4, -67778.016, -0.024558118, -0.036085963, -829668.94, 12087.308, 0.0, 10.000152, 9.999159 
1.12501e+3, 2.2410561e+2, -810197.56, -819841.2, -71379.23, -0.012750219, -0.030106718, -743477.5, 285.48593, 0.0, 9.999692, 9.999563 
1.1250242e+3, 2.3410538e+2, -776171.2, -746116.75, -72142.6, -0.01132997, -0.013570993, -687452.9, -41687.227, 0.0, 9.999225, 9.999621 
1.12503834e+3, 2.4410516e+2, -727599.2, -638845.7, -78634.625, -0.010168514, -0.008854868, -592930.1, -45162.297, 0.0, 9.998744, 9.999917 
1.1250523e+3, 2.5410497e+2, -699312.9, -568773.0, -76530.39, -0.009488844, -0.02574558, -533459.3, -83690.08, 0.0, 9.99824, 9.999968 
1.1250661e+3, 2.6410493e+2, -646353.9, -465664.28, -85142.43, -0.0019012638, -0.035238232, -431866.38, -80096.945, 0.0, 9.997816, 10.000206 
1.12508e+3, 2.7410516e+2, -589995.1, -382332.88, -87731.81, 0.014903744, -0.034673307, -350231.03, -96463.62, 0.0, 9.997507, 10.000255 
1.12509415e+3, 2.8410575e+2, -534367.4, -269737.72, -46228.902, 0.022702873, -0.017151017, -261894.34, -106132.195, 0.0, 9.997066, 10.000567 
1.1251089e+3, 2.9410666e+2, -523762.2, -207640.66, -42960.395, 0.018628357, 0.012873488, -201906.42, -144153.56, 0.0, 9.996439, 10.000623 
1.125124e+3, 3.0410692e+2, -484273.88, -91502.59, -16516.76, 0.011338914, -0.05223425, -90809.26, -90809.26, 0.0, 9.996064, 10.001266 
1.1251394e+3, 3.1410834e+2, -475967.47, -73203.72, -13177.771, -0.0025750382, -0.039687756, -72773.02, -72773.02, 0.0, 9.99606, 10.001393 
1.1348639e+3, 1.2410323e+2, -1268528.3, -1723023.0, 12161.108, 0.120142825, -0.045738727, -1268203.1, 455577.56, 0.0010656656, 10.004033, 9.998001 
1.13487855e+3, 1.3410038e+2, -1244156.3, -1677059.8, -24028.654, 0.054237656, -0.118260525, -1242826.6, 382981.38, 0.00053702114, 10.003595, 9.997855 
1.1348933e+3, 1.4409861e+2, -1188063.1, -1562445.3, -23335.82, 0.0111477235, -0.092197254, -1186614.1, 341211.44, 0.00016162105, 10.003147, 9.998182 
1.13490894e+3, 1.5409726e+2, -1154655.3, -1489648.0, -32815.797, 0.02633811, -0.049539637, -1151470.9, 278369.53, 0.000014669085, 10.002678, 9.998236 
1.1349242e+3, 1.6409579e+2, -1092170.9, -1364897.1, -52050.17, 0.027633727, -0.036980316, -1082574.8, 249281.0, 0.000000009421829, 10.002245, 9.998628 
1.1349391e+3, 1.7409411e+2, -1045974.2, -1285230.4, -47622.152, 0.012882139, -0.071727194, -1036843.8, 197027.61, 0.0, 10.001861, 9.998687 
1.13495365e+3, 1.8409275e+2, -1000445.3, -1203523.3, -66622.72, 0.0008101624, -0.08041841, -980539.9, 155345.25, 0.0, 10.00146, 9.998769 
1.1349679e+3, 1.940918e+2, -961562.44, -1131102.1, -68214.29, -0.008239877, -0.054666363, -937524.56, 100371.28, 0.0, 10.001041, 9.998795 
1.13498196e+3, 2.0409097e+2, -901630.5, -1011513.06, -85466.08, -0.019584253, -0.030909076, -854969.6, 84935.695, 0.0, 10.0006075, 9.999153 
1.13499574e+3, 2.1409033e+2, -865956.4, -937607.4, -85046.16, -0.03418339, -0.014093826, -809498.0, 32415.086, 0.0, 10.0001545, 9.999206 
1.1350094e+3, 2.240898e+2, -809919.4, -819953.4, -89109.305, -0.036216613, -0.0030952885, -725685.94, 18233.406, 0.0, 9.999694, 9.999562 
1.1350233e+3, 2.340894e+2, -776080.3, -746570.94, -89636.88, -0.020950928, -0.0034281006, -670482.5, -24559.11, 0.0, 9.999227, 9.999619 
1.1350371e+3, 2.4408916e+2, -721580.3, -626944.3, -97264.555, -0.0030057423, -0.0055035003, -566098.6, -18173.02, 0.0, 9.998745, 9.999998 
1.1350508e+3, 2.5408912e+2, -692679.56, -555455.0, -95101.71, 0.018930722, -0.014620474, -506798.44, -56873.277, 0.0, 9.998241, 10.000058 
1.1350642e+3, 2.6408914e+2, -647265.94, -467767.2, -96929.625, 0.021983478, -0.02171032, -425416.97, -73492.36, 0.0, 9.997816, 10.000193 
1.13507725e+3, 2.7408934e+2, -591784.1, -385925.75, -98539.33, -0.0018342611, -0.026145961, -346361.34, -92437.875, 0.0, 9.997505, 10.000231 
1.13509096e+3, 2.8408986e+2, -535109.56, -271332.1, -68209.016, -0.0006851784, -0.00840906, -254738.14, -98819.51, 0.0, 9.997065, 10.000558 
1.1351056e+3, 2.940908e+2, -523826.63, -208638.4, -65936.5, 0.03640507, 0.027053118, -195400.66, -137491.38, 0.0, 9.996442, 10.000615 
1.1351204e+3, 3.0409116e+2, -473692.28, -70601.445, -18134.77, 0.037214614, -0.03851107, -69787.22, -69787.22, 0.0, 9.996068, 10.001409 
1.1351352e+3, 3.1409296e+2, -463147.13, -46217.13, -12486.15, -0.014979622, -0.0038446558, -45843.53, -45843.53, 0.0, 9.9960575, 10.001581 
1.14486806e+3, 1.2408778e+2, -1228970.0, -1715011.1, 20592.521, 0.11964279, -0.034048516, -1228099.1, 495833.9, 0.0011858394, 10.004354, 9.997901 
1.1448821e+3, 1.3408484e+2, -1204185.4, -1664461.6, -20234.193, 0.046150096, -0.10773808, -1203297.6, 422663.16, 0.00060623867, 10.0039, 9.997794 
1.14489675e+3, 1.44083e+2, -1161383.3, -1564495.1, -17179.943, 0.01706741, -0.08149472, -1160652.4, 367326.9, 0.00018835878, 10.003396, 9.998049 
1.1449119e+3, 1.540814e+2, -1147763.0, -1502320.6, -18725.346, 0.03972, -0.048491135, -1146776.9, 283220.16, 0.000018936791, 10.002795, 9.998092 
1.1449266e+3, 1.640799e+2, -1076753.4, -1348833.4, -27738.23, 0.039092254, -0.03401962, -1073954.4, 258058.33, 0.000000013934886, 10.002315, 9.998704 
1.1449409e+3, 1.7407852e+2, -1016578.2, -1259823.3, -26158.277, 0.009686848, -0.05086683, -1013797.0, 220228.47, 0.0, 10.002015, 9.998787 
1.1449551e+3, 1.8407723e+2, -971913.0, -1183175.5, -49470.914, -0.0056124725, -0.05875679, -960902.4, 175135.64, 0.0, 10.001629, 9.998827 
1.1449691e+3, 1.940761e+2, -946731.0, -1117714.5, -47415.84, -0.0018666609, -0.056477986, -934462.3, 103587.72, 0.0, 10.001118, 9.99885 
1.14498265e+3, 2.0407528e+2, -896456.75, -1007622.25, -62693.293, -0.01118712, -0.036807407, -868254.7, 71804.88, 0.0, 10.000638, 9.999165 
1.14499584e+3, 2.140749e+2, -858171.6, -932789.1, -65281.105, -0.039023343, 0.0032439579, -820290.2, 21775.393, 0.0, 10.000204, 9.999214 
1.145009e+3, 2.2407445e+2, -802225.5, -814978.0, -72105.26, -0.044285703, 0.023212962, -736215.1, 7856.0063, 0.0, 9.9997425, 9.999573 
1.1450226e+3, 2.3407397e+2, -772789.56, -743647.3, -71928.97, -0.018117491, 0.011833296, -684828.44, -38752.504, 0.0, 9.999245, 9.999629 
1.1450359e+3, 2.4407366e+2, -722158.56, -628617.3, -83033.29, 0.0036738142, 0.004012874, -580088.3, -32009.709, 0.0, 9.998748, 9.999985 
1.14504896e+3, 2.5407362e+2, -691953.94, -556757.2, -89200.65, 0.019357374, -0.0035109192, -512434.63, -62356.445, 0.0, 9.998255, 10.000043 
1.1450619e+3, 2.6407367e+2, -648515.7, -461241.7, -89156.02, 0.020169869, -0.010567182, -425585.66, -73508.28, 0.0, 9.997778, 10.000255 
1.14507474e+3, 2.740739e+2, -613222.2, -388211.4, -83803.97, 0.00003127169, -0.016864285, -360429.34, -106353.875, 0.0, 9.997325, 10.000301 
1.1450879e+3, 2.8407446e+2, -562673.75, -290946.5, -55385.406, -0.0006891496, 0.002637589, -280091.13, -124020.75, 0.0, 9.996903, 10.0005 
1.1451019e+3, 2.940754e+2, -515799.53, -212662.64, -58020.46, 0.026176115, 0.043799862, -201937.0, -143875.39, 0.0, 9.9965315, 10.000544 
1.1451163e+3, 3.040757e+2, -464829.44, -67441.83, -8948.2, 0.027883131, -0.023770368, -67240.44, -67240.44, 0.0, 9.996135, 10.001397 
1.1451312e+3, 3.1407762e+2, -512209.84, -65980.1, -15089.016, -0.0060368767, 0.025542611, -65470.453, -65470.453, 0.0, 9.995706, 10.001614 
1.1548722e+3, 1.2407229e+2, -1233778.8, -1724796.6, 9486.104, 0.093898304, -0.05328413, -1233595.6, 490490.03, 0.001313243, 10.004353, 9.997834 
1.15488626e+3, 1.340698e+2, -1205530.3, -1667887.5, -37504.08, 0.0612871, -0.07889672, -1202507.9, 423601.1, 0.0006802255, 10.0039015, 9.99777 
1.1549005e+3, 1.4406797e+2, -1162820.6, -1568301.1, -39388.43, 0.060414344, -0.046977002, -1159029.9, 369097.3, 0.00021757523, 10.003399, 9.998021 
1.1549148e+3, 1.5406583e+2, -1149512.0, -1506607.8, -41670.695, 0.05324047, -0.068934694, -1144713.8, 285436.7, 0.000023929451, 10.002797, 9.998062 
1.1549288e+3, 1.6406426e+2, -1073486.1, -1342795.0, -40266.273, 0.034101933, -0.061566036, -1067594.5, 264572.47, 0.000000023716384, 10.002316, 9.998745 
1.1549429e+3, 1.7406352e+2, -1012514.44, -1252340.8, -37569.723, 0.0028890234, -0.017004019, -1006766.75, 227406.92, 0.0, 10.002018, 9.998837 
1.1549567e+3, 1.8406248e+2, -964056.25, -1167910.1, -68317.35, -0.013921488, -0.0076943496, -943278.8, 192905.0, 0.0, 10.001633, 9.99893 
1.1549701e+3, 1.94061e+2, -938495.5, -1101608.0, -67015.8, -0.011774317, -0.052313015, -914493.5, 123705.2, 0.0, 10.001121, 9.99896 
1.1549831e+3, 2.0406005e+2, -897604.5, -1010859.3, -79498.2, -0.01904292, -0.049804486, -856627.44, 83581.82, 0.0, 10.000641, 9.999142 
1.154996e+3, 2.1405987e+2, -860044.2, -937472.56, -81830.19, -0.03927388, 0.015828308, -808232.3, 33981.28, 0.0, 10.000206, 9.999182 
1.1550089e+3, 2.2405955e+2, -800692.2, -812562.0, -90780.98, -0.03714228, 0.048666693, -715652.3, 28565.959, 0.0, 9.999745, 9.999589 
1.1550219e+3, 2.3405904e+2, -770890.56, -740389.7, -90664.586, -0.0032294947, 0.032112066, -663701.9, -17478.62, 0.0, 9.999247, 9.999651 
1.1550347e+3, 2.4405865e+2, -729672.1, -644777.94, -101432.3, 0.0096625555, 0.019637013, -577269.3, -29042.486, 0.0, 9.99875, 9.999874 
1.155047e+3, 2.5405845e+2, -700328.5, -574687.1, -107300.336, -0.0077485153, 0.007710938, -513170.38, -62941.99, 0.0, 9.998257, 9.99992 
1.1550594e+3, 2.6405847e+2, -639112.06, -442268.1, -105827.54, -0.0071729408, -0.001690169, -396168.94, -43941.113, 0.0, 9.99778, 10.000385 
1.15507215e+3, 2.7405888e+2, -601996.25, -365453.44, -100324.6, 0.019304931, -0.006931284, -328634.06, -74410.38, 0.0, 9.997327, 10.000458 
1.1550851e+3, 2.840595e+2, -569578.5, -305787.4, -69099.85, 0.02146302, 0.016039323, -288782.9, -132565.22, 0.0, 9.996904, 10.000398 
1.155098e+3, 2.940604e+2, -524906.0, -231795.45, -70973.23, -0.011567642, 0.06343374, -215514.47, -157304.33, 0.0, 9.9965315, 10.000413 
1.1551121e+3, 3.0406046e+2, -476811.44, -92649.34, -24125.674, -0.015927406, -0.0077122147, -91140.164, -91140.164, 0.0, 9.996136, 10.0012245 
1.1551272e+3, 3.1406233e+2, -521058.22, -85003.73, -30534.84, 0.022448624, 0.051692113, -82875.9, -82875.9, 0.0, 9.9957075, 10.001483 
1.1648766e+3, 1.2405751e+2, -1155267.9, -1690045.0, 28203.736, 0.077511504, -0.048023213, -1153784.6, 570446.7, 0.0014467208, 10.004908, 9.997806 
1.16489016e+3, 1.3405505e+2, -1194456.3, -1661263.6, -22169.56, 0.06974411, -0.07160622, -1193405.8, 432848.56, 0.00075848517, 10.003973, 9.997782 
1.16490416e+3, 1.4405324e+2, -1175970.8, -1573723.3, -13198.677, 0.08965927, -0.0406009, -1175533.3, 352739.03, 0.00024917058, 10.003305, 9.998029 
1.1649176e+3, 1.5405105e+2, -1118609.4, -1490976.8, -12516.504, 0.04984562, -0.06488061, -1118189.1, 312106.5, 0.000029664654, 10.003007, 9.998068 
1.1649311e+3, 1.640495e+2, -1034248.4, -1322115.1, -10753.585, 0.01991913, -0.05771545, -1033847.2, 298464.88, 0.00000004774233, 10.00258, 9.99876 
1.1649449e+3, 1.7404881e+2, -1019661.56, -1253896.1, -10738.159, 0.010230719, -0.01099779, -1019170.3, 215148.31, 0.0, 10.001962, 9.998854 
1.1649584e+3, 1.8404783e+2, -983653.1, -1172207.9, -42922.11, -0.0020638464, 0.0012781357, -974342.25, 161986.02, 0.0, 10.001476, 9.998976 
1.1649712e+3, 1.9404644e+2, -925398.94, -1089879.3, -46273.848, -0.020704873, -0.03873536, -913274.3, 125067.88, 0.0, 10.001188, 9.999006 
1.1649837e+3, 2.0404552e+2, -874265.6, -998189.44, -63331.23, -0.032338835, -0.037180923, -847626.6, 92725.84, 0.0, 10.000796, 9.999153 
1.1649963e+3, 2.1404526e+2, -852944.25, -932955.0, -63085.316, -0.032818634, 0.019027468, -818249.0, 24108.61, 0.0, 10.000251, 9.99919 
1.1650088e+3, 2.2404493e+2, -801985.2, -812547.1, -70880.88, -0.023751065, 0.04999945, -736188.8, 8173.5664, 0.0, 9.999735, 9.999593 
1.1650212e+3, 2.340445e+2, -769183.56, -738902.7, -72349.625, -0.0012804393, 0.042466376, -680126.25, -33759.816, 0.0, 9.999257, 9.999656 
1.1650334e+3, 2.4404413e+2, -725980.7, -645908.1, -80703.484, 0.005002108, 0.032462325, -595855.8, -47485.914, 0.0, 9.998789, 9.999846 
1.1650452e+3, 2.5404382e+2, -690671.8, -573353.94, -79983.55, -0.012300567, 0.013008253, -532825.0, -82452.445, 0.0, 9.998338, 9.999888 
1.1650573e+3, 2.6404384e+2, -624674.94, -431897.63, -78568.016, -0.011851461, 0.0014011663, -403933.13, -51560.93, 0.0, 9.997865, 10.000415 
1.1650695e+3, 2.740443e+2, -594485.0, -357869.88, -82063.08, 0.013861308, 0.0024629964, -332194.72, -77827.74, 0.0, 9.997361, 10.000492 
1.1650819e+3, 2.84045e+2, -572212.6, -312836.44, -50771.1, 0.016943177, 0.0301169, -303252.5, -146891.94, 0.0, 9.996913, 10.000345 
1.1650946e+3, 2.9404584e+2, -527684.8, -239942.03, -47927.168, -0.012187796, 0.07804493, -232169.14, -173815.4, 0.0, 9.996543, 10.000351 
1.165108e+3, 3.0404574e+2, -487036.7, -104480.53, 822.5702, -0.01724269, -0.0033900193, -104478.766, -104478.766, 0.0, 9.996096, 10.001162 
1.1651228e+3, 3.1404757e+2, -546920.1, -98341.55, 2459.9004, 0.014202857, 0.058339138, -98328.055, -98328.055, 0.0, 9.995535, 10.001474 
1.17488146e+3, 1.240435e+2, -1154343.1, -1689186.3, -1713.5295, 0.07027032, -0.01944579, -1154337.6, 570031.8, 0.0015855326, 10.004912, 9.997809 
1.1748942e+3, 1.3404065e+2, -1191304.1, -1654743.4, -57825.727, 0.07072926, -0.086596094, -1184197.9, 442198.03, 0.0008408562, 10.003972, 9.997828 
1.1749076e+3, 1.440388e+2, -1173511.0, -1568463.8, -26508.385, 0.10363383, -0.06350119, -1171739.8, 356674.28, 0.0002831922, 10.003304, 9.998066 
1.1749204e+3, 1.5403719e+2, -1115228.8, -1484810.4, -23614.43, 0.028755607, -0.03546822, -1113726.0, 316705.78, 0.000036181405, 10.00301, 9.998109 
1.1749335e+3, 1.6403572e+2, -1034726.8, -1324338.3, -33152.445, -0.0039212843, -0.021300884, -1030980.25, 301467.1, 0.00000010132158, 10.0025835, 9.998744 
1.1749472e+3, 1.7403442e+2, -1020716.44, -1256919.9, -34324.09, 0.03166667, -0.03334335, -1015829.7, 218630.14, 0.0, 10.001964, 9.998832 
1.17496006e+3, 1.8403329e+2, -984644.4, -1174982.1, -55174.36, 0.02999764, -0.032740526, -969807.2, 166663.88, 0.0, 10.001478, 9.998956 
1.1749723e+3, 1.9403246e+2, -926150.2, -1092340.3, -57264.797, -0.028674444, -0.01587699, -908329.2, 130150.97, 0.0, 10.001191, 9.998989 
1.17498435e+3, 2.0403169e+2, -870871.6, -992149.56, -83187.31, -0.051267553, 0.0012067299, -828567.8, 111921.17, 0.0, 10.000799, 9.999193 
1.1749967e+3, 2.1403106e+2, -849147.2, -925947.06, -83864.16, -0.020063812, 0.013048764, -795309.6, 47187.758, 0.0, 10.000254, 9.999238 
1.17500864e+3, 2.2403057e+2, -802368.25, -814148.44, -89227.12, -0.004440218, 0.02741126, -718837.0, 25666.346, 0.0, 9.999737, 9.999581 
1.1750204e+3, 2.3403037e+2, -769825.6, -741036.6, -90272.83, -0.012141601, 0.042881876, -664017.9, -17512.307, 0.0, 9.999259, 9.99964 
1.17503196e+3, 2.440301e+2, -722097.7, -638585.6, -97663.43, -0.010516215, 0.042390287, -574126.25, -25618.322, 0.0, 9.998791, 9.999896 
1.1750437e+3, 2.5402975e+2, -686225.56, -564807.2, -96594.37, 0.0047328062, 0.012471811, -511428.34, -60917.51, 0.0, 9.99834, 9.999948 
1.1750552e+3, 2.640297e+2, -629212.5, -442070.3, -96773.7, 0.005294004, -0.0010995695, -401028.25, -48517.563, 0.0, 9.997867, 10.000344 
1.1750665e+3, 2.7403024e+2, -600000.9, -369980.34, -100200.96, -0.016010419, 0.011386316, -332453.4, -77947.89, 0.0, 9.997363, 10.000409 
1.1750785e+3, 2.8403094e+2, -573041.7, -315073.88, -64561.57, -0.014352867, 0.04485877, -299818.25, -143319.03, 0.0, 9.996914, 10.00033 
1.1750914e+3, 2.940317e+2, -528072.94, -241207.95, -61282.934, 0.021843052, 0.087820135, -228664.56, -170171.72, 0.0, 9.996544, 10.000341 
1.1751046e+3, 3.0403146e+2, -483382.34, -97423.83, -18889.168, 0.021575043, -0.010181085, -96501.58, -96501.58, 0.0, 9.996097, 10.001211 
1.17511794e+3, 3.1403333e+2, -538842.44, -81796.96, -17755.86, -0.029548867, 0.048450798, -81108.2, -81108.2, 0.0, 9.995534, 10.001589 
1.1848865e+3, 1.2402988e+2, -1174489.3, -1701552.5, 29001.527, 0.0879189, -0.02105743, -1172898.3, 551605.2, 0.0017297582, 10.004787, 9.997784 
1.1848981e+3, 1.340272e+2, -1157929.4, -1638428.9, -35289.156, 0.053130638, -0.07268601, -1155351.4, 471177.3, 0.00092751306, 10.004202, 9.9978285 
1.1849109e+3, 1.4402534e+2, -1123279.1, -1539810.4, 5579.879, 0.09291206, -0.051110096, -1123204.4, 405342.34, 0.00031980843, 10.003631, 9.998104 
1.18492335e+3, 1.5402363e+2, -1105847.0, -1475164.5, 9570.678, 0.026934095, -0.037393138, -1105599.1, 324965.5, 0.0000435681, 10.003053, 9.998154 
1.184936e+3, 1.640221e+2, -1048136.75, -1339542.6, -5367.3965, -0.00041416718, -0.027549475, -1048037.94, 284542.63, 0.00000019883093, 10.00253, 9.998665 
1.1849492e+3, 1.7402083e+2, -1008547.06, -1261148.0, -12281.938, 0.035358485, -0.028969828, -1007951.25, 226642.42, 0.0, 10.002091, 9.998741 
1.18496165e+3, 1.8401971e+2, -960435.8, -1162667.5, -29954.686, 0.03574426, -0.022886489, -956092.2, 180513.06, 0.0, 10.001642, 9.998961 
1.1849735e+3, 1.9401886e+2, -927554.2, -1090960.9, -29238.848, -0.017773736, -0.009050399, -922479.94, 116134.39, 0.0, 10.001173, 9.999006 
1.1849853e+3, 2.0401813e+2, -877204.44, -990472.7, -56809.074, -0.041497096, 0.007426665, -853622.0, 87000.81, 0.0, 10.000736, 9.999235 
1.18499696e+3, 2.1401757e+2, -832582.56, -912802.5, -58194.26, -0.020907886, 0.023193454, -802014.5, 40615.793, 0.0, 10.000346, 9.999283 
1.1850084e+3, 2.240171e+2, -778273.6, -799467.6, -64173.31, -0.011569022, 0.03645981, -723828.25, 20807.645, 0.0, 9.99989, 9.999608 
1.18501954e+3, 2.3401684e+2, -756741.94, -731801.1, -62785.9, -0.01922132, 0.04272534, -680259.2, -33620.66, 0.0, 9.999337, 9.999666 
1.1850308e+3, 2.4401657e+2, -714820.44, -631132.6, -67041.55, -0.016662296, 0.039205596, -593948.2, -45307.402, 0.0, 9.998824, 9.999931 
1.185042e+3, 2.540163e+2, -678848.4, -557171.7, -67646.945, 0.00081185123, 0.015137578, -527029.75, -76387.19, 0.0, 9.998374, 9.999983 
1.1850531e+3, 2.640163e+2, -624153.3, -450848.63, -69883.445, 0.0019497485, 0.004286417, -426180.13, -73537.62, 0.0, 9.997951, 10.000243 
1.18506394e+3, 2.7401668e+2, -578223.3, -372335.38, -76289.766, -0.021016594, 0.015456893, -347148.2, -92509.0, 0.0, 9.997569, 10.000293 
1.1850754e+3, 2.8401735e+2, -548156.4, -302195.03, -43533.88, -0.019152319, 0.05094519, -294717.13, -138083.6, 0.0, 9.997082, 10.000337 
1.18508786e+3, 2.9401818e+2, -541686.56, -245560.22, -38030.22, 0.019525828, 0.09940363, -240754.17, -182128.03, 0.0, 9.996442, 10.0003605 
1.1851006e+3, 3.040179e+2, -511442.63, -107813.72, 4885.0376, 0.021196198, -0.0042978553, -107754.6, -107754.6, 0.0, 9.995893, 10.001237 
1.1851134e+3, 3.1401983e+2, -542375.9, -72964.33, 2613.7417, -0.026490415, 0.057821956, -72949.77, -72949.77, 0.0, 9.995465, 10.001681 
1.1948916e+3, 1.240167e+2, -1179323.8, -1710646.5, 10456.455, 0.13024609, -0.05575594, -1179118.1, 545514.9, 0.0018800956, 10.004783, 9.997724 
1.19490184e+3, 1.3401474e+2, -1160925.4, -1645536.3, -57010.5, 0.016088424, -0.028703535, -1154308.9, 472343.06, 0.001018754, 10.004205, 9.997779 
1.1949142e+3, 1.4401294e+2, -1120088.6, -1534372.4, -16395.055, 0.05629829, -0.0017952522, -1119440.9, 409228.6, 0.0003592042, 10.003634, 9.99814 
1.19492665e+3, 1.5401043e+2, -1102410.9, -1468594.8, -12567.584, 0.04451788, -0.071519494, -1101980.0, 328713.7, 0.00005194898, 10.003054, 9.9981985 
1.1949389e+3, 1.6400869e+2, -1057970.4, -1360641.3, -22475.182, 0.030961398, -0.07780301, -1056310.5, 276400.88, 0.00000035173326, 10.002531, 9.99852 
1.194951e+3, 1.7400809e+2, -1019463.56, -1284892.4, -28854.861, 0.021017484, 0.0024001873, -1016363.0, 218356.72, 0.0, 10.002095, 9.998577 
1.19496316e+3, 1.8400712e+2, -958174.94, -1159062.0, -47855.94, 0.014488642, 0.031620968, -947357.1, 189373.28, 0.0, 10.001646, 9.998984 
1.194975e+3, 1.9400568e+2, -923718.9, -1083929.6, -47247.387, 0.011740777, -0.018092085, -910823.25, 127921.21, 0.0, 10.001176, 9.999054 
1.1949863e+3, 2.0400481e+2, -873833.8, -984393.44, -71971.24, -0.0030562244, -0.018666245, -838362.75, 102391.06, 0.0, 10.000739, 9.999276 
1.1949972e+3, 2.140048e+2, -829214.56, -906776.94, -73003.4, -0.035227813, 0.049145084, -785330.9, 57425.297, 0.0, 10.000349, 9.999324 
1.1950079e+3, 2.2400455e+2, -773711.3, -790932.3, -84540.82, -0.045247696, 0.07688017, -697343.6, 47416.3, 0.0, 9.999893, 9.999665 
1.1950189e+3, 2.3400393e+2, -751994.75, -722777.2, -83606.18, -0.022939768, 0.042221952, -652513.06, -5747.6475, 0.0, 9.999339, 9.999727 
1.1950297e+3, 2.4400355e+2, -713213.8, -628637.5, -84184.05, -0.013746865, 0.023249665, -576717.1, -27948.725, 0.0, 9.998827, 9.999948 
1.1950402e+3, 2.5400352e+2, -677560.56, -555302.44, -84134.47, -0.023891738, 0.020811401, -512434.53, -61666.727, 0.0, 9.998376, 9.999995 
1.1950508e+3, 2.6400352e+2, -633707.56, -471399.2, -83937.125, -0.022083597, 0.017221484, -435799.6, -83031.695, 0.0, 9.997952, 10.000102 
1.19506165e+3, 2.7400362e+2, -588922.75, -395232.44, -90023.4, -0.0025550306, 0.014783781, -359853.56, -105085.305, 0.0, 9.997571, 10.000135 
1.19507276e+3, 2.8400418e+2, -545373.25, -297242.38, -65977.02, 0.0012305737, 0.04857048, -280790.22, -124026.46, 0.0, 9.997084, 10.00037 
1.195084e+3, 2.9400524e+2, -537782.0, -238054.23, -61015.67, -0.018538548, 0.11231214, -226109.3, -167355.31, 0.0, 9.996443, 10.000412 
1.1950961e+3, 3.0400503e+2, -512385.53, -109880.664, -10809.225, -0.017960358, 0.0133792125, -109590.59, -109590.59, 0.0, 9.995892, 10.001224 
1.1951094e+3, 3.1400707e+2, -539074.44, -65604.39, -12433.845, 0.020167578, 0.088429786, -65278.09, -65278.09, 0.0, 9.995462, 10.001735 
1.2048966e+3, 1.2400467e+2, -1157602.3, -1713598.3, 51559.1, 0.13678853, -0.04959227, -1152861.5, 571889.5, 0.002037242, 10.0049925, 9.997602 
1.204906e+3, 1.3400254e+2, -1132228.5, -1645662.8, -23757.11, -0.0017264131, -0.027890801, -1131131.6, 495640.47, 0.0011147786, 10.004463, 9.997653 
1.20491795e+3, 1.4400062e+2, -1079132.1, -1514974.5, 11177.965, 0.05469439, -0.0046234187, -1078845.6, 449945.1, 0.00040147037, 10.003919, 9.9981365 
1.2049298e+3, 1.5399824e+2, -1061772.0, -1447998.0, 11608.606, 0.052355725, -0.06313961, -1061423.5, 369390.2, 0.000061428385, 10.003329, 9.998207 
1.20494165e+3, 1.6399653e+2, -1029892.5, -1356064.1, 5788.871, 0.038502865, -0.063573346, -1029789.75, 303041.38, 0.00000057087306, 10.002764, 9.998439 
1.2049533e+3, 1.7399581e+2, -1005702.9, -1288377.4, 5154.5313, 0.014939441, 0.013539667, -1005608.94, 229232.03, 0.0, 10.002234, 9.998486 
1.20496474e+3, 1.8399477e+2, -944920.1, -1151549.9, -10666.971, 0.0060069733, 0.040068522, -944370.9, 192481.52, 0.0, 10.001733, 9.998994 
1.2049762e+3, 1.9399333e+2, -908818.2, -1074397.4, -12251.064, 0.01688549, -0.011145901, -907916.7, 130949.51, 0.0, 10.001269, 9.999074 
1.2049872e+3, 2.0399247e+2, -862001.3, -975387.4, -37251.133, 0.006621154, -0.012462213, -850858.1, 90017.12, 0.0, 10.000807, 9.999305 
1.20499745e+3, 2.139925e+2, -827803.4, -902739.5, -39313.824, -0.034300372, 0.055227574, -810962.75, 31914.594, 0.0, 10.000345, 9.999352 
1.2050078e+3, 2.2399227e+2, -771236.75, -784643.8, -54622.523, -0.04969395, 0.08155108, -722907.94, 21972.836, 0.0, 9.999888, 9.999711 
1.20501816e+3, 2.3399167e+2, -734284.2, -708726.8, -55383.89, -0.027694978, 0.044093516, -664666.5, -17780.717, 0.0, 9.999438, 9.999776 
1.20502844e+3, 2.4399133e+2, -688142.25, -617358.4, -55197.37, -0.019970711, 0.026473172, -587181.0, -38292.65, 0.0, 9.999003, 9.999939 
1.2050386e+3, 2.5399137e+2, -646484.06, -541596.56, -57213.664, -0.033359304, 0.031013608, -516427.47, -65540.12, 0.0, 9.998595, 9.999983 
1.2050487e+3, 2.6399133e+2, -617587.9, -475968.53, -59092.266, -0.03163105, 0.029803615, -454550.75, -101662.69, 0.0, 9.998117, 9.99999 
1.2050592e+3, 2.739913e+2, -602211.25, -415011.2, -62794.99, -0.007659969, 0.023410376, -395898.4, -141008.05, 0.0, 9.997539, 10.000015 
1.2050697e+3, 2.8399178e+2, -546812.6, -288201.44, -37107.504, -0.0020646807, 0.055021025, -282982.28, -126095.914, 0.0, 9.997033, 10.000456 
1.20508045e+3, 2.9399294e+2, -501796.44, -208229.58, -28936.91, -0.023883328, 0.11763618, -205404.45, -146529.38, 0.0, 9.996637, 10.000522 
1.2050919e+3, 3.0399278e+2, -490801.94, -106210.56, 17910.602, -0.022586001, 0.01862646, -105378.26, -105378.26, 0.0, 9.99607, 10.001163 
1.2051046e+3, 3.13995e+2, -572777.56, -81464.48, 11529.199, 0.022414215, 0.11820362, -81194.086, -81194.086, 0.0, 9.995232, 10.001736 
1.2149012e+3, 1.239939e+2, -1170525.0, -1740944.1, 31853.076, 0.10440605, -0.000883954, -1168751.8, 556104.75, 0.0022011725, 10.004994, 9.997414 
1.2149105e+3, 1.3399063e+2, -1146585.8, -1676402.1, -43759.863, -0.00020886066, -0.07186801, -1142995.8, 483892.78, 0.0012154839, 10.004466, 9.997441 
1.2149222e+3, 1.4398845e+2, -1081915.5, -1521828.6, -10799.31, 0.0889216, -0.06195953, -1081650.5, 447259.63, 0.0004464883, 10.0039215, 9.998088 
1.21493325e+3, 1.5398712e+2, -1063332.5, -1452427.9, -10733.883, 0.050154813, -0.011342899, -1063036.6, 367887.3, 0.00007201624, 10.003333, 9.998176 
1.2149442e+3, 1.6398568e+2, -1030868.56, -1359290.1, -14750.733, 0.021379273, 0.01704922, -1030207.4, 302731.75, 0.0000008702971, 10.002768, 9.998415 
1.21495545e+3, 1.7398402e+2, -1006460.0, -1291077.1, -15015.029, 0.016894095, 0.004459563, -1005670.06, 229286.88, 0.0, 10.002237, 9.998466 
1.21496655e+3, 1.8398269e+2, -944935.2, -1152750.4, -28603.402, 0.010200513, 0.001739442, -941070.1, 195900.94, 0.0, 10.001737, 9.998984 
1.2149773e+3, 1.9398184e+2, -908760.0, -1075410.8, -29888.004, -0.002578512, 0.011514487, -903561.9, 135417.4, 0.0, 10.001273, 9.999066 
1.2149878e+3, 2.0398116e+2, -860877.9, -974131.7, -54881.336, -0.012900359, 0.026082154, -838646.9, 102340.05, 0.0, 10.000811, 9.999312 
1.2149979e+3, 2.1398069e+2, -826381.06, -900667.56, -56886.297, -0.018515598, 0.04185127, -795585.56, 47408.113, 0.0, 10.000348, 9.999367 
1.2150079e+3, 2.239803e+2, -768923.25, -780604.25, -71706.97, -0.02518664, 0.05082165, -702819.3, 42179.047, 0.0, 9.99989, 9.999738 
1.2150176e+3, 2.3398007e+2, -731799.25, -704448.8, -72218.58, -0.033539094, 0.04804804, -644622.1, 2377.6057, 0.0, 9.99944, 9.9998045 
1.21502735e+3, 2.439799e+2, -690202.06, -622533.5, -70514.66, -0.035599317, 0.048413992, -578156.0, -29155.352, 0.0, 9.999006, 9.999903 
1.2150371e+3, 2.539798e+2, -649120.44, -547770.2, -72087.664, -0.028368343, 0.04568801, -510328.34, -59327.008, 0.0, 9.998597, 9.99994 
1.2150469e+3, 2.639797e+2, -623081.44, -488076.75, -79497.05, -0.027319513, 0.041964598, -451289.38, -98286.18, 0.0, 9.998119, 9.9999075 
1.2150564e+3, 2.739796e+2, -607946.8, -427774.25, -83583.8, -0.03607778, 0.040689446, -394971.22, -139965.31, 0.0, 9.99754, 9.999927 
1.21506654e+3, 2.839801e+2, -537541.3, -269689.22, -51673.785, -0.029149795, 0.06960522, -260066.08, -103064.266, 0.0, 9.997035, 10.000583 
1.2150774e+3, 2.9398125e+2, -490955.94, -186254.63, -42894.69, 0.0013195816, 0.11547843, -180331.22, -121341.234, 0.0, 9.996638, 10.000673 
1.2150883e+3, 3.0398104e+2, -497853.8, -121179.92, -10854.192, 0.005293952, 0.011669527, -120867.41, -120867.41, 0.0, 9.99607, 10.00106 
1.2150995e+3, 3.1398353e+2, -575906.4, -87936.25, -18855.586, -0.018601064, 0.14807042, -87208.74, -87208.74, 0.0, 9.99523, 10.001693 
1.22490615e+3, 1.23983055e+2, -1156015.5, -1729687.1, 31279.09, 0.09128979, 0.01899891, -1154315.0, 570648.8, 0.002370626, 10.005078, 9.997449 
1.22491494e+3, 1.3397957e+2, -1127044.9, -1665131.4, -26879.547, -0.006008699, -0.07358586, -1125705.5, 501291.7, 0.0013201722, 10.004594, 9.997457 
1.2249264e+3, 1.4397733e+2, -1069738.8, -1524931.3, 10210.807, 0.10663295, -0.06853801, -1069509.8, 459509.72, 0.0004938542, 10.0040455, 9.998007 
1.22493654e+3, 1.5397619e+2, -1062095.9, -1462104.5, 4761.784, 0.046051342, 0.008682686, -1062039.1, 368993.2, 0.000083587045, 10.003387, 9.998082 
1.2249469e+3, 1.6397475e+2, -1022337.9, -1351028.4, 4513.5894, 0.009196068, 0.04239763, -1022275.9, 310771.75, 0.0000012652538, 10.00281, 9.998451 
1.2249578e+3, 1.739729e+2, -986963.4, -1275776.8, 9941.081, 0.017994493, 0.0045150514, -986621.56, 248445.14, 0.0, 10.002347, 9.998518 
1.22496836e+3, 1.8397151e+2, -932163.8, -1146613.0, -1936.9064, 0.013942044, -0.00513981, -932146.3, 204934.6, 0.0, 10.001825, 9.998983 
1.2249785e+3, 1.9397087e+2, -917385.8, -1080170.4, -3478.9128, -0.012577698, 0.02451882, -917311.44, 121776.05, 0.0, 10.001217, 9.99906 
1.2249884e+3, 2.0397022e+2, -878794.94, -983291.06, -25563.791, -0.024795162, 0.04423069, -872876.25, 68218.516, 0.0, 10.00069, 9.999307 
1.2249983e+3, 2.1396957e+2, -836302.5, -905718.75, -28723.676, -0.014481743, 0.043506067, -825958.4, 17144.64, 0.0, 10.000282, 9.999363 
1.2250079e+3, 2.2396915e+2, -762374.6, -769359.9, -41769.133, -0.016342226, 0.04438509, -723952.3, 21155.662, 0.0, 9.999902, 9.999809 
1.2250171e+3, 2.3396903e+2, -708658.25, -684115.9, -38791.066, -0.03661558, 0.046032093, -655701.3, -8593.597, 0.0, 9.999561, 9.999886 
1.22502625e+3, 2.4396896e+2, -678877.75, -624676.0, -39963.297, -0.04313566, 0.05271789, -603491.06, -54383.016, 0.0, 9.999118, 9.999834 
1.2250358e+3, 2.5396886e+2, -665266.2, -564858.6, -45416.113, -0.029386666, 0.058787983, -547364.2, -96254.8, 0.0, 9.998528, 9.999856 
1.225045e+3, 2.639687e+2, -626383.4, -483086.8, -47499.984, -0.027904246, 0.053468477, -468771.6, -115659.85, 0.0, 9.99807, 9.999965 
1.225054e+3, 2.7396855e+2, -563889.1, -398107.4, -39989.246, -0.045145176, 0.035679955, -388965.47, -133851.0, 0.0, 9.997808, 10.000001 
1.2250636e+3, 2.8396904e+2, -496428.16, -255271.16, -13187.307, -0.04021876, 0.063363805, -254552.17, -97442.13, 0.0, 9.997342, 10.000532 
1.22507386e+3, 2.9397035e+2, -506085.63, -200682.63, -20754.092, -0.002292417, 0.1295556, -199278.7, -140181.33, 0.0, 9.996567, 10.0006075 
1.2250842e+3, 3.0397007e+2, -529586.4, -143174.95, -1.1175268, 0.005891082, 0.025208572, -143174.95, -143174.95, 0.0, 9.995883, 10.0009985 
1.2250949e+3, 3.1397232e+2, -560139.7, -76894.41, -4598.163, -0.0152673265, 0.14752567, -76850.66, -76850.66, 0.0, 9.995324, 10.001722 
1.2349112e+3, 1.2397217e+2, -1137810.1, -1691725.3, 11250.017, 0.09730756, 0.007365319, -1137581.6, 587490.9, 0.0025434128, 10.005078, 9.997711 
1.2349194e+3, 1.3396947e+2, -1109436.8, -1629376.8, -45247.656, -0.019407079, -0.031634744, -1105528.5, 521568.84, 0.0014276141, 10.004597, 9.997702 
1.23493046e+3, 1.4396733e+2, -1077841.4, -1542674.3, -14277.171, 0.10714352, -0.022234384, -1077403.3, 451714.78, 0.0005429713, 10.004048, 9.997885 
1.23493984e+3, 1.5396544e+2, -1073022.8, -1485643.9, -20384.188, 0.03962643, -0.003621094, -1072018.1, 359120.44, 0.00009593835, 10.00339, 9.99792 
1.2349496e+3, 1.6396378e+2, -1015251.6, -1337343.0, -13882.439, 0.0016322138, 0.0110194525, -1014654.4, 318501.9, 0.0000017602412, 10.002812, 9.998545 
1.2349601e+3, 1.7396244e+2, -977836.8, -1257957.8, -7656.6553, 0.01809581, 0.0134884175, -977627.7, 257542.16, 0.0, 10.002351, 9.998639 
1.23497024e+3, 1.8396129e+2, -931476.94, -1146362.4, -24694.031, 0.017014982, 0.01981521, -928675.7, 208505.86, 0.0, 10.001829, 9.998984 
1.2349796e+3, 1.9396041e+2, -917415.75, -1081295.1, -26689.363, -0.013280533, 0.028143752, -913178.7, 126011.84, 0.0, 10.001221, 9.999051 
1.2349892e+3, 2.039597e+2, -879968.75, -986697.56, -41869.85, -0.029223114, 0.042088665, -865503.6, 75695.02, 0.0, 10.000693, 9.999282 
1.23499855e+3, 2.1395923e+2, -837557.56, -909377.94, -44184.02, -0.022386396, 0.05984142, -816531.2, 26674.154, 0.0, 10.000285, 9.999336 
1.2350077e+3, 2.2395884e+2, -754203.2, -753355.4, -54896.754, -0.023492621, 0.061893806, -698880.9, 46328.72, 0.0, 9.999905, 9.999918 
1.2350166e+3, 2.339586e+2, -699517.56, -665844.4, -51480.195, -0.037176974, 0.0383074, -628517.5, 18692.445, 0.0, 9.999562, 10.000011 
1.2350254e+3, 2.439585e+2, -685855.7, -639772.2, -60993.01, -0.042779703, 0.03971825, -597613.7, -48403.145, 0.0, 9.999119, 9.99973 
1.2350342e+3, 2.5395852e+2, -674127.4, -583969.6, -67067.38, -0.03654279, 0.07017669, -548239.25, -97027.43, 0.0, 9.998529, 9.999724 
1.23504296e+3, 2.6395836e+2, -612863.06, -455767.88, -57699.23, -0.033775277, 0.06423325, -436853.03, -83639.055, 0.0, 9.998072, 10.000152 
1.2350519e+3, 2.7395803e+2, -547841.7, -365306.78, -48766.414, -0.0359841, 0.008901466, -353095.2, -97878.66, 0.0, 9.997809, 10.000226 
1.2350609e+3, 2.8395858e+2, -511826.9, -287595.2, -39425.164, -0.036245406, 0.036583602, -280865.28, -123653.75, 0.0, 9.997342, 10.000311 
1.23507015e+3, 2.9396015e+2, -524923.8, -240554.16, -48745.445, -0.034030296, 0.15846898, -232430.5, -173232.67, 0.0, 9.996569, 10.000334 
1.23508e+3, 3.0395976e+2, -531716.44, -148528.08, -20302.533, -0.020395715, 0.057920203, -147455.39, -147455.39, 0.0, 9.995885, 10.000961 
1.2350906e+3, 3.139614e+2, -554101.9, -64621.28, -23973.502, 0.029002175, 0.12001165, -63449.926, -63449.926, 0.0, 9.995324, 10.001807 
1.2449165e+3, 1.2396205e+2, -1109640.4, -1667378.8, 36421.184, 0.10139885, 0.010856207, -1107272.0, 617901.25, 0.0027175408, 10.005229, 9.997805 
1.24492384e+3, 1.3395962e+2, -1121941.4, -1628219.8, -31528.357, -0.028231053, -0.0077838446, -1119985.5, 507209.72, 0.0015366623, 10.00448, 9.997765 
1.2449344e+3, 1.4395757e+2, -1098094.9, -1549160.1, -72.237625, 0.115553625, 0.0038313537, -1098094.9, 431120.25, 0.0005933597, 10.003897, 9.997912 
1.2449432e+3, 1.5395547e+2, -1050631.5, -1471686.6, 7926.0083, 0.040948533, 0.0009338084, -1050482.3, 380755.03, 0.00010892868, 10.003531, 9.997947 
1.2449525e+3, 1.6395375e+2, -984609.4, -1323650.8, 16135.136, -0.0010712871, 0.008300116, -983843.25, 349412.3, 0.0000023447426, 10.003029, 9.998533 
1.24496244e+3, 1.7395255e+2, -983194.1, -1262030.0, 11722.666, 0.01667614, 0.02438387, -982702.2, 252565.73, 0.0, 10.002321, 9.998625 
1.2449719e+3, 1.8395147e+2, -940482.56, -1142053.3, -6079.2876, 0.016520645, 0.035689607, -940299.4, 196979.5, 0.0, 10.001732, 9.99906 
1.244981e+3, 1.9395061e+2, -898291.56, -1062127.6, -1010.7855, -0.013581146, 0.03651398, -898285.4, 141002.08, 0.0, 10.00131, 9.999139 
1.24498986e+3, 2.039499e+2, -856409.4, -972289.75, -9307.574, -0.02918447, 0.04553415, -855666.56, 85628.586, 0.0, 10.000843, 9.999308 
1.2449988e+3, 2.1394943e+2, -833361.4, -905013.25, -8440.075, -0.022051064, 0.062326487, -832380.6, 10920.857, 0.0, 10.000305, 9.999356 
1.2450076e+3, 2.2394904e+2, -768323.5, -759263.1, -18277.246, -0.024276817, 0.063523255, -744963.0, 342.62158, 0.0, 9.999805, 9.999925 
1.245016e+3, 2.3394883e+2, -727999.2, -678504.25, -23821.176, -0.04116607, 0.038888972, -668902.25, -21596.162, 0.0, 9.999364, 10.000019 
1.2450244e+3, 2.4394873e+2, -702877.8, -642382.06, -35318.92, -0.049047, 0.040777754, -626128.75, -76822.266, 0.0, 9.99898, 9.999779 
1.2450327e+3, 2.5394887e+2, -648761.4, -565625.2, -28469.506, -0.04353301, 0.07406994, -556810.5, -105503.65, 0.0, 9.998679, 9.999778 
1.2450411e+3, 2.6394874e+2, -583693.3, -435483.8, -16305.551, -0.038324468, 0.06594741, -433711.13, -80402.63, 0.0, 9.998246, 10.000206 
1.2450497e+3, 2.7394837e+2, -571881.7, -370489.47, -20102.764, -0.033522602, 0.001073619, -368502.44, -113191.516, 0.0, 9.997618, 10.000282 
1.24505825e+3, 2.8394887e+2, -545823.6, -310948.38, -15006.949, -0.03376533, 0.027000593, -309993.4, -152687.47, 0.0, 9.997141, 10.000247 
1.24506675e+3, 2.9395047e+2, -484208.56, -229617.56, -11088.256, -0.042166416, 0.15834716, -229135.55, -169843.0, 0.0, 9.996887, 10.000255 
1.2450759e+3, 3.0394995e+2, -469043.78, -126652.11, 15214.155, -0.0319683, 0.054623067, -125977.4, -125977.4, 0.0, 9.996352, 10.000886 
1.245086e+3, 3.139514e+2, -544013.6, -56522.477, 5868.2524, 0.028429052, 0.10420285, -56451.848, -56451.848, 0.0, 9.99538, 10.001835 
1.2549217e+3, 1.23952806e+2, -1115328.8, -1679859.4, 4072.1074, 0.10214754, 0.030263998, -1115299.4, 609965.7, 0.00289206, 10.005231, 9.997719 
1.2549284e+3, 1.3395008e+2, -1131033.0, -1647687.9, -59902.06, -0.03274753, -0.002765312, -1124178.8, 503111.56, 0.0016467856, 10.004481, 9.997632 
1.2549385e+3, 1.4394805e+2, -1085467.6, -1523277.6, -15548.13, 0.13154615, 0.008671994, -1084916.3, 444394.0, 0.0006448946, 10.003897, 9.998091 
1.2549469e+3, 1.5394634e+2, -1035146.3, -1440511.8, -5956.7275, 0.05013492, 0.022645392, -1035058.8, 396269.16, 0.00012257921, 10.003534, 9.99816 
1.2549555e+3, 1.6394474e+2, -992391.06, -1341060.0, -9614.508, 0.0010279161, 0.034877, -992126.2, 341218.66, 0.0000030126384, 10.003033, 9.998413 
1.2549648e+3, 1.7394322e+2, -993506.94, -1284586.8, -15274.243, 0.013473918, 0.037315883, -992707.6, 242652.98, 0.0, 10.002325, 9.998468 
1.2549736e+3, 1.8394206e+2, -929808.4, -1120938.9, -23266.344, 0.012097172, 0.042481076, -927016.94, 210355.53, 0.0, 10.001735, 9.999205 
1.2549822e+3, 1.9394146e+2, -885089.8, -1035836.25, -17034.303, -0.013719931, 0.04945036, -883188.94, 156189.08, 0.0, 10.001314, 9.999318 
1.2549907e+3, 2.0394082e+2, -850890.75, -961953.94, -29314.463, -0.025011707, 0.054351117, -843628.3, 97755.93, 0.0, 10.000847, 9.999378 
1.2549993e+3, 2.1394022e+2, -828726.9, -896414.06, -28827.996, -0.01362512, 0.05114688, -818113.25, 25278.107, 0.0, 10.000308, 9.999414 
1.2550074e+3, 2.2393979e+2, -774843.7, -773640.2, -35329.848, -0.018786395, 0.04949053, -738907.0, 6488.972, 0.0, 9.999807, 9.9998255 
1.2550153e+3, 2.3393966e+2, -735629.5, -695197.25, -40266.527, -0.04880227, 0.04755908, -670356.94, -22960.607, 0.0, 9.999367, 9.999904 
1.2550232e+3, 2.4393968e+2, -688933.94, -614233.9, -46824.254, -0.062290743, 0.055615205, -591687.9, -42291.84, 0.0, 9.998981, 9.999971 
1.2550312e+3, 2.5393984e+2, -632432.6, -532220.1, -39219.297, -0.05064835, 0.070612565, -518696.3, -67301.37, 0.0, 9.998679, 10.000008 
1.2550393e+3, 2.6393977e+2, -589091.6, -447082.0, -38032.84, -0.04175912, 0.058630873, -437537.6, -84141.94, 0.0, 9.998246, 10.000127 
1.2550472e+3, 2.7393946e+2, -579648.06, -387159.16, -42920.38, -0.03777621, 0.011409267, -378022.63, -122624.59, 0.0, 9.997619, 10.000168 
1.2550554e+3, 2.839399e+2, -540086.1, -299529.25, -24910.027, -0.033172812, 0.034061804, -296976.88, -139583.14, 0.0, 9.997141, 10.000326 
1.2550639e+3, 2.9394126e+2, -477326.66, -215225.98, -19378.416, -0.028110018, 0.13034041, -213800.98, -154418.89, 0.0, 9.996885, 10.000355 
1.2550722e+3, 3.0394065e+2, -477126.53, -143267.44, -17423.178, -0.029914299, 0.016523292, -142360.63, -142360.63, 0.0, 9.99635, 10.000773 
1.2550808e+3, 3.1394234e+2, -545448.7, -60546.215, -29452.982, -0.015871953, 0.1005589, -58763.793, -58763.793, 0.0, 9.995383, 10.001807 
1.2649268e+3, 1.23944096e+2, -1159258.4, -1701403.1, 29932.945, 0.10219652, 0.04176729, -1157610.8, 567740.4, 0.003066887, 10.004932, 9.997714 
1.2649328e+3, 1.339413e+2, -1113760.5, -1644337.3, -22304.37, -0.04614588, 0.003534662, -1112824.5, 514553.16, 0.001757993, 10.004623, 9.997586 
1.2649426e+3, 1.4393927e+2, -1047650.1, -1507436.4, 18830.598, 0.13725333, 0.020119505, -1046880.2, 482517.34, 0.00069774047, 10.0041685, 9.998068 
1.2649505e+3, 1.5393764e+2, -1043239.94, -1446769.1, 10479.914, 0.058176864, 0.04367818, -1042967.94, 388446.6, 0.00013704965, 10.00349, 9.998137 
1.2649585e+3, 1.6393605e+2, -1012146.6, -1345842.0, -919.30756, 0.008333815, 0.057375066, -1012144.1, 321287.0, 0.0000037895563, 10.002878, 9.998454 
1.264967e+3, 1.7393449e+2, -984960.2, -1274730.1, 8204.922, 0.017235953, 0.04920136, -984728.06, 250719.08, 0.0, 10.00236, 9.998518 
1.2649755e+3, 1.8393329e+2, -917382.6, -1114502.3, 7645.686, 0.015061271, 0.048185192, -917086.56, 220372.61, 0.0, 10.00182, 9.999207 
1.2649836e+3, 1.9393268e+2, -896043.7, -1041441.9, 311.17462, -0.008281395, 0.05555752, -896043.0, 143421.7, 0.0, 10.001242, 9.999314 
1.2649916e+3, 2.0393209e+2, -863250.5, -955808.25, -18757.2, -0.020252746, 0.059980806, -859593.75, 81876.61, 0.0, 10.000711, 9.999485 
1.2649995e+3, 2.1393159e+2, -829174.75, -883107.2, -14203.837, -0.013916954, 0.054990694, -825662.7, 17813.324, 0.0, 10.000249, 9.999534 
1.2650073e+3, 2.239312e+2, -776651.5, -777425.5, -13503.622, -0.0207329, 0.052112892, -763529.3, -18049.34, 0.0, 9.999809, 9.999799 
1.2650147e+3, 2.3393105e+2, -733642.56, -699016.75, -13141.917, -0.047498304, 0.049750872, -694593.8, -47112.63, 0.0, 9.999402, 9.99986 
1.2650222e+3, 2.4393104e+2, -690166.25, -605231.7, -21008.62, -0.059628405, 0.056528702, -600319.3, -50838.414, 0.0, 9.998933, 10.000056 
1.2650298e+3, 2.5393128e+2, -669981.9, -538903.8, -23499.873, -0.049629964, 0.06881935, -534818.06, -83339.33, 0.0, 9.998373, 10.000109 
1.2650374e+3, 2.639313e+2, -633949.06, -469691.75, -25685.008, -0.044351816, 0.059380047, -465769.03, -112290.36, 0.0, 9.997944, 10.000117 
1.2650448e+3, 2.7393106e+2, -567988.0, -383803.88, -24271.074, -0.046778724, 0.022875361, -380659.22, -125178.6, 0.0, 9.997709, 10.000147 
1.2650526e+3, 2.8393155e+2, -519193.47, -282665.53, -6396.167, -0.039774697, 0.045016, -282492.72, -125016.44, 0.0, 9.997256, 10.000386 
1.2650606e+3, 2.9393277e+2, -533620.0, -234445.3, -3759.8232, -0.019367827, 0.123665124, -234398.06, -174932.84, 0.0, 9.996466, 10.000424 
1.2650685e+3, 3.0393213e+2, -537351.5, -176277.92, -779.6059, -0.025654426, 0.0048043933, -176276.25, -176276.25, 0.0, 9.995955, 10.000736 
1.2650761e+3, 3.1393394e+2, -471199.47, -17918.846, -6666.2036, -0.041652717, 0.10441484, -17820.83, -17820.83, 0.0, 9.995864, 10.001867 
1.2749316e+3, 1.23936035e+2, -1154018.9, -1689936.4, 11509.475, 0.10063631, 0.04544657, -1153771.8, 571658.94, 0.003242197, 10.00493, 9.997795 
1.2749371e+3, 1.339333e+2, -1110285.5, -1638145.5, -33691.72, -0.06862447, 0.011145719, -1108143.8, 519312.63, 0.0018704077, 10.004626, 9.997628 
1.2749466e+3, 1.439313e+2, -1063437.6, -1541593.6, -5869.247, 0.13233052, 0.03831218, -1063365.6, 466110.84, 0.0007520978, 10.004173, 9.997831 
1.274954e+3, 1.5392943e+2, -1061604.5, -1485887.5, -15533.703, 0.064589225, 0.06381056, -1061036.5, 370460.16, 0.00015251571, 10.003493, 9.997869 
1.2749615e+3, 1.6392775e+2, -997809.25, -1316957.9, -21317.512, 0.020449689, 0.075632654, -996391.7, 337122.3, 0.000004722807, 10.00288, 9.9986515 
1.2749694e+3, 1.7392638e+2, -966626.94, -1237786.3, -11476.23, 0.027927842, 0.060133282, -966142.1, 269385.0, 0.0, 10.002364, 9.998771 
1.2749775e+3, 1.8392518e+2, -927053.6, -1135780.5, -14250.887, 0.02522935, 0.05276513, -926085.1, 211453.45, 0.0, 10.001823, 9.99906 
1.274985e+3, 1.9392434e+2, -908947.4, -1069365.4, -21664.822, 0.0026339593, 0.05479906, -906073.0, 133474.38, 0.0, 10.0012455, 9.999122 
1.2749924e+3, 2.0392373e+2, -853328.94, -936239.5, -36770.215, -0.014993978, 0.06245634, -839371.3, 102182.195, 0.0, 10.000714, 9.999619 
1.2749997e+3, 2.1392357e+2, -816388.75, -857563.1, -31700.398, -0.023204274, 0.07373282, -799177.2, 44378.21, 0.0, 10.000252, 9.999708 
1.275007e+3, 2.239233e+2, -773496.8, -771811.75, -29071.568, -0.030560216, 0.071252935, -743570.5, 1987.3269, 0.0, 9.999811, 9.999836 
1.2750141e+3, 2.3392293e+2, -731637.44, -695661.6, -28299.902, -0.03745307, 0.045587093, -680116.75, -32555.98, 0.0, 9.999404, 9.999883 
1.2750214e+3, 2.4392283e+2, -691883.25, -609471.9, -41218.73, -0.04125205, 0.043583415, -592394.7, -42833.36, 0.0, 9.998935, 10.000028 
1.2750283e+3, 2.5392318e+2, -671897.8, -543581.9, -44056.188, -0.040795214, 0.06851517, -529911.9, -78353.26, 0.0, 9.998375, 10.000076 
1.2750353e+3, 2.639233e+2, -630027.4, -462272.25, -35016.418, -0.046457086, 0.06810013, -455256.5, -101698.59, 0.0, 9.997946, 10.000168 
1.2750423e+3, 2.7392316e+2, -563355.25, -374702.3, -32060.492, -0.060728528, 0.03565616, -369402.7, -113843.664, 0.0, 9.99771, 10.00021 
1.2750496e+3, 2.8392372e+2, -516413.6, -277243.22, -33063.773, -0.053644456, 0.059829183, -272756.53, -115202.516, 0.0, 9.997256, 10.000424 
1.2750572e+3, 2.9392496e+2, -531042.1, -229644.69, -32733.377, -0.015923688, 0.13728589, -226130.63, -166588.11, 0.0, 9.996467, 10.000458 
1.2750645e+3, 3.0392435e+2, -534994.06, -171928.3, -5807.1167, -0.019678105, 0.018487955, -171835.44, -171835.44, 0.0, 9.995955, 10.000766 
1.275072e+3, 3.139262e+2, -461632.56, 2193.2495, -8267.6455, -0.05086752, 0.11772024, 2340.5725, 2340.5725, 0.0, 9.995861, 10.0020075 
1.2849367e+3, 1.2392837e+2, -1152213.1, -1695227.3, 27677.543, 0.10479328, 0.049238686, -1150806.0, 574700.2, 0.003418209, 10.0049715, 9.997737 
1.2849416e+3, 1.3392563e+2, -1103775.5, -1645061.0, -20245.21, -0.08156246, 0.021443509, -1103019.3, 524513.4, 0.001983942, 10.004716, 9.997537 
1.284951e+3, 1.4392363e+2, -1045957.6, -1533883.4, -4632.278, 0.13267559, 0.055474956, -1045913.6, 483639.0, 0.0008079371, 10.004298, 9.997824 
1.2849577e+3, 1.539216e+2, -1043395.1, -1476643.9, 4156.604, 0.06622127, 0.06546277, -1043355.25, 388218.8, 0.00016903561, 10.003618, 9.99787 
1.2849645e+3, 1.639199e+2, -983440.9, -1309123.8, 7714.3286, 0.022808203, 0.07218792, -983258.25, 350333.4, 0.00000585612, 10.002976, 9.998658 
1.284972e+3, 1.7391862e+2, -960855.44, -1234081.8, -611.0267, 0.030872205, 0.06795363, -960854.06, 274749.56, 0.0, 10.002401, 9.998777 
1.2849793e+3, 1.8391746e+2, -929413.94, -1135992.4, -10810.887, 0.030852998, 0.06307971, -928849.75, 208765.08, 0.0, 10.001805, 9.999066 
1.2849861e+3, 1.9391651e+2, -919523.3, -1073305.8, -3949.5237, 0.0141392015, 0.054258164, -919421.94, 120202.57, 0.0, 10.001169, 9.999129 
1.284993e+3, 2.0391592e+2, -863276.0, -938028.1, -8356.119, -0.0061935466, 0.060609486, -862353.3, 79277.31, 0.0, 10.000634, 9.999643 
1.2849998e+3, 2.1391591e+2, -814667.7, -853334.9, -13698.436, -0.030165477, 0.08469414, -810306.6, 33324.45, 0.0, 10.000251, 9.999738 
1.2850066e+3, 2.2391571e+2, -777319.7, -769922.8, -20868.398, -0.039822184, 0.086818606, -752427.7, -6794.838, 0.0, 9.999771, 9.999868 
1.2850136e+3, 2.339153e+2, -766914.25, -708918.8, -20288.502, -0.028819775, 0.053233713, -702526.0, -54889.87, 0.0, 9.999146, 9.999915 
1.2850203e+3, 2.4391516e+2, -732149.75, -627715.7, -28756.418, -0.027052617, 0.04471783, -620321.06, -70684.04, 0.0, 9.998653, 10.000037 
1.2850267e+3, 2.5391546e+2, -673679.75, -543501.8, -28622.17, -0.039853867, 0.065752365, -537486.6, -85852.086, 0.0, 9.99836, 10.000084 
1.2850332e+3, 2.6391563e+2, -617397.4, -444738.0, -14674.171, -0.050794113, 0.06665813, -443499.72, -89866.61, 0.0, 9.997984, 10.00027 
1.28504e+3, 2.739157e+2, -588883.44, -374175.16, -8060.3687, -0.05777936, 0.043154657, -373873.0, -118240.78, 0.0, 9.99748, 10.000323 
1.2850468e+3, 2.8391635e+2, -547375.94, -294874.7, -15121.847, -0.05325131, 0.07100394, -293972.3, -136345.92, 0.0, 9.997056, 10.000399 
1.2850535e+3, 2.939175e+2, -492531.6, -216027.55, -21549.305, -0.033650283, 0.1444682, -214358.19, -154742.36, 0.0, 9.996753, 10.000413 
1.2850605e+3, 3.0391687e+2, -490802.16, -154097.94, 4054.9858, -0.040733177, 0.024218727, -154049.11, -154049.11, 0.0, 9.996275, 10.000733 
1.2850678e+3, 3.1391862e+2, -504573.97, -8983.592, -2605.447, -0.0478925, 0.1177747, -8969.895, -8969.895, 0.0, 9.995528, 10.00209 
1.2949418e+3, 1.2392118e+2, -1166609.4, -1725552.5, 9116.705, 0.11377043, 0.05257374, -1166460.6, 559116.44, 0.0035948176, 10.004973, 9.997528 
1.2949462e+3, 1.3391829e+2, -1120004.9, -1679671.4, -29974.354, -0.08513085, 0.034297388, -1118404.1, 509201.7, 0.0020981366, 10.004719, 9.997299 
1.2949553e+3, 1.439163e+2, -1030073.25, -1501838.1, -29086.172, 0.13786949, 0.07162874, -1028286.75, 501338.9, 0.00086486497, 10.004301, 9.998043 
1.2949611e+3, 1.5391421e+2, -1023636.6, -1436769.4, -21839.982, 0.06305416, 0.048504476, -1022485.25, 409160.97, 0.00018650538, 10.003621, 9.998143 
1.2949674e+3, 1.6391248e+2, -996361.0, -1337200.1, -14807.138, 0.0152323, 0.04671935, -995718.94, 337944.72, 0.0000072252774, 10.002981, 9.998465 
1.2949742e+3, 1.7391126e+2, -977570.44, -1270027.8, -22572.25, 0.025708895, 0.07230458, -975838.56, 259837.88, 0.0, 10.002405, 9.99853 
1.2949811e+3, 1.8391016e+2, -917963.8, -1113438.4, -34799.47, 0.031572927, 0.079006284, -911953.44, 225734.1, 0.0, 10.001808, 9.99922 
1.2949875e+3, 1.9390924e+2, -904712.3, -1043700.0, -28131.43, 0.025988538, 0.054054637, -899234.4, 140461.6, 0.0, 10.001173, 9.999332 
1.2949939e+3, 2.0390867e+2, -868800.5, -950542.75, -24002.943, 0.005860043, 0.05448419, -862273.44, 79428.21, 0.0, 10.000638, 9.999557 
1.295e+3, 2.1390861e+2, -822612.1, -870840.06, -28164.426, -0.034880046, 0.08779894, -809648.9, 34054.242, 0.0, 10.000254, 9.999617 
1.2950063e+3, 2.2390845e+2, -775541.0, -767223.2, -43403.44, -0.048599526, 0.09865478, -727779.9, 17925.193, 0.0, 9.999774, 9.9998865 
1.2950128e+3, 2.3390815e+2, -763815.1, -703495.8, -43636.445, -0.021878833, 0.07253015, -680610.7, -32903.38, 0.0, 9.999149, 9.999951 
1.2950191e+3, 2.4390802e+2, -728702.94, -621521.1, -40745.137, -0.017328603, 0.05990757, -607790.75, -58082.66, 0.0, 9.998656, 10.000079 
1.2950249e+3, 2.5390816e+2, -670208.4, -537117.6, -39071.574, -0.046823975, 0.06069109, -526495.2, -74788.516, 0.0, 9.998362, 10.000128 
1.2950312e+3, 2.6390836e+2, -606928.6, -423713.13, -32051.303, -0.057439804, 0.055146836, -418267.97, -64563.348, 0.0, 9.997985, 10.000414 
1.2950376e+3, 2.7390873e+2, -577582.44, -351024.94, -26174.918, -0.038630147, 0.045190044, -348040.2, -92339.6, 0.0, 9.99748, 10.0004835 
1.295044e+3, 2.8390944e+2, -553875.56, -308522.28, -26380.414, -0.039422926, 0.07847728, -305717.9, -148024.14, 0.0, 9.997055, 10.000306 
1.29505e+3, 2.9391047e+2, -501255.63, -234471.08, -31785.656, -0.072258815, 0.14558388, -230736.3, -171050.77, 0.0, 9.996753, 10.000287 
1.2950562e+3, 3.0390963e+2, -498158.4, -169435.69, -21293.191, -0.088141516, 0.022533981, -168062.14, -168062.14, 0.0, 9.996274, 10.00063 
1.2950633e+3, 3.139112e+2, -504121.3, -7417.9, -29244.313, -0.0337139, 0.105593696, -5702.0156, -5702.0156, 0.0, 9.995523, 10.002104 
1.3049468e+3, 1.2391451e+2, -1113843.9, -1697402.0, 12365.186, 0.113804646, 0.0756851, -1113582.0, 612061.8, 0.003770981, 10.005329, 9.997549 
1.304951e+3, 1.339114e+2, -1113214.3, -1674413.5, 1123.7753, -0.08816149, 0.03352286, -1113212.0, 514462.03, 0.002212092, 10.004759, 9.997315 
1.3049597e+3, 1.4390944e+2, -1045076.06, -1507073.3, -1952.4485, 0.1469438, 0.07197834, -1045067.8, 484625.53, 0.0009222223, 10.004191, 9.998059 
1.3049649e+3, 1.5390743e+2, -1021772.4, -1434075.9, -15120.553, 0.06175077, 0.056289017, -1021218.6, 410494.5, 0.00020472752, 10.003628, 9.998158 
1.3049704e+3, 1.6390572e+2, -989361.94, -1333751.3, -12562.437, 0.009216555, 0.056280605, -988904.3, 344826.06, 0.000008878654, 10.00303, 9.998464 
1.3049766e+3, 1.7390445e+2, -982424.94, -1272064.8, -1990.4932, 0.025325751, 0.07517807, -982411.3, 253332.39, 0.0, 10.002372, 9.99853 
1.3049829e+3, 1.8390335e+2, -921105.6, -1110566.1, -6616.783, 0.0348645, 0.08065742, -920874.8, 216879.86, 0.0, 10.00177, 9.999257 
1.3049887e+3, 1.9390254e+2, -890366.25, -1031790.9, -12048.28, 0.029059274, 0.06283658, -889347.2, 150414.67, 0.0, 10.001251, 9.999375 
1.3049947e+3, 2.0390198e+2, -860571.6, -950528.0, -9856.989, 0.012519691, 0.063633494, -859504.2, 82263.234, 0.0, 10.000712, 9.99952 
1.3050003e+3, 2.1390179e+2, -842607.2, -885548.6, -8604.814, -0.018782716, 0.08714656, -840947.06, 2823.3804, 0.0, 10.000139, 9.99957 
1.3050061e+3, 2.2390161e+2, -796368.2, -776250.0, -22914.223, -0.03392807, 0.09869766, -761284.1, -15511.376, 0.0, 9.999627, 9.999894 
1.305012e+3, 2.3390149e+2, -754503.75, -697167.3, -25259.861, -0.024879491, 0.08907664, -687626.5, -39852.875, 0.0, 9.999207, 9.999967 
1.3050176e+3, 2.4390143e+2, -711348.94, -606824.5, -19175.97, -0.02583745, 0.07972991, -603417.56, -53643.797, 0.0, 9.99875, 10.000134 
1.3050233e+3, 2.5390145e+2, -684638.6, -537383.06, -16162.4, -0.042375322, 0.06366193, -535630.0, -83857.13, 0.0, 9.998235, 10.000187 
1.3050291e+3, 2.6390165e+2, -638739.4, -432505.56, -14325.016, -0.04898898, 0.051457744, -431515.3, -77744.734, 0.0, 9.99774, 10.000472 
1.305035e+3, 2.7390215e+2, -603046.9, -356760.47, -16799.59, -0.040052734, 0.050400488, -355619.8, -99854.75, 0.0, 9.997278, 10.000541 
1.3050409e+3, 2.8390294e+2, -582511.94, -319703.5, -12900.21, -0.045938283, 0.08382758, -319071.8, -161313.94, 0.0, 9.996849, 10.000329 
1.3050464e+3, 2.939038e+2, -543050.56, -252672.4, -7751.9097, -0.076345414, 0.13802883, -252465.61, -192714.9, 0.0, 9.996459, 10.000303 
1.3050522e+3, 3.0390304e+2, -532689.6, -181169.55, 3551.78, -0.09463459, 0.015259576, -181133.67, -181133.67, 0.0, 9.996018, 10.000672 
1.3050587e+3, 3.1390467e+2, -495275.88, 14432.839, 5549.113, -0.046427768, 0.099919215, 14493.243, 14493.243, 0.0, 9.99551, 10.00226 
1.3149521e+3, 1.23908445e+2, -1096140.9, -1661211.1, -19130.838, 0.10372439, 0.119934, -1095493.9, 630211.44, 0.0039451807, 10.005331, 9.997798 
1.3149558e+3, 1.3390501e+2, -1093829.4, -1635120.4, -20335.646, -0.09068369, 0.01874792, -1093066.5, 534670.3, 0.0023247015, 10.004762, 9.997584 
1.314964e+3, 1.4390309e+2, -1058451.9, -1535798.1, -23774.406, 0.15977445, 0.05602187, -1057270.8, 472484.44, 0.0009793639, 10.004194, 9.997862 
1.3149683e+3, 1.5390134e+2, -1039153.2, -1471114.8, -36653.215, 0.061933395, 0.088941656, -1036065.1, 395709.2, 0.00022351045, 10.003631, 9.997904 
1.3149732e+3, 1.6389969e+2, -975588.94, -1306245.4, -37357.805, 0.0043901126, 0.10121169, -971420.75, 362370.6, 0.000010883257, 10.003033, 9.9986515 
1.3149792e+3, 1.738982e+2, -964711.3, -1236445.4, -27066.441, 0.029628573, 0.076816075, -962041.56, 273763.5, 0.0, 10.002376, 9.998775 
1.3149847e+3, 1.8389706e+2, -926250.6, -1122446.0, -27049.457, 0.04054852, 0.06812748, -922589.6, 215226.28, 0.0, 10.001774, 9.999175 
1.3149899e+3, 1.9389646e+2, -898238.2, -1049319.4, -31706.473, 0.023183528, 0.08039586, -891853.94, 147968.16, 0.0, 10.001255, 9.999254 
1.3149953e+3, 2.038959e+2, -859650.4, -949729.44, -31399.17, 0.013511791, 0.08783605, -849785.75, 92042.17, 0.0, 10.000716, 9.999525 
1.3150008e+3, 2.1389543e+2, -840561.3, -882357.25, -30240.88, 0.017758608, 0.082815416, -824700.1, 19132.96, 0.0, 10.000142, 9.999591 
1.3150062e+3, 2.2389519e+2, -796403.9, -777353.4, -39325.586, 0.0038862147, 0.08712067, -746415.94, -579.8918, 0.0, 9.99963, 9.9998865 
1.315011e+3, 2.3389532e+2, -754706.5, -698574.9, -40821.79, -0.037778433, 0.10291872, -677101.75, -29266.596, 0.0, 9.999209, 9.999957 
1.3150162e+3, 2.4389537e+2, -706529.8, -597726.0, -37780.953, -0.05262132, 0.103984386, -585893.75, -36059.55, 0.0, 9.998752, 10.000197 
1.3150217e+3, 2.5389534e+2, -679097.3, -526645.4, -34895.68, -0.027040575, 0.07441068, -519037.56, -67204.23, 0.0, 9.998237, 10.00026 
1.315027e+3, 2.6389548e+2, -641003.1, -437915.56, -31134.303, -0.026024785, 0.05544884, -433249.72, -79418.484, 0.0, 9.997741, 10.000435 
1.3150321e+3, 2.73896e+2, -606084.56, -363924.47, -33155.79, -0.061795358, 0.05887132, -359466.94, -103640.91, 0.0, 9.99728, 10.000492 
1.3150375e+3, 2.8389674e+2, -573304.1, -301087.7, -26718.361, -0.07253224, 0.08711231, -298490.03, -140671.0, 0.0, 9.996849, 10.000457 
1.3150433e+3, 2.9389757e+2, -533090.0, -231401.13, -21266.986, -0.047356714, 0.12155552, -229909.31, -170097.42, 0.0, 9.996454, 10.000453 
1.3150486e+3, 3.03897e+2, -520806.7, -155515.25, -14064.679, -0.062143814, 0.002172866, -154974.52, -154974.52, 0.0, 9.996012, 10.000853 
1.3150539e+3, 3.1389895e+2, -475112.5, 56519.457, -11581.752, -0.086049564, 0.1020529, 56771.65, 56771.65, 0.0, 9.995507, 10.002552 
1.3249573e+3, 1.2390276e+2, -1098792.9, -1656769.4, 16961.742, 0.08692005, 0.11995706, -1098277.6, 627483.7, 0.0041166367, 10.005291, 9.997848 
1.3249606e+3, 1.3389939e+2, -1081165.0, -1620432.5, 10714.354, -0.092273965, 0.016880056, -1080952.3, 546839.7, 0.0024351843, 10.004813, 9.99766 
1.3249682e+3, 1.4389756e+2, -1048162.6, -1536615.3, 1404.4393, 0.17341101, 0.06339682, -1048158.6, 481650.47, 0.0010357843, 10.004292, 9.997808 
1.324972e+3, 1.5389569e+2, -1033997.8, -1476046.9, 2273.2107, 0.057447657, 0.09118887, -1033986.1, 397843.47, 0.000242667, 10.0037, 9.997836 
1.3249764e+3, 1.6389395e+2, -967932.06, -1303094.3, 317.47253, -0.005036551, 0.09887605, -967931.8, 365915.72, 0.000013283229, 10.00309, 9.998645 
1.3249816e+3, 1.7389247e+2, -953609.1, -1230719.3, -8186.2764, 0.036921978, 0.07217354, -953367.5, 282493.7, 0.0, 10.002452, 9.998776 
1.3249865e+3, 1.8389133e+2, -922046.44, -1128561.6, -14868.383, 0.051283356, 0.06625565, -920981.44, 216890.72, 0.0, 10.001839, 9.999101 
1.3249911e+3, 1.9389072e+2, -903117.3, -1060606.5, -16603.865, 0.016527742, 0.088317685, -901385.8, 138492.88, 0.0, 10.001262, 9.999173 
1.3249959e+3, 2.0389013e+2, -862203.7, -948780.4, -15220.462, 0.0028007478, 0.09759641, -859605.8, 82279.086, 0.0, 10.00069, 9.999543 
1.3250011e+3, 2.1388961e+2, -840887.8, -878888.7, -13703.007, 0.023720235, 0.08263899, -836462.0, 7428.2876, 0.0, 10.000126, 9.999622 
1.3250059e+3, 2.2388937e+2, -802834.4, -781072.75, -18863.656, 0.016354585, 0.08392499, -770176.75, -24283.453, 0.0, 9.99959, 9.999879 
1.32501e+3, 2.3388954e+2, -771750.8, -708057.5, -20520.092, -0.034832075, 0.10739064, -702019.0, -54126.684, 0.0, 9.9991, 9.999945 
1.3250148e+3, 2.4388966e+2, -724073.9, -599662.25, -19942.541, -0.05425285, 0.11342913, -596543.7, -46652.75, 0.0, 9.998605, 10.000255 
1.3250199e+3, 2.538897e+2, -693995.1, -526126.1, -18254.918, -0.025632923, 0.08459543, -524163.9, -72274.84, 0.0, 9.998102, 10.000328 
1.3250248e+3, 2.6388985e+2, -660490.9, -449651.47, -13054.421, -0.025126494, 0.06493031, -448846.25, -94959.586, 0.0, 9.997619, 10.000413 
1.3250293e+3, 2.7389032e+2, -626102.7, -377258.44, -14091.645, -0.06653626, 0.065069035, -376463.0, -120580.76, 0.0, 9.99716, 10.000458 
1.3250342e+3, 2.8389105e+2, -593355.5, -298221.56, -8482.837, -0.07742028, 0.08815919, -297977.97, -140102.55, 0.0, 9.996659, 10.000567 
1.3250394e+3, 2.9389197e+2, -576320.1, -237981.92, -5322.898, -0.04472846, 0.116323575, -237898.2, -178030.92, 0.0, 9.9960985, 10.000578 
1.3250445e+3, 3.0389154e+2, -574073.75, -173668.58, -1595.092, -0.05910594, 0.005313228, -173662.22, -173662.22, 0.0, 9.995616, 10.000917 
1.3250493e+3, 3.138936e+2, -501460.28, 61943.96, -7857.422, -0.088566795, 0.10524289, 62053.523, 62053.523, 0.0, 9.99525, 10.002712 
1.3349622e+3, 1.23897515e+2, -1109875.0, -1680292.9, -11350.583, 0.062326737, 0.07417667, -1109649.3, 616162.06, 0.0042857965, 10.005292, 9.997685 
1.3349654e+3, 1.3389458e+2, -1089721.8, -1639028.1, -7216.5234, -0.09305109, 0.028280178, -1089627.0, 538211.8, 0.002543431, 10.004815, 9.997532 
1.3349728e+3, 1.4389293e+2, -1041731.2, -1524027.0, -21039.807, 0.18758595, 0.094731905, -1040815.1, 489039.44, 0.0010910727, 10.004293, 9.997894 
1.3349757e+3, 1.5389058e+2, -1025408.56, -1459212.0, -20292.002, 0.048059784, 0.06274747, -1024461.44, 407417.1, 0.00026193066, 10.003703, 9.997951 
1.3349792e+3, 1.6388859e+2, -981856.44, -1333253.6, -23826.037, -0.019347273, 0.048839398, -980248.3, 353650.16, 0.000016032998, 10.003094, 9.998437 
1.3349842e+3, 1.7388725e+2, -970300.7, -1266704.9, -32492.938, 0.047015417, 0.060965784, -966780.5, 269131.22, 0.00000000003443261, 10.002456, 9.9985285 
1.3349886e+3, 1.8388613e+2, -926375.5, -1138866.3, -37210.14, 0.06678854, 0.07479686, -920047.94, 217875.23, 0.0, 10.0018425, 9.999029 
1.3349923e+3, 1.9388537e+2, -905941.06, -1067657.6, -38584.465, 0.008895752, 0.086708985, -897206.8, 142724.81, 0.0, 10.001265, 9.999124 
1.3349964e+3, 2.0388475e+2, -859699.3, -944625.7, -36712.227, -0.019845657, 0.09312331, -846029.56, 95908.78, 0.0, 10.000693, 9.999571 
1.335001e+3, 2.1388434e+2, -837767.2, -873484.25, -35017.29, -0.0010210425, 0.08654525, -816317.5, 27624.523, 0.0, 10.000129, 9.999659 
1.3350053e+3, 2.238841e+2, -803293.7, -783088.6, -37540.203, 0.0032584444, 0.08893145, -754315.4, -8370.657, 0.0, 9.999594, 9.999865 
1.3350093e+3, 2.3388417e+2, -772734.25, -711085.06, -38690.355, -0.016407171, 0.10241894, -692441.5, -44496.15, 0.0, 9.999102, 9.999923 
1.3350137e+3, 2.4388431e+2, -720421.25, -593000.44, -38341.105, -0.031081516, 0.108071044, -582353.2, -32408.97, 0.0, 9.998607, 10.000299 
1.3350178e+3, 2.5388455e+2, -689782.5, -518350.88, -36484.137, -0.038135342, 0.09432798, -510909.3, -58969.023, 0.0, 9.998105, 10.0003805 
1.3350222e+3, 2.6388478e+2, -661263.1, -451911.88, -29590.137, -0.046336077, 0.07987836, -447809.94, -93872.76, 0.0, 9.997621, 10.000398 
1.3350265e+3, 2.738851e+2, -627720.8, -380689.94, -30184.229, -0.05505862, 0.06872062, -377055.28, -121121.14, 0.0, 9.997159, 10.000436 
1.335031e+3, 2.838858e+2, -587635.0, -286381.63, -28039.533, -0.061572697, 0.08675021, -283794.03, -125866.54, 0.0, 9.996657, 10.00065 
1.3350354e+3, 2.9388687e+2, -569416.75, -224447.03, -25095.56, -0.068224825, 0.12222002, -222630.95, -162713.56, 0.0, 9.996099, 10.000671 
1.3350397e+3, 3.0388662e+2, -577676.7, -181444.94, -14826.254, -0.08531763, 0.024500461, -180890.94, -180890.94, 0.0, 9.995616, 10.000865 
1.3350448e+3, 3.1388846e+2, -500981.8, 64890.85, -19352.756, -0.056215454, 0.11044082, 65551.94, 65551.94, 0.0, 9.99524, 10.002738 
1.3449678e+3, 1.23893164e+2, -1079220.6, -1680430.6, 6848.478, 0.06510088, 0.057458367, -1079142.6, 646710.3, 0.004454194, 10.005571, 9.997549 
1.3449702e+3, 1.3389021e+2, -1071751.1, -1640716.5, 23913.988, -0.10065284, 0.019628335, -1070747.8, 557133.44, 0.0026499636, 10.004986, 9.997438 
1.344977e+3, 1.4388861e+2, -1023214.4, -1513829.3, 7163.5654, 0.18284664, 0.095449015, -1023109.8, 506786.88, 0.0011449617, 10.004417, 9.997905 
1.3449796e+3, 1.5388615e+2, -998862.44, -1443616.9, 565.28613, 0.04857042, 0.051179335, -998861.75, 433059.3, 0.0002809476, 10.003875, 9.997974 
1.3449824e+3, 1.6388409e+2, -965850.0, -1338537.4, -7862.208, -0.018849062, 0.033972453, -965684.25, 368257.28, 0.000018979208, 10.003261, 9.99832 
1.3449866e+3, 1.7388274e+2, -968131.7, -1280368.8, -8598.744, 0.04061057, 0.057042085, -967895.06, 268060.34, 0.0000000014653116, 10.002535, 9.998396 
1.3449903e+3, 1.8388154e+2, -931755.9, -1155379.0, -6983.047, 0.060968902, 0.07569381, -931538.06, 206430.1, 0.0, 10.001867, 9.998903 
1.3449937e+3, 1.938806e+2, -911972.0, -1084258.9, -14030.934, 0.014743185, 0.083067186, -910836.8, 129141.945, 0.0, 10.001284, 9.999 
1.3449971e+3, 2.0387994e+2, -856141.9, -937271.5, -14823.94, -0.013114069, 0.09033119, -853518.1, 88467.836, 0.0, 10.000695, 9.99962 
1.345001e+3, 2.138797e+2, -837477.5, -864989.7, -11003.609, -0.010147249, 0.09267329, -833618.0, 10369.562, 0.0, 10.000096, 9.999732 
1.3450047e+3, 2.238795e+2, -816550.94, -796735.94, -11269.225, -0.008485015, 0.09711437, -791638.3, -45648.48, 0.0, 9.999536, 9.999798 
1.3450086e+3, 2.3387939e+2, -789135.8, -727911.44, -17230.47, -0.010364183, 0.102165125, -723395.4, -75402.69, 0.0, 9.99903, 9.999842 
1.3450123e+3, 2.4387948e+2, -728121.06, -594410.75, -20011.297, -0.019476954, 0.10797224, -591480.06, -41487.797, 0.0, 9.998547, 10.000318 
1.3450159e+3, 2.538799e+2, -689348.3, -514428.7, -20324.334, -0.03978734, 0.10798908, -512098.2, -60111.547, 0.0, 9.998095, 10.000412 
1.3450196e+3, 2.6388022e+2, -665989.94, -454318.5, -15884.907, -0.05250767, 0.09846903, -453133.06, -99150.18, 0.0, 9.997591, 10.000394 
1.3450237e+3, 2.7388042e+2, -650161.25, -391906.97, -16150.774, -0.052353777, 0.07766503, -390900.84, -134919.95, 0.0, 9.997009, 10.000429 
1.3450275e+3, 2.838811e+2, -610765.3, -294799.06, -14769.248, -0.055362217, 0.09160829, -294110.22, -136135.64, 0.0, 9.99649, 10.000672 
1.3450316e+3, 2.9388225e+2, -573768.25, -223766.33, -17379.184, -0.06685189, 0.13384764, -222905.48, -162942.03, 0.0, 9.99606, 10.000693 
1.3450353e+3, 3.0388212e+2, -596121.56, -196034.34, -12305.714, -0.09094211, 0.049631774, -195656.22, -195656.22, 0.0, 9.995516, 10.000813 
1.3450396e+3, 3.1388372e+2, -563388.25, 37987.246, -16030.836, -0.06813164, 0.11811686, 38414.277, 38414.277, 0.0, 9.994801, 10.002765 
1.3549736e+3, 1.2388979e+2, -1087610.6, -1697854.0, -26189.428, 0.0949336, 0.07106418, -1086488.8, 639396.75, 0.0046243016, 10.005571, 9.99743 
1.354975e+3, 1.3388634e+2, -1075773.9, -1649994.9, 1754.8763, -0.115310535, -0.009420963, -1075768.5, 552150.06, 0.0027559139, 10.004989, 9.997374 
1.3549812e+3, 1.4388466e+2, -1027951.0, -1524785.3, -14015.436, 0.158493, 0.06490857, -1027555.94, 502378.97, 0.0011974836, 10.00442, 9.9978285 
1.3549834e+3, 1.5388247e+2, -1003675.7, -1454755.4, -20188.643, 0.05883645, 0.05666821, -1002773.94, 429182.72, 0.00029940598, 10.003878, 9.997897 
1.3549858e+3, 1.6388053e+2, -967288.3, -1342755.3, -34895.97, -0.003610142, 0.05455733, -964072.6, 369903.66, 0.00002192539, 10.003264, 9.99829 
1.354989e+3, 1.7387895e+2, -968933.0, -1283332.3, -36276.3, 0.017470378, 0.060531087, -964801.6, 271190.38, 0.0000000068048798, 10.00254, 9.998374 
1.354992e+3, 1.8387756e+2, -944053.9, -1182146.9, -29840.824, 0.0333954, 0.06914054, -940370.9, 197636.02, 0.0, 10.001871, 9.998718 
1.354995e+3, 1.9387645e+2, -925656.6, -1113936.5, -36151.76, 0.033867408, 0.07719079, -918953.7, 121066.28, 0.0, 10.001287, 9.9987955 
1.3549982e+3, 2.0387574e+2, -851033.7, -927847.25, -37487.15, 0.022770476, 0.08879388, -835771.4, 106256.33, 0.0, 10.000698, 9.999684 
1.355001e+3, 2.1387568e+2, -829803.0, -850184.6, -33627.66, -0.0038338748, 0.10103097, -804855.94, 39170.91, 0.0, 10.0001, 9.999833 
1.3550043e+3, 2.2387552e+2, -824569.8, -814450.8, -30584.98, -0.019016607, 0.10857041, -788509.7, -42480.945, 0.0, 9.999538, 9.999676 
1.3550076e+3, 2.338752e+2, -799329.9, -750020.06, -35939.055, -0.016841264, 0.10671719, -731091.94, -83057.5, 0.0, 9.999033, 9.999689 
1.3550109e+3, 2.4387522e+2, -728801.0, -596600.5, -36697.1, -0.019699218, 0.11321251, -587097.06, -37061.824, 0.0, 9.9985485, 10.000302 
1.3550141e+3, 2.5387576e+2, -688848.3, -514000.56, -36588.34, -0.030909136, 0.12529854, -506652.9, -54624.49, 0.0, 9.9980955, 10.000415 
1.3550173e+3, 2.638761e+2, -665887.3, -454653.44, -36312.31, -0.04402995, 0.12035786, -448585.44, -94561.25, 0.0, 9.997591, 10.000392 
1.3550206e+3, 2.7387625e+2, -649995.2, -392185.22, -36876.54, -0.05892304, 0.09205546, -387014.2, -130991.234, 0.0, 9.99701, 10.000427 
1.355024e+3, 2.8387687e+2, -614018.1, -301726.44, -30218.732, -0.059418272, 0.1028282, -298829.22, -140812.02, 0.0, 9.99649, 10.000627 
1.3550277e+3, 2.9387802e+2, -578331.2, -232408.31, -32014.75, -0.041451998, 0.15079004, -229470.34, -169464.17, 0.0, 9.996056, 10.000638 
1.355031e+3, 3.0387795e+2, -600872.06, -205164.92, -36630.055, -0.07690184, 0.08056854, -201802.7, -201802.7, 0.0, 9.995511, 10.000753 
1.355034e+3, 3.1387934e+2, -561988.06, 40580.785, -40300.227, -0.1253328, 0.13065222, 43264.145, 43264.145, 0.0, 9.994801, 10.002783 
1.3649793e+3, 1.2388689e+2, -1113853.9, -1720393.9, -13524.42, 0.106255546, 0.08347115, -1113552.5, 612361.3, 0.0047992268, 10.005436, 9.997338 
1.36498e+3, 1.3388327e+2, -1058926.9, -1643893.1, 28043.963, -0.12296266, -0.012152822, -1057585.5, 570363.3, 0.0028630705, 10.0051155, 9.997354 
1.3649856e+3, 1.4388154e+2, -1004385.0, -1517183.4, 7370.842, 0.14590701, 0.06085066, -1004279.06, 525686.44, 0.00124912, 10.004601, 9.997793 
1.3649873e+3, 1.5387934e+2, -1017131.25, -1465245.9, 3468.3564, 0.059102304, 0.05378076, -1017104.44, 414882.75, 0.00031718722, 10.003804, 9.99786 
1.364989e+3, 1.6387737e+2, -991245.4, -1359701.3, -8543.934, 0.0008452908, 0.053754576, -991047.3, 342959.63, 0.00002472805, 10.003124, 9.99824 
1.3649915e+3, 1.738758e+2, -960957.94, -1284980.5, -12192.019, 0.013829013, 0.064468525, -960499.8, 275523.2, 0.000000016360648, 10.002619, 9.998324 
1.3649939e+3, 1.8387434e+2, -925572.1, -1184782.9, -4936.7524, 0.027685609, 0.07458595, -925478.2, 212560.47, 0.0, 10.0020485, 9.998614 
1.3649964e+3, 1.9387306e+2, -920226.25, -1123682.4, -4570.358, 0.03489153, 0.078269504, -920123.7, 119929.62, 0.0, 10.001379, 9.998683 
1.364999e+3, 2.0387226e+2, -844886.06, -929123.94, -3752.5554, 0.027616194, 0.088209026, -844719.25, 97342.73, 0.0, 10.00076, 9.999644 
1.3650014e+3, 2.1387222e+2, -814428.7, -845958.6, -9753.808, 0.00039540546, 0.1033511, -811655.25, 32405.836, 0.0, 10.00022, 9.999803 
1.3650037e+3, 2.2387202e+2, -809624.06, -816376.3, -9684.961, -0.017952891, 0.11403156, -802743.6, -56680.297, 0.0, 9.999682, 9.999592 
1.3650066e+3, 2.3387164e+2, -789592.4, -755359.7, -11033.668, -0.022778692, 0.11564213, -752111.56, -104041.77, 0.0, 9.999145, 9.999598 
1.3650092e+3, 2.438716e+2, -726364.94, -597850.44, -10329.6455, -0.026923846, 0.122271396, -597025.44, -46954.086, 0.0, 9.998578, 10.000278 
1.3650121e+3, 2.5387207e+2, -708436.44, -524761.25, -12192.101, -0.030842481, 0.12928939, -523955.47, -71890.27, 0.0, 9.99797, 10.0004 
1.3650149e+3, 2.638724e+2, -697644.56, -470341.72, -14773.335, -0.040717393, 0.12571548, -469385.56, -115324.52, 0.0, 9.997378, 10.000385 
1.3650174e+3, 2.7387267e+2, -679524.7, -406713.78, -16527.924, -0.058623873, 0.10800262, -405716.1, -149657.13, 0.0, 9.996812, 10.000422 
1.3650204e+3, 2.838733e+2, -652473.5, -317027.34, -7015.897, -0.058462285, 0.11733986, -316880.66, -158827.44, 0.0, 9.996214, 10.000652 
1.3650237e+3, 2.938743e+2, -648113.4, -262560.28, -3262.7124, -0.03424867, 0.14782518, -262532.7, -202489.47, 0.0, 9.995564, 10.000666 
1.3650262e+3, 3.038743e+2, -677291.25, -244874.38, -4422.623, -0.07301969, 0.08584483, -244829.14, -244829.14, 0.0, 9.995001, 10.000725 
1.3650285e+3, 3.1387568e+2, -592766.0, 29487.37, -5791.454, -0.13558273, 0.13388234, 29541.268, 29541.268, 0.0, 9.994575, 10.002814 
1.3749847e+3, 1.2388453e+2, -1118584.9, -1730533.6, -36883.41, 0.09792377, 0.09372635, -1116369.9, 609567.75, 0.004981908, 10.005437, 9.99727 
1.3749851e+3, 1.3388106e+2, -1057196.9, -1640964.1, 15761.537, -0.12366767, 0.011971095, -1056771.6, 571199.7, 0.0029734168, 10.005117, 9.997375 
1.3749902e+3, 1.4387934e+2, -1004161.3, -1517565.6, -21574.484, 0.1449932, 0.08384443, -1003256.3, 526731.5, 0.0013006679, 10.004602, 9.99779 
1.374991e+3, 1.5387678e+2, -1016760.94, -1465547.0, -26962.654, 0.049058918, 0.042467356, -1015146.9, 416865.34, 0.00033436695, 10.003807, 9.997857 
1.3749921e+3, 1.6387466e+2, -995727.8, -1370283.0, -29096.283, -0.00587101, 0.031371552, -993481.0, 340552.25, 0.000027345353, 10.003128, 9.998167 
1.374994e+3, 1.7387328e+2, -965885.6, -1296662.5, -31410.156, 0.02953649, 0.06864557, -962929.4, 273118.78, 0.000000027808229, 10.002624, 9.998242 
1.3749962e+3, 1.8387188e+2, -927197.0, -1189525.8, -29884.22, 0.04362498, 0.09170861, -923835.7, 214227.6, 0.0, 10.002053, 9.998581 
1.3749976e+3, 1.938705e+2, -921228.75, -1127013.6, -30009.414, 0.017616235, 0.086439155, -916941.8, 123136.69, 0.0, 10.001383, 9.998659 
1.3749996e+3, 2.0386954e+2, -854691.0, -950630.4, -24784.55, 0.0011922731, 0.08883341, -848666.56, 93422.0, 0.0, 10.000764, 9.999496 
1.3750015e+3, 2.1386929e+2, -825438.9, -869958.25, -30028.0, 0.0023221686, 0.09955987, -810319.8, 33770.535, 0.0, 10.000224, 9.999638 
1.3750036e+3, 2.23869e+2, -812855.4, -824196.1, -29769.412, -0.0055963555, 0.113313705, -788221.06, -42127.42, 0.0, 9.999685, 9.999538 
1.3750055e+3, 2.3386873e+2, -791835.8, -761064.8, -30916.719, -0.028311558, 0.12885508, -741916.9, -93817.91, 0.0, 9.999147, 9.9995575 
1.3750078e+3, 2.4386863e+2, -728837.94, -603982.3, -32519.643, -0.041335884, 0.13505575, -596020.06, -45919.176, 0.0, 9.998581, 10.000236 
1.37501e+3, 2.5386885e+2, -711073.5, -530897.7, -34422.977, -0.04005659, 0.12032947, -524545.06, -72447.78, 0.0, 9.997971, 10.000359 
1.3750122e+3, 2.6386914e+2, -699140.44, -473717.63, -35317.39, -0.04311113, 0.11508805, -468313.94, -114220.164, 0.0, 9.997377, 10.000363 
1.3750143e+3, 2.7386966e+2, -680959.4, -409774.94, -36674.582, -0.051619638, 0.12536444, -404902.66, -148813.22, 0.0, 9.996811, 10.000402 
1.3750166e+3, 2.838703e+2, -646397.5, -304573.0, -29892.756, -0.052833065, 0.13500571, -301978.56, -143895.28, 0.0, 9.996213, 10.000739 
1.3750191e+3, 2.9387105e+2, -641058.1, -248198.63, -26512.578, -0.0465666, 0.1258629, -246417.47, -186342.19, 0.0, 9.995564, 10.000766 
1.3750212e+3, 3.0387112e+2, -677719.2, -246013.48, -20012.514, -0.08096447, 0.06633758, -245087.77, -245087.77, 0.0, 9.995001, 10.000718 
1.3750234e+3, 3.1387258e+2, -590661.56, 33963.32, -19153.453, -0.1002908, 0.12909174, 34550.09, 34550.09, 0.0, 9.994573, 10.002847 
1.38499e+3, 1.23882785e+2, -1077497.6, -1723702.6, -3917.143, 0.08791177, 0.08657052, -1077473.9, 648480.44, 0.0051742014, 10.00578, 9.99715 
1.3849902e+3, 1.338794e+2, -1070910.0, -1651685.8, 54337.113, -0.11427384, 0.01706948, -1065870.0, 562117.8, 0.0030884566, 10.005041, 9.997337 
1.3849947e+3, 1.4387769e+2, -1037224.9, -1531907.0, 9422.881, 0.15641727, 0.092570536, -1037045.44, 492958.8, 0.0013529039, 10.00437, 9.997804 
1.3849947e+3, 1.5387505e+2, -1014906.2, -1461840.6, 5258.131, 0.046172343, 0.0390633, -1014844.3, 417184.8, 0.0003511004, 10.00381, 9.997881 
1.3849953e+3, 1.6387285e+2, -986357.56, -1376900.4, 7705.868, -0.013680208, 0.024922699, -986205.56, 347845.16, 0.000029813278, 10.003242, 9.998066 
1.3849968e+3, 1.7387147e+2, -967925.3, -1310799.5, 3095.0781, 0.031980596, 0.07402361, -967897.4, 268168.84, 0.000000039188958, 10.002667, 9.998124 
1.3849981e+3, 1.8387005e+2, -924575.4, -1189459.5, 52.194763, 0.04734242, 0.0997794, -924575.4, 213506.47, 0.0, 10.002077, 9.998569 
1.384999e+3, 1.9386855e+2, -909631.9, -1120999.6, 1021.74664, 0.0085276775, 0.08323666, -909626.94, 130470.56, 0.0, 10.001462, 9.998662 
1.385e+3, 2.038675e+2, -848841.0, -964748.44, 10423.47, -0.01089351, 0.08319972, -847911.06, 94197.305, 0.0, 10.000878, 9.999343 
1.3850018e+3, 2.1386719e+2, -820011.75, -886435.7, 4724.041, 0.002565588, 0.10531782, -819677.44, 24433.982, 0.0, 10.000345, 9.999465 
1.3850035e+3, 2.2386684e+2, -803923.8, -823389.0, 2944.931, 0.0004004735, 0.12372133, -803488.0, -57372.277, 0.0, 9.9997635, 9.999505 
1.3850048e+3, 2.3386648e+2, -798151.94, -765361.7, 3047.4336, -0.027121779, 0.13250783, -765080.9, -116959.37, 0.0, 9.999111, 9.999544 
1.3850062e+3, 2.4386632e+2, -747328.94, -618503.7, 1522.9681, -0.042887878, 0.13519634, -618485.7, -68361.695, 0.0, 9.99848, 10.000183 
1.385008e+3, 2.5386652e+2, -728098.2, -545230.25, -2211.369, -0.0412966, 0.12335492, -545203.56, -93082.6, 0.0, 9.997883, 10.000301 
1.3850096e+3, 2.638668e+2, -713755.75, -479349.56, -3012.3425, -0.04421261, 0.12329347, -479310.84, -125193.5, 0.0, 9.997274, 10.000373 
1.3850111e+3, 2.7386743e+2, -703880.9, -418353.78, -2164.2283, -0.05252564, 0.14042674, -418337.38, -162225.17, 0.0, 9.996646, 10.000422 
1.3850127e+3, 2.8386804e+2, -670793.2, -312358.34, 3384.5337, -0.055620912, 0.14639987, -312326.38, -154220.33, 0.0, 9.996031, 10.000772 
1.3850145e+3, 2.9386866e+2, -657130.8, -252018.16, 1045.7411, -0.05501591, 0.12146545, -252015.47, -191916.53, 0.0, 9.99544, 10.000798 
1.385016e+3, 3.038689e+2, -700338.5, -243904.03, 9925.872, -0.08311694, 0.06867287, -243688.27, -243688.27, 0.0, 9.994792, 10.000833 
1.3850181e+3, 3.1387034e+2, -653989.75, 21744.234, 22558.158, -0.07371253, 0.11461651, 22496.46, 22496.46, 0.0, 9.994061, 10.003009 
1.3949957e+3, 1.2388171e+2, -1089758.6, -1749458.4, -41615.723, 0.0751924, 0.061592612, -1087143.8, 638819.6, 0.00537686, 10.00578, 9.996974 
1.3949955e+3, 1.3387832e+2, -1077972.0, -1667121.1, 26134.008, -0.09506591, 0.003175462, -1076815.0, 551182.9, 0.0032092056, 10.005044, 9.997231 
1.3949993e+3, 1.4387666e+2, -1034693.56, -1527813.1, -13226.307, 0.17967546, 0.08683663, -1034339.06, 495675.44, 0.0014065894, 10.004373, 9.997831 
1.3949986e+3, 1.5387416e+2, -1011040.75, -1454936.6, -16238.332, 0.050322626, 0.043645445, -1010447.5, 421590.03, 0.00036759992, 10.003813, 9.997929 
1.3949984e+3, 1.6387199e+2, -995418.75, -1396955.9, -14371.69, -0.022726342, 0.03458061, -994905.0, 339153.97, 0.00003219316, 10.003245, 9.997928 
1.3949993e+3, 1.7387043e+2, -978432.94, -1333982.0, -18810.764, 0.020933012, 0.080664925, -977440.5, 258636.42, 0.00000005013657, 10.002671, 9.997964 
1.3950002e+3, 1.8386883e+2, -923714.56, -1188992.6, -23205.715, 0.03851736, 0.09883894, -921699.94, 216394.31, 0.0, 10.002081, 9.99857 
1.3950005e+3, 1.938672e+2, -907407.2, -1117734.5, -22282.424, 0.007437965, 0.068421796, -905072.44, 135037.81, 0.0, 10.001466, 9.998683 
1.3950011e+3, 2.0386612e+2, -859653.7, -988442.7, -10129.603, -0.0089129, 0.07090352, -858861.9, 83259.51, 0.0, 10.000882, 9.99918 
1.3950022e+3, 2.138659e+2, -832562.1, -913695.06, -15262.017, 0.0009379635, 0.12074633, -829786.2, 14338.224, 0.0, 10.000348, 9.999277 
1.3950032e+3, 2.2386551e+2, -804513.9, -825796.75, -20992.918, -0.00023100655, 0.14551625, -791619.3, -45489.773, 0.0, 9.999767, 9.999488 
1.3950041e+3, 2.3386489e+2, -797184.25, -764359.2, -21142.215, -0.019439988, 0.12671803, -754006.75, -105869.2, 0.0, 9.999114, 9.999551 
1.3950048e+3, 2.4386463e+2, -751946.5, -628952.0, -20662.766, -0.031847317, 0.12280098, -625573.5, -75432.625, 0.0, 9.998482, 10.000112 
1.3950059e+3, 2.53865e+2, -733508.9, -557248.7, -23989.35, -0.03468613, 0.13820718, -554042.06, -101905.57, 0.0, 9.997885, 10.000218 
1.3950068e+3, 2.638654e+2, -711252.9, -474814.38, -25709.715, -0.044317886, 0.1501659, -472051.06, -117918.77, 0.0, 9.997274, 10.000405 
1.3950075e+3, 2.7386594e+2, -700376.06, -411343.3, -24834.8, -0.062410798, 0.15380278, -409224.94, -153097.16, 0.0, 9.996645, 10.000471 
1.3950087e+3, 2.838665e+2, -673200.0, -317374.5, -17988.479, -0.06806676, 0.15224513, -316467.44, -158345.27, 0.0, 9.99603, 10.000739 
1.3950099e+3, 2.9386714e+2, -660516.94, -259097.47, -20229.438, -0.059552334, 0.13440935, -258080.58, -197965.64, 0.0, 9.995438, 10.000751 
1.3950108e+3, 3.0386752e+2, -683933.9, -210365.89, -15951.732, -0.07945489, 0.092662275, -209829.17, -209829.17, 0.0, 9.994792, 10.001063 
1.3950121e+3, 3.1386876e+2, -633463.44, 63452.656, -2418.0942, -0.05819599, 0.093135186, 63461.047, 63461.047, 0.0, 9.994063, 10.003296 
1.4050014e+3, 1.2388144e+2, -1099741.4, -1761731.0, -31681.873, 0.07649516, 0.056631632, -1098228.6, 627737.0, 0.0055906535, 10.005746, 9.996905 
1.4050005e+3, 1.338781e+2, -1092132.1, -1672322.3, 53239.223, -0.08449157, 0.0010049836, -1087287.3, 540713.0, 0.0033368804, 10.004941, 9.997244 
1.4050038e+3, 1.4387639e+2, -1049637.3, -1539388.1, 25979.203, 0.18293783, 0.08256681, -1048262.94, 481754.3, 0.0014627828, 10.004292, 9.99779 
1.4050025e+3, 1.5387389e+2, -999782.0, -1454484.8, 17504.164, 0.04420802, 0.043222997, -999109.2, 432930.88, 0.00038419355, 10.003913, 9.997882 
1.4050016e+3, 1.6387166e+2, -980050.75, -1398340.9, 10468.36, -0.032687727, 0.034913946, -979788.94, 354273.1, 0.00003454216, 10.00339, 9.997848 
1.405002e+3, 1.7386998e+2, -989834.2, -1348559.4, 10373.132, 0.016687999, 0.07778462, -989534.5, 246546.98, 0.00000006103049, 10.002634, 9.997881 
1.4050022e+3, 1.8386832e+2, -933825.25, -1201399.1, 13174.548, 0.037901547, 0.0968085, -933178.1, 204921.55, 0.0, 10.002047, 9.998502 
1.405002e+3, 1.938667e+2, -874219.3, -1109256.8, 7964.548, 0.006689984, 0.073356226, -873949.75, 166165.83, 0.0, 10.001728, 9.998614 
1.405002e+3, 2.0386556e+2, -820443.1, -980365.7, 10545.545, -0.0091374535, 0.07768043, -819750.75, 122376.586, 0.0, 10.0012, 9.999082 
1.4050026e+3, 2.1386518e+2, -840053.4, -928707.3, 10366.73, 0.0020737643, 0.12146076, -838857.25, 5274.8784, 0.0, 10.000347, 9.999173 
1.4050029e+3, 2.238647e+2, -826722.4, -839293.94, 11244.373, 0.0014424317, 0.14648351, -820126.1, -73988.02, 0.0, 9.999628, 9.999461 
1.4050032e+3, 2.3386416e+2, -798154.75, -766601.8, 9337.494, -0.018308304, 0.13758174, -764045.6, -115900.31, 0.0, 9.999117, 9.999534 
1.4050034e+3, 2.4386391e+2, -745981.44, -630778.25, 7600.093, -0.030263783, 0.13758612, -630279.06, -80130.43, 0.0, 9.998545, 10.000068 
1.4050038e+3, 2.538642e+2, -737894.7, -564604.56, 6154.541, -0.031085746, 0.14787462, -564386.25, -112241.055, 0.0, 9.997878, 10.00017 
1.405004e+3, 2.6386455e+2, -720865.0, -479608.53, 3842.3767, -0.040697224, 0.15751792, -479547.34, -125405.81, 0.0, 9.997211, 10.0004015 
1.4050043e+3, 2.7386507e+2, -714311.3, -417353.47, 642.7462, -0.06209938, 0.16220807, -417352.1, -161215.28, 0.0, 9.996549, 10.000475 
1.4050047e+3, 2.8386563e+2, -688618.25, -319680.16, 9287.003, -0.06901136, 0.15899272, -319446.53, -161315.4, 0.0, 9.995903, 10.000783 
1.4050053e+3, 2.938663e+2, -679437.06, -262534.5, 13752.741, -0.058586486, 0.13915692, -262081.33, -201957.63, 0.0, 9.995286, 10.0008 
1.4050056e+3, 3.0386695e+2, -714036.7, -219247.78, 9334.665, -0.07768607, 0.115736336, -219071.73, -219071.73, 0.0, 9.994563, 10.001112 
1.405006e+3, 3.1386814e+2, -682576.9, 45745.49, 6558.926, -0.055006135, 0.10360862, 45804.55, 45804.55, 0.0, 9.993703, 10.003346 
1.4150074e+3, 1.2388201e+2, -1096978.4, -1756612.0, -71105.51, 0.0909891, 0.071203776, -1089400.6, 636560.06, 0.0058178045, 10.005748, 9.996941 
1.4150056e+3, 1.3387874e+2, -1082918.4, -1653854.5, 22393.783, -0.08255698, 0.010604352, -1082041.3, 545953.0, 0.0034736071, 10.004943, 9.997371 
1.415008e+3, 1.4387693e+2, -1057441.9, -1556650.0, 8865.004, 0.16611864, 0.07968625, -1057284.5, 472727.7, 0.0015230742, 10.004294, 9.997671 
1.415006e+3, 1.5387425e+2, -1009519.4, -1475848.3, 2982.5034, 0.0274832, 0.037780534, -1009500.3, 422536.06, 0.00040142008, 10.003916, 9.997735 
1.4150049e+3, 1.6387188e+2, -981316.8, -1402362.5, -16870.42, -0.043977797, 0.025924012, -980641.94, 353417.63, 0.000036934056, 10.003394, 9.997819 
1.4150046e+3, 1.7387016e+2, -989945.6, -1350389.9, -18547.396, 0.019083852, 0.06534856, -988993.75, 247085.9, 0.00000007226826, 10.002639, 9.997867 
1.4150044e+3, 1.8386851e+2, -943273.25, -1222555.4, -951.5388, 0.04532419, 0.093609765, -943270.0, 194828.02, 0.0, 10.002051, 9.998355 
1.4150038e+3, 1.9386701e+2, -885084.0, -1133132.5, -3939.133, 0.0060782814, 0.0981243, -885021.44, 155091.95, 0.0, 10.001732, 9.998449 
1.4150032e+3, 2.0386577e+2, -822620.9, -986068.0, -19418.672, -0.011899304, 0.10364873, -820345.5, 121780.78, 0.0, 10.001203, 9.999042 
1.415003e+3, 2.1386498e+2, -841100.94, -932108.1, -21733.05, 0.005750528, 0.10726014, -836177.3, 7957.3994, 0.0, 10.000351, 9.999149 
1.4150025e+3, 2.238644e+2, -829261.06, -845778.7, -9130.865, 0.005221125, 0.12630667, -825208.06, -79066.59, 0.0, 9.999632, 9.999415 
1.4150022e+3, 2.3386429e+2, -801038.1, -773761.6, -9362.749, -0.023933232, 0.16516109, -770857.1, -122712.1, 0.0, 9.99912, 9.999484 
1.4150019e+3, 2.4386415e+2, -747095.25, -634188.06, -16322.426, -0.038523722, 0.1797339, -631875.8, -81728.39, 0.0, 9.998548, 10.000044 
1.4150017e+3, 2.5386405e+2, -738892.94, -567460.94, -18272.906, -0.030914456, 0.15267985, -565534.9, -113387.48, 0.0, 9.99788, 10.000151 
1.4150013e+3, 2.638642e+2, -724083.4, -486880.3, -20328.67, -0.0337807, 0.14568308, -485150.72, -131005.305, 0.0, 9.997211, 10.000353 
1.4150009e+3, 2.7386484e+2, -717848.5, -425268.84, -23438.871, -0.051763665, 0.16549642, -423403.03, -167263.22, 0.0, 9.996549, 10.000422 
1.4150006e+3, 2.8386545e+2, -680257.8, -302802.22, -13287.556, -0.058809225, 0.16656001, -302335.03, -144201.45, 0.0, 9.995903, 10.0009 
1.4150006e+3, 2.9386616e+2, -669784.3, -242701.63, -8676.751, -0.053646896, 0.136482, -242525.42, -182399.66, 0.0, 9.995284, 10.000937 
1.4150001e+3, 3.0386707e+2, -724243.06, -240542.6, -21431.445, -0.07956669, 0.13866566, -239594.88, -239594.88, 0.0, 9.994561, 10.000967 
1.4149998e+3, 3.1386828e+2, -696080.3, 17075.818, -23386.605, -0.06434821, 0.14748895, 17841.914, 17841.914, 0.0, 9.993704, 10.00315 
1.4250132e+3, 1.23883024e+2, -1182418.3, -1807431.6, -52645.695, 0.11755281, 0.07621139, -1178014.8, 547936.5, 0.0060622296, 10.005201, 9.996854 
1.4250106e+3, 1.338799e+2, -1065213.4, -1647290.1, 37856.04, -0.09076167, 0.030823125, -1062761.6, 565222.5, 0.003622235, 10.005076, 9.99735 
1.425012e+3, 1.43878e+2, -1003898.0, -1532604.6, 16291.48, 0.1368183, 0.09344714, -1003396.44, 526606.4, 0.0015893852, 10.004673, 9.997653 
1.42501e+3, 1.5387517e+2, -1018989.0, -1481787.4, 19704.578, 0.029618302, 0.037302557, -1018151.56, 413876.5, 0.00042005308, 10.0038595, 9.997721 
1.4250083e+3, 1.6387275e+2, -1010216.2, -1421737.5, 5669.829, -0.030734178, 0.022296527, -1010138.1, 323913.63, 0.000039492217, 10.0032215, 9.997767 
1.4250073e+3, 1.738711e+2, -960458.2, -1342343.0, 563.1909, 0.01169416, 0.076484375, -960457.4, 275613.97, 0.00000008454083, 10.002871, 9.997809 
1.4250065e+3, 1.8386948e+2, -901255.9, -1206688.1, 19915.205, 0.031271618, 0.112519845, -899962.8, 238126.86, 0.0, 10.00236, 9.998314 
1.4250055e+3, 1.938679e+2, -906737.0, -1147485.8, 25966.83, 0.007138715, 0.11341038, -903968.06, 136137.6, 0.0, 10.001602, 9.998413 
1.4250045e+3, 2.0386659e+2, -860812.06, -1006940.94, 11814.874, -0.00653271, 0.11501216, -859862.94, 82256.19, 0.0, 10.000953, 9.999018 
1.4250033e+3, 2.1386573e+2, -823920.06, -925948.5, 8929.464, -0.0014027522, 0.1141731, -823144.44, 20983.658, 0.0, 10.00048, 9.999128 
1.4250022e+3, 2.238651e+2, -796165.56, -836671.75, 21523.307, -0.003815048, 0.1314312, -786864.6, -40729.33, 0.0, 9.999889, 9.999353 
1.4250013e+3, 2.3386495e+2, -806159.4, -783805.25, 19375.605, -0.01853204, 0.17290169, -772614.0, -124474.766, 0.0, 9.999119, 9.999414 
1.4250004e+3, 2.4386476e+2, -768426.7, -646927.9, 11482.787, -0.027453538, 0.1877289, -645852.1, -95710.1, 0.0, 9.998413, 10.000021 
1.4249995e+3, 2.5386462e+2, -749878.7, -574278.0, 9315.474, -0.027882963, 0.15753971, -573785.2, -121642.84, 0.0, 9.997812, 10.000135 
1.4249985e+3, 2.6386473e+2, -730358.1, -493214.2, 6648.8335, -0.03499162, 0.14779226, -493027.9, -138887.06, 0.0, 9.997184, 10.000321 
1.4249974e+3, 2.7386525e+2, -725123.4, -432355.97, 4542.499, -0.050989505, 0.16380928, -432285.53, -176149.58, 0.0, 9.996515, 10.000388 
1.4249964e+3, 2.838659e+2, -687851.9, -297430.78, 13748.617, -0.054942384, 0.16345686, -296947.22, -138817.45, 0.0, 9.995813, 10.000979 
1.4249958e+3, 2.9386675e+2, -694734.6, -244171.34, 14388.423, -0.04566806, 0.1400198, -243712.33, -183591.78, 0.0, 9.995069, 10.001031 
1.4249946e+3, 3.038679e+2, -750600.06, -253604.28, 3131.1306, -0.07203315, 0.16355275, -253584.55, -253584.55, 0.0, 9.994384, 10.000961 
1.4249936e+3, 3.1386897e+2, -683978.75, 17128.5, 14410.81, -0.061505795, 0.15474987, 17424.58, 17424.58, 0.0, 9.9938135, 10.003097 
1.4350186e+3, 1.2388455e+2, -1197936.9, -1840269.8, -66317.49, 0.15554127, 0.0702977, -1191161.5, 534775.56, 0.0063280575, 10.005203, 9.996629 
1.4350154e+3, 1.3388161e+2, -1077318.5, -1673260.5, 32563.4, -0.1095584, 0.06190892, -1075544.4, 552424.6, 0.0037852933, 10.005078, 9.997171 
1.4350164e+3, 1.4387962e+2, -997916.1, -1521413.8, -12570.731, 0.09452291, 0.12399408, -997614.44, 532374.3, 0.0016633756, 10.004676, 9.997729 
1.4350142e+3, 1.5387665e+2, -1010488.8, -1465419.8, -11592.192, 0.050457425, 0.041629296, -1010193.6, 421821.13, 0.0004409496, 10.003862, 9.997832 
1.4350119e+3, 1.6387422e+2, -1015374.25, -1433862.3, -10073.028, 0.00691788, 0.023878269, -1015131.94, 318906.38, 0.000042391872, 10.003226, 9.997684 
1.43501e+3, 1.738728e+2, -967401.4, -1358197.1, -12791.574, -0.0057051554, 0.11105111, -966983.1, 269073.22, 0.00000010052836, 10.002874, 9.9977 
1.4350085e+3, 1.8387121e+2, -896443.2, -1198076.9, -7183.916, -0.0045959996, 0.15335466, -896272.2, 241802.27, 0.0, 10.002364, 9.998372 
1.435007e+3, 1.9386937e+2, -900370.8, -1135758.0, -2770.0461, 0.00962968, 0.11913466, -900338.25, 139754.16, 0.0, 10.001606, 9.998492 
1.4350055e+3, 2.03868e+2, -860857.25, -1008480.75, -7213.762, 0.0067187743, 0.11167579, -860505.6, 81600.37, 0.0, 10.0009575, 9.999006 
1.4350036e+3, 2.1386741e+2, -824862.06, -929250.8, -8605.384, -0.01963326, 0.1423205, -824157.4, 19954.879, 0.0, 10.0004835, 9.999105 
1.435002e+3, 2.2386678e+2, -801642.44, -849269.25, -5960.7524, -0.02603141, 0.1619742, -800907.75, -54788.074, 0.0, 9.999893, 9.999266 
1.4350006e+3, 2.3386611e+2, -812390.6, -797852.1, -9250.459, -0.0022800725, 0.16071264, -793356.5, -145228.27, 0.0, 9.999122, 9.999318 
1.4349991e+3, 2.4386571e+2, -769841.2, -650964.0, -11200.2705, 0.0027665119, 0.16136871, -649917.94, -99785.125, 0.0, 9.998416, 9.999992 
1.4349975e+3, 2.5386584e+2, -750832.9, -577249.3, -12544.435, -0.022394799, 0.1624572, -576347.44, -124216.914, 0.0, 9.997814, 10.000115 
1.4349955e+3, 2.6386604e+2, -731137.6, -495625.38, -17388.29, -0.044812854, 0.1640364, -494348.47, -140220.25, 0.0, 9.997186, 10.000305 
1.4349939e+3, 2.7386636e+2, -726087.06, -434868.25, -19640.564, -0.060253132, 0.15745348, -433549.63, -177424.0, 0.0, 9.996515, 10.000373 
1.4349923e+3, 2.838669e+2, -685345.94, -292665.5, -13144.493, -0.058092043, 0.1499623, -292225.97, -134105.8, 0.0, 9.995813, 10.001014 
1.4349909e+3, 2.9386804e+2, -691906.5, -238787.78, -12954.136, -0.035148162, 0.14962943, -238417.75, -178309.13, 0.0, 9.995069, 10.001069 
1.4349893e+3, 3.038695e+2, -741438.6, -234976.95, -18481.225, -0.0553837, 0.19020084, -234303.45, -234303.45, 0.0, 9.994384, 10.001091 
1.4349875e+3, 3.1387007e+2, -678141.2, 29066.225, -4444.8545, -0.047744, 0.12731494, 29094.16, 29094.16, 0.0, 9.993812, 10.0031805 
1.445024e+3, 1.2388652e+2, -1173576.1, -1821857.1, -60370.17, 0.15952802, 0.083005145, -1168002.3, 557916.9, 0.0066176294, 10.005346, 9.996684 
1.4450204e+3, 1.3388368e+2, -1092135.0, -1668663.4, 66416.07, -0.10398075, 0.07531363, -1084582.8, 543366.8, 0.003964061, 10.004929, 9.997274 
1.4450209e+3, 1.438817e+2, -1038913.3, -1544455.6, 13480.5205, 0.08930483, 0.13234581, -1038554.1, 491415.34, 0.0017459341, 10.004411, 9.997697 
1.4450179e+3, 1.5387884e+2, -1025661.25, -1477758.0, 854.2471, 0.054681893, 0.06638421, -1025659.6, 406335.44, 0.00046476268, 10.003782, 9.997785 
1.4450152e+3, 1.6387641e+2, -1012403.25, -1431571.3, 9834.995, 0.01344438, 0.0524495, -1012172.6, 321846.0, 0.000045794342, 10.003245, 9.997689 
1.445013e+3, 1.7387487e+2, -971896.5, -1358690.3, 17070.275, -0.0075805676, 0.123612605, -971144.56, 264892.88, 0.00000012546444, 10.002839, 9.997712 
1.4450108e+3, 1.8387322e+2, -901045.0, -1195846.6, 14925.184, -0.010124662, 0.15773323, -900291.25, 237764.5, 0.0, 10.0023155, 9.998409 
1.4450087e+3, 1.9387145e+2, -895190.25, -1128701.3, 14521.826, 0.0072193947, 0.12790982, -894290.6, 145782.19, 0.0, 10.001625, 9.99853 
1.4450064e+3, 2.038701e+2, -858206.8, -1014194.8, 14288.723, 0.006063873, 0.12310698, -856908.75, 85177.51, 0.0, 10.001007, 9.998941 
1.445004e+3, 2.1386945e+2, -827497.56, -939236.9, 9268.392, -0.020474918, 0.15408142, -826734.0, 17359.52, 0.0, 10.000505, 9.999025 
1.4450018e+3, 2.2386876e+2, -798019.4, -844105.0, 3753.798, -0.026054595, 0.17183791, -797715.6, -51614.273, 0.0, 9.999905, 9.999295 
1.4449997e+3, 2.3386806e+2, -804838.3, -789410.44, 9136.265, 0.000054449752, 0.16436017, -785167.1, -137057.56, 0.0, 9.999154, 9.999359 
1.4449976e+3, 2.4386765e+2, -772173.3, -656234.7, 16023.759, 0.006682454, 0.1626709, -654060.8, -103946.695, 0.0, 9.998419, 9.999954 
1.4449953e+3, 2.5386778e+2, -769660.44, -591844.9, 12432.706, -0.018453931, 0.16854466, -590979.8, -138867.7, 0.0, 9.99771, 10.000065 
1.4449929e+3, 2.6386797e+2, -753578.5, -504328.16, 6904.433, -0.04060677, 0.17174125, -504137.06, -150027.08, 0.0, 9.997024, 10.000323 
1.4449903e+3, 2.7386826e+2, -745087.25, -440812.88, 7382.8037, -0.055258803, 0.16027294, -440633.84, -184526.4, 0.0, 9.996371, 10.0004 
1.4449881e+3, 2.8386885e+2, -692581.6, -290032.06, 15874.202, -0.05281876, 0.14978094, -289407.03, -131305.13, 0.0, 9.995738, 10.001067 
1.4449862e+3, 2.9387006e+2, -678302.4, -225919.95, 16986.697, -0.03045815, 0.15350683, -225283.02, -165193.47, 0.0, 9.995135, 10.001124 
1.4449838e+3, 3.0387166e+2, -719886.9, -222570.55, 11293.35, -0.050705764, 0.20979583, -222314.22, -222314.22, 0.0, 9.994524, 10.001107 
1.4449814e+3, 3.1387207e+2, -664276.3, 29005.508, 17432.752, -0.041329842, 0.12353104, 29443.582, 29443.582, 0.0, 9.9939375, 10.0031185 
1.4550291e+3, 1.2388901e+2, -1150335.0, -1774531.0, -83388.81, 0.12859781, 0.11381842, -1139386.9, 586510.1, 0.006930854, 10.005351, 9.997008 
1.4550257e+3, 1.338862e+2, -1065729.4, -1614184.6, 49900.414, -0.0741527, 0.070760176, -1061226.3, 566699.1, 0.004158642, 10.00493, 9.997648 
1.4550255e+3, 1.4388424e+2, -1049037.9, -1566281.3, -10652.617, 0.12079447, 0.11802466, -1048818.6, 481125.9, 0.0018372593, 10.004413, 9.997548 
1.4550216e+3, 1.5388177e+2, -1040041.7, -1509006.6, -23299.834, 0.042000275, 0.1115047, -1038886.94, 393081.5, 0.0004917856, 10.003787, 9.997569 
1.4550182e+3, 1.6387938e+2, -1005509.7, -1418926.0, -6742.3755, -0.011452849, 0.10811837, -1005399.75, 328592.63, 0.0000497536, 10.00325, 9.997774 
1.4550158e+3, 1.7387728e+2, -962438.5, -1340513.5, 1547.4055, 0.0057980595, 0.114313714, -962432.1, 273582.47, 0.00000016567238, 10.002843, 9.997836 
1.4550133e+3, 1.8387549e+2, -899633.5, -1194367.9, -10366.979, 0.014295183, 0.12587279, -899269.25, 238764.28, 0.0, 10.00232, 9.998419 
1.4550103e+3, 1.9387417e+2, -894818.5, -1129501.8, -11590.605, -0.00029664586, 0.1396609, -894247.44, 145799.44, 0.0, 10.00163, 9.998524 
1.4550073e+3, 2.0387289e+2, -866395.25, -1032667.5, -5340.4956, -0.008764411, 0.1491427, -866223.9, 75836.1, 0.0, 10.001012, 9.998814 
1.4550048e+3, 2.1387179e+2, -836869.44, -959986.9, -9361.368, -0.004132432, 0.14937524, -836161.75, 7910.174, 0.0, 10.000508, 9.998882 
1.455002e+3, 2.2387102e+2, -787813.0, -824090.75, -23154.31, -0.0041583986, 0.16094962, -776538.6, -30458.117, 0.0, 9.9999075, 9.999432 
1.4549989e+3, 2.3387079e+2, -792060.8, -764043.75, -18627.688, -0.011824302, 0.18396564, -754745.0, -106661.54, 0.0, 9.999157, 9.999533 
1.4549959e+3, 2.4387054e+2, -775660.94, -664505.7, -10162.893, -0.016044745, 0.19185545, -663584.1, -113497.94, 0.0, 9.998421, 9.999898 
1.4549929e+3, 2.5387037e+2, -775390.7, -604518.25, -13364.52, -0.016155671, 0.17576562, -603479.3, -151391.81, 0.0, 9.997711, 9.999979 
1.45499e+3, 2.6387045e+2, -750104.94, -497799.38, -16913.05, -0.022563417, 0.1707195, -496670.7, -142584.16, 0.0, 9.997024, 10.000369 
1.454987e+3, 2.7387094e+2, -740479.9, -431903.78, -16136.057, -0.036509994, 0.17218105, -431062.3, -174980.4, 0.0, 9.996372, 10.000462 
1.454984e+3, 2.838716e+2, -687315.3, -279716.16, -5997.5483, -0.039616097, 0.16298698, -279627.94, -121552.48, 0.0, 9.995739, 10.001139 
1.4549813e+3, 2.9387274e+2, -673237.6, -215752.64, -4747.0967, -0.032040857, 0.15183513, -215703.39, -155639.56, 0.0, 9.995135, 10.001196 
1.4549781e+3, 3.0387452e+2, -727342.56, -238318.22, -10280.367, -0.058622636, 0.22241333, -238102.2, -238102.2, 0.0, 9.994523, 10.001 
1.4549753e+3, 3.1387484e+2, -679545.3, -2902.253, -1894.124, -0.04303074, 0.14507312, -2896.9507, -2896.9507, 0.0, 9.993937, 10.002901 
1.4650342e+3, 1.2389194e+2, -1148920.0, -1761002.8, -55301.61, 0.10815795, 0.12325174, -1143963.6, 581905.8, 0.0072662923, 10.005309, 9.997121 
1.4650306e+3, 1.3388927e+2, -1097092.1, -1614058.1, 64595.03, -0.059258655, 0.079334155, -1089143.1, 538752.75, 0.004368681, 10.004651, 9.997783 
1.4650299e+3, 1.4388733e+2, -1088725.5, -1587178.1, 1429.149, 0.13061184, 0.12060645, -1088721.4, 441193.75, 0.0019372416, 10.00415, 9.997529 
1.4650254e+3, 1.5388504e+2, -1024888.56, -1505463.8, 2480.2805, 0.0297892, 0.13597676, -1024875.75, 407062.44, 0.00052201137, 10.00391, 9.997533 
1.4650214e+3, 1.6388267e+2, -970996.25, -1393390.1, 20153.14, -0.02692096, 0.13460562, -970036.94, 363925.03, 0.0000541964, 10.003451, 9.997851 
1.4650187e+3, 1.738804e+2, -982011.5, -1339491.4, 24750.309, 0.0152827175, 0.112514846, -980306.06, 255678.83, 0.00000022299002, 10.002666, 9.997927 
1.4650156e+3, 1.8387854e+2, -936866.2, -1216017.4, 13431.856, 0.031308744, 0.11658776, -936221.4, 201782.45, 0.0, 10.002083, 9.9983835 
1.465012e+3, 1.9387741e+2, -872232.5, -1124234.0, 8930.86, -0.002376484, 0.15461141, -871916.44, 168099.75, 0.0, 10.001811, 9.998471 
1.4650084e+3, 2.0387621e+2, -827540.75, -1011969.0, 9382.558, -0.016538383, 0.1725831, -827064.6, 114964.41, 0.0, 10.001272, 9.998829 
1.4650053e+3, 2.1387497e+2, -861839.56, -969260.8, 16270.585, 0.0026460954, 0.15723537, -859429.25, -15387.27, 0.0, 10.000327, 9.998904 
1.4650019e+3, 2.2387417e+2, -835646.3, -842919.44, 9268.704, 0.0058259596, 0.16305853, -829326.3, -83275.766, 0.0, 9.999563, 9.999468 
1.464998e+3, 2.3387407e+2, -800714.7, -763646.56, 3754.2036, -0.016321942, 0.19540046, -763270.1, -115218.21, 0.0, 9.99908, 9.999572 
1.4649941e+3, 2.4387385e+2, -769939.06, -667300.06, 2159.5774, -0.024788376, 0.20625725, -667254.6, -117200.23, 0.0, 9.998486, 9.999846 
1.4649907e+3, 2.5387356e+2, -779363.56, -613304.8, -383.34277, -0.013080879, 0.18345928, -613303.9, -161246.5, 0.0, 9.997715, 9.999915 
1.4649871e+3, 2.6387364e+2, -749161.0, -486273.6, 1306.7402, -0.012348732, 0.17742872, -486267.1, -132210.56, 0.0, 9.9969845, 10.000466 
1.4649832e+3, 2.738743e+2, -739922.06, -418452.72, 6096.5435, -0.026542634, 0.18592758, -418337.16, -162287.66, 0.0, 9.996321, 10.000579 
1.4649798e+3, 2.83875e+2, -697516.5, -289032.44, 16813.008, -0.029652962, 0.17665869, -288341.6, -130299.09, 0.0, 9.995688, 10.001099 
1.4649765e+3, 2.9387605e+2, -681148.6, -226054.86, 7933.406, -0.021997109, 0.1579082, -225916.6, -165883.77, 0.0, 9.9951105, 10.001136 
1.4649726e+3, 3.038779e+2, -725097.7, -223856.8, 3009.3936, -0.053876765, 0.23796341, -223838.72, -223838.72, 0.0, 9.994483, 10.001119 
1.464969e+3, 3.1387827e+2, -694487.94, -6603.586, 32961.39, -0.05239603, 0.15023135, -5027.783, -5027.783, 0.0, 9.993821, 10.002931 
1.4750394e+3, 1.2389539e+2, -1156250.9, -1776890.3, -84689.17, 0.09794578, 0.110351786, -1144902.1, 580933.94, 0.0076231314, 10.005311, 9.997012 
1.4750353e+3, 1.3389295e+2, -1104267.8, -1630005.8, 39044.637, -0.059636477, 0.101288766, -1101383.9, 526476.9, 0.0045940857, 10.004655, 9.997672 
1.4750339e+3, 1.4389098e+2, -1080799.8, -1572099.9, -10286.485, 0.11834641, 0.14028911, -1080584.4, 449296.28, 0.0020458007, 10.004154, 9.997632 
1.4750291e+3, 1.5388866e+2, -1015144.6, -1486341.5, -6973.091, 0.017906725, 0.13962096, -1015041.5, 416862.5, 0.00055534526, 10.003913, 9.9976635 
1.4750248e+3, 1.6388632e+2, -966159.3, -1384675.5, -7912.4136, -0.03313107, 0.13178849, -966009.8, 367917.25, 0.000059017875, 10.003455, 9.9979105 
1.4750215e+3, 1.7388418e+2, -977775.9, -1332364.8, -5211.9136, 0.020616205, 0.118115574, -977699.25, 258248.8, 0.0000002932695, 10.002671, 9.997974 
1.4750178e+3, 1.8388239e+2, -942097.44, -1228561.1, 910.3042, 0.040549338, 0.12970151, -942094.5, 195871.97, 0.0, 10.002088, 9.998296 
1.4750138e+3, 1.9388121e+2, -878938.5, -1139556.3, -1204.9982, 0.00079595426, 0.17283571, -878932.94, 161047.6, 0.0, 10.001815, 9.998365 
1.4750096e+3, 2.0388004e+2, -816401.9, -990141.5, -23530.748, -0.017534452, 0.19360296, -813271.4, 128722.11, 0.0, 10.001276, 9.998979 
1.4750054e+3, 2.1387897e+2, -848651.06, -943232.94, -19223.691, -0.00037072945, 0.17766616, -844893.2, -889.3608, 0.0, 10.000331, 9.999083 
1.4750013e+3, 2.2387818e+2, -839957.2, -853112.44, -10407.608, 0.0036568185, 0.17813133, -834222.9, -88211.16, 0.0, 9.999566, 9.999397 
1.4749971e+3, 2.3387787e+2, -807440.5, -778730.2, -13697.109, -0.013486704, 0.19857484, -773243.94, -125228.664, 0.0, 9.999083, 9.999468 
1.4749926e+3, 2.4387753e+2, -773259.06, -675100.94, -24974.834, -0.019752933, 0.2056929, -669111.94, -119092.81, 0.0, 9.998488, 9.999793 
1.4749885e+3, 2.5387728e+2, -782415.9, -620374.8, -28640.39, -0.009751067, 0.191632, -615461.7, -163439.38, 0.0, 9.997716, 9.999867 
1.4749841e+3, 2.6387745e+2, -738766.7, -465387.0, -23083.012, -0.0104540745, 0.19203435, -463451.7, -109431.28, 0.0, 9.996985, 10.00061 
1.4749797e+3, 2.738783e+2, -728100.06, -394470.3, -17661.303, -0.02541473, 0.20157248, -393537.97, -137527.27, 0.0, 9.996321, 10.000744 
1.4749756e+3, 2.83879e+2, -708708.6, -312691.13, -4315.9736, -0.023086136, 0.190822, -312644.1, -154640.45, 0.0, 9.995688, 10.000937 
1.4749718e+3, 2.938798e+2, -695090.8, -255379.7, -13013.442, -0.00089211104, 0.1716478, -254994.9, -194997.66, 0.0, 9.99511, 10.0009365 
1.4749674e+3, 3.0388176e+2, -701211.7, -174856.52, -21013.383, -0.036939204, 0.25623494, -174018.95, -174018.95, 0.0, 9.994483, 10.001456 
1.4749628e+3, 3.1388226e+2, -675224.75, 33041.758, 11062.154, -0.07012458, 0.14086795, 33214.492, 33214.492, 0.0, 9.99382, 10.003204 
1.4850445e+3, 1.23899505e+2, -1187637.9, -1791607.3, -71764.234, 0.09320242, 0.12020103, -1179227.9, 546568.9, 0.008003036, 10.0050955, 9.997014 
1.4850399e+3, 1.3389708e+2, -1097616.8, -1628670.0, 61739.004, -0.057804193, 0.11454292, -1090533.6, 537287.56, 0.004835664, 10.004712, 9.997653 
1.4850381e+3, 1.4389499e+2, -1066092.5, -1564245.6, 16568.18, 0.11103951, 0.14304803, -1065542.0, 464300.28, 0.0021632218, 10.004255, 9.997636 
1.4850329e+3, 1.5389273e+2, -1043882.56, -1498974.1, 11169.787, 0.021450302, 0.1483111, -1043608.6, 388256.8, 0.00059189025, 10.003713, 9.997672 
1.4850283e+3, 1.638905e+2, -993990.06, -1385182.9, -922.06726, -0.027120955, 0.14469871, -993987.9, 339899.72, 0.0000641918, 10.003211, 9.998023 
1.4850241e+3, 1.7388847e+2, -954817.7, -1307203.9, 5914.9736, 0.01567773, 0.13133803, -954718.44, 281188.25, 0.00000037325287, 10.00277, 9.998097 
1.4850199e+3, 1.8388677e+2, -924026.1, -1217668.1, 21618.791, 0.032700647, 0.14176695, -922443.06, 215481.23, 0.0, 10.002205, 9.998313 
1.4850155e+3, 1.9388555e+2, -931270.94, -1164076.9, 27609.746, 0.0021999653, 0.18212496, -928041.4, 111897.65, 0.0, 10.001455, 9.998369 
1.4850107e+3, 2.0388441e+2, -876092.2, -1013256.06, 696.18005, -0.0137872, 0.20450479, -876088.7, 65863.14, 0.0, 10.000844, 9.999026 
1.4850059e+3, 2.1388349e+2, -828208.2, -927162.3, -5595.3647, -0.0050054737, 0.19603176, -827892.8, 16068.0, 0.0, 10.000447, 9.999136 
1.485001e+3, 2.2388272e+2, -792013.8, -827947.8, 1413.5416, -0.00081497827, 0.19591564, -791958.25, -45990.1, 0.0, 9.999888, 9.9994135 
1.4849962e+3, 2.338823e+2, -806863.4, -777122.0, 6288.709, -0.0048193173, 0.20431937, -775846.94, -127874.63, 0.0, 9.9990835, 9.999477 
1.4849912e+3, 2.4388187e+2, -797153.8, -693137.25, -2399.085, -0.007982777, 0.2044635, -693081.94, -143105.05, 0.0, 9.998354, 9.999732 
1.4849862e+3, 2.5388154e+2, -783406.44, -628631.44, -8561.264, -0.010261336, 0.19120513, -628159.3, -176178.19, 0.0, 9.9977455, 9.999796 
1.484981e+3, 2.6388174e+2, -714563.9, -446007.44, -5930.8413, -0.014254162, 0.19567806, -445876.53, -91897.41, 0.0, 9.99712, 10.000677 
1.4849761e+3, 2.7388275e+2, -700860.0, -371918.38, -7171.613, -0.018886404, 0.21318322, -371762.1, -115794.586, 0.0, 9.9964695, 10.000827 
1.4849715e+3, 2.8388348e+2, -695996.5, -309450.38, 7357.363, -0.011763893, 0.20163451, -309310.38, -151350.22, 0.0, 9.9957905, 10.000909 
1.484967e+3, 2.9388416e+2, -703994.4, -264228.38, 10066.802, 0.006895229, 0.17129351, -263998.06, -204042.4, 0.0, 9.99507, 10.000894 
1.484962e+3, 3.038862e+2, -696634.5, -151643.11, 5498.4775, -0.031787336, 0.25923485, -151587.64, -151587.64, 0.0, 9.994427, 10.001642 
1.4849566e+3, 3.1388685e+2, -653213.94, 52161.97, 25359.768, -0.069471635, 0.13900809, 53072.53, 53072.53, 0.0, 9.993937, 10.003279 
1.4950497e+3, 1.23904325e+2, -1180681.4, -1777797.0, -90045.96, 0.09258792, 0.15172333, -1167397.9, 558353.2, 0.008410552, 10.005098, 9.997108 
1.4950447e+3, 1.3390169e+2, -1093125.8, -1619822.3, 46421.4, -0.053701814, 0.11870193, -1089065.6, 538711.0, 0.0050956775, 10.004714, 9.997714 
1.4950423e+3, 1.438994e+2, -1072579.3, -1578871.9, -4343.885, 0.108613156, 0.12866841, -1072542.0, 457257.63, 0.0022905746, 10.004258, 9.997536 
1.495037e+3, 1.5389732e+2, -1051651.5, -1516529.3, -9736.81, 0.039703853, 0.16226085, -1051447.6, 380374.56, 0.0006321685, 10.003716, 9.997551 
1.4950316e+3, 1.6389523e+2, -982278.2, -1362334.0, -18332.373, -0.009645942, 0.17345819, -981396.0, 352447.28, 0.000069858055, 10.003215, 9.9981785 
1.4950268e+3, 1.7389332e+2, -940911.8, -1279685.5, -10957.371, 0.00047459346, 0.15200125, -940557.8, 295302.75, 0.00000046463128, 10.002774, 9.998286 
1.4950219e+3, 1.8389165e+2, -915253.2, -1200986.8, -5653.032, 0.0077701756, 0.15279466, -915141.4, 222735.67, 0.0, 10.00221, 9.998426 
1.4950168e+3, 1.9389044e+2, -923074.8, -1148733.9, -737.3891, 0.0015847469, 0.18255335, -923072.4, 116819.125, 0.0, 10.00146, 9.998473 
1.4950117e+3, 2.0388934e+2, -879527.25, -1021974.2, -15629.698, -0.00566182, 0.2052276, -877832.5, 64071.664, 0.0, 10.000849, 9.998965 
1.4950062e+3, 2.138885e+2, -833109.56, -938723.44, -20227.637, -0.0113966465, 0.21234441, -829368.0, 14545.073, 0.0, 10.000451, 9.999056 
1.4950009e+3, 2.2388776e+2, -784676.6, -813916.7, -26869.408, -0.007839538, 0.21651651, -768707.3, -22787.22, 0.0, 9.999892, 9.99951 
1.4949954e+3, 2.3388733e+2, -798191.1, -760201.6, -23580.66, 0.009282543, 0.2127094, -748916.9, -100993.6, 0.0, 9.999085, 9.999594 
1.4949897e+3, 2.4388683e+2, -802145.06, -704440.5, -25391.377, 0.010222143, 0.20260248, -698235.8, -148307.67, 0.0, 9.998356, 9.999655 
1.4949839e+3, 2.5388634e+2, -790342.5, -643783.0, -30505.494, -0.0145884855, 0.18215874, -637687.0, -185752.64, 0.0, 9.997746, 9.999692 
1.4949782e+3, 2.638865e+2, -715638.6, -448933.53, -29243.426, -0.023878813, 0.18836544, -445764.75, -91831.61, 0.0, 9.997121, 10.000658 
1.4949727e+3, 2.7388763e+2, -701332.25, -373509.78, -30630.307, -0.007503921, 0.22055434, -370672.38, -114751.9, 0.0, 9.99647, 10.000816 
1.4949673e+3, 2.838884e+2, -688864.1, -295181.13, -18449.357, 0.003665528, 0.2088179, -294318.44, -136405.72, 0.0, 9.9957905, 10.001008 
1.494962e+3, 2.93889e+2, -696220.4, -248482.77, -16154.698, 0.0010779124, 0.15691483, -247900.66, -187991.92, 0.0, 9.99507, 10.001002 
1.4949562e+3, 3.0389112e+2, -694789.1, -148507.28, -13277.425, -0.03861543, 0.24695863, -148184.77, -148184.77, 0.0, 9.994427, 10.001664 
1.4949508e+3, 3.1389195e+2, -662664.0, 31651.582, 9977.698, -0.050862484, 0.14616798, 31794.938, 31794.938, 0.0, 9.993938, 10.003138 
1.5050547e+3, 1.2390936e+2, -1179905.3, -1765311.6, -73657.234, 0.09031694, 0.16414838, -1170779.8, 554923.3, 0.008851583, 10.005055, 9.997213 
1.5050493e+3, 1.3390689e+2, -1103849.9, -1617400.4, 64488.125, -0.053802468, 0.140408, -1095875.6, 531851.06, 0.0053774714, 10.00461, 9.997779 
1.5050463e+3, 1.4390455e+2, -1093948.5, -1588177.0, 12459.215, 0.10092468, 0.14241022, -1093634.6, 436115.34, 0.0024295389, 10.00411, 9.997541 
1.5050407e+3, 1.5390244e+2, -1076616.4, -1528733.5, 14917.212, 0.050943088, 0.17255557, -1076124.8, 355648.34, 0.0006769276, 10.003548, 9.997547 
1.5050349e+3, 1.6390039e+2, -1001767.25, -1356135.8, 13100.847, 0.0047684023, 0.1826065, -1001283.6, 332510.16, 0.0000762831, 10.003016, 9.998316 
1.5050294e+3, 1.7389865e+2, -965605.25, -1273972.9, 17787.137, -0.007430679, 0.16241622, -964582.6, 271226.53, 0.00000057502143, 10.002531, 9.998441 
1.5050238e+3, 1.838971e+2, -937425.6, -1201693.3, 14109.577, -0.006364799, 0.16187958, -936674.44, 201149.89, 0.0, 10.002016, 9.998513 
1.5050183e+3, 1.9389592e+2, -917775.0, -1137373.4, 15636.123, 0.0060225604, 0.18645927, -916667.25, 123171.04, 0.0, 10.001461, 9.998549 
1.5050127e+3, 2.0389482e+2, -875122.25, -1021016.2, 6010.2095, 0.007580027, 0.20666295, -874875.06, 66975.734, 0.0, 10.000886, 9.998954 
1.5050067e+3, 2.1389396e+2, -859078.9, -953595.06, 5869.7246, -0.0046570804, 0.21604511, -858715.75, -14855.608, 0.0, 10.000285, 9.999033 
1.5050006e+3, 2.2389325e+2, -815287.2, -827526.94, -8945.808, -0.005963016, 0.22217062, -810568.25, -64701.055, 0.0, 9.99968, 9.999517 
1.5049945e+3, 2.3389284e+2, -800512.7, -760111.9, -15115.1, 0.009171319, 0.21930592, -755082.9, -107212.86, 0.0, 9.999067, 9.999602 
1.5049882e+3, 2.4389234e+2, -785260.0, -690935.4, -14422.527, 0.010617306, 0.20797604, -688779.44, -138904.81, 0.0, 9.998451, 9.999701 
1.5049817e+3, 2.538919e+2, -774914.3, -630716.56, -8441.119, -0.010275226, 0.1837133, -630224.1, -178343.63, 0.0, 9.99783, 9.99974 
1.5049754e+3, 2.6389202e+2, -713218.6, -453239.88, -4903.114, -0.01791344, 0.19007231, -453147.44, -99268.234, 0.0, 9.997164, 10.000607 
1.5049693e+3, 2.7389315e+2, -712233.0, -386153.4, -11285.985, -0.003316891, 0.22772369, -385763.25, -129896.164, 0.0, 9.996429, 10.000748 
1.5049632e+3, 2.838939e+2, -687089.06, -289737.97, -1176.9047, 0.0066259834, 0.21730368, -289734.5, -131874.98, 0.0, 9.995786, 10.001047 
1.5049571e+3, 2.938945e+2, -662229.6, -225934.6, -3727.8455, 0.003922088, 0.16193701, -225902.75, -166047.78, 0.0, 9.995279, 10.001056 
1.5049508e+3, 3.038967e+2, -653300.75, -130565.34, -2867.0247, -0.03583023, 0.2556192, -130549.625, -130549.625, 0.0, 9.994723, 10.001644 
1.5049449e+3, 3.1389755e+2, -649757.75, 16810.727, 19209.016, -0.05348184, 0.15969041, 17363.828, 17363.828, 0.0, 9.99412, 10.002948 
1.5150596e+3, 1.2391468e+2, -1172015.3, -1749504.1, -92142.19, 0.085668124, 0.15810116, -1157669.8, 567982.7, 0.009330887, 10.005058, 9.997322 
1.515054e+3, 1.3391274e+2, -1099022.4, -1608013.3, 46950.508, -0.058600925, 0.17963254, -1094727.9, 532943.2, 0.0056841034, 10.004613, 9.997844 
1.5150504e+3, 1.4391051e+2, -1086402.3, -1573712.5, -9143.323, 0.08748022, 0.18403977, -1086230.8, 443462.38, 0.0025816227, 10.004114, 9.997641 
1.5150441e+3, 1.5390813e+2, -1069128.3, -1514489.0, -6711.858, 0.05532512, 0.17896542, -1069027.1, 362690.88, 0.00072673673, 10.0035515, 9.997644 
1.515038e+3, 1.6390602e+2, -992953.44, -1339320.4, -5927.5977, 0.016105942, 0.17228746, -992852.06, 340886.88, 0.00008370529, 10.00302, 9.99843 
1.5150319e+3, 1.7390451e+2, -956726.5, -1257081.4, -687.7016, -0.008548865, 0.16285571, -956724.9, 279027.4, 0.00000071310234, 10.002536, 9.998556 
1.5150258e+3, 1.8390311e+2, -933064.8, -1194261.3, -6782.5864, -0.010335216, 0.16914107, -932888.8, 204877.16, 0.0, 10.002021, 9.998563 
1.5150198e+3, 1.9390196e+2, -914196.4, -1131493.9, -5335.5186, 0.015409503, 0.19376785, -914065.44, 125713.89, 0.0, 10.001465, 9.9985895 
1.5150137e+3, 2.0390084e+2, -872325.2, -1016710.6, -16410.932, 0.025788171, 0.20893376, -870483.4, 71308.484, 0.0, 10.00089, 9.998982 
1.5150072e+3, 2.1389991e+2, -856551.7, -949782.56, -16551.773, 0.01489514, 0.20726661, -853700.4, -9898.358, 0.0, 10.000289, 9.999059 
1.5150003e+3, 2.2389917e+2, -820910.75, -840559.3, -31520.365, 0.004526276, 0.21289073, -797719.1, -51909.457, 0.0, 9.999683, 9.999427 
1.5149935e+3, 2.338988e+2, -807353.94, -775571.0, -37568.555, -0.0052335365, 0.22410093, -750671.1, -102858.22, 0.0, 9.99907, 9.9994955 
1.5149865e+3, 2.4389839e+2, -773496.4, -667631.9, -37036.02, -0.0070319735, 0.22074251, -655961.56, -106144.9, 0.0, 9.998454, 9.999861 
1.5149796e+3, 2.538981e+2, -761010.3, -602664.1, -30949.182, 0.0022599502, 0.19583826, -596830.0, -145010.1, 0.0, 9.997832, 9.999933 
1.5149726e+3, 2.638983e+2, -719670.3, -467270.2, -31101.752, 0.003288392, 0.20063297, -463494.22, -109676.35, 0.0, 9.997165, 10.000511 
1.5149656e+3, 2.738993e+2, -721409.06, -405974.25, -37835.684, -0.0064927232, 0.23481144, -401499.44, -145691.52, 0.0, 9.996431, 10.000612 
1.5149589e+3, 2.8389996e+2, -688795.75, -294285.7, -20232.723, -0.003190683, 0.22740832, -293250.75, -135449.6, 0.0, 9.995788, 10.001016 
1.5149526e+3, 2.9390067e+2, -663002.7, -228188.69, -22076.355, 0.014693205, 0.18646865, -227070.7, -167275.61, 0.0, 9.995279, 10.001041 
1.5149456e+3, 3.039029e+2, -658385.0, -141801.64, -24687.568, -0.024322899, 0.28520757, -140624.5, -140624.5, 0.0, 9.994723, 10.001568 
1.5149388e+3, 3.1390357e+2, -666893.2, -19733.912, -653.36316, -0.07818576, 0.18166924, -19733.252, -19733.252, 0.0, 9.994122, 10.002697 
1.5250647e+3, 1.2392072e+2, -1173681.4, -1744284.6, -55094.965, 0.07632979, 0.15479876, -1168410.4, 557183.3, 0.009850252, 10.005026, 9.997373 
1.5250586e+3, 1.3391893e+2, -1107799.0, -1613420.9, 77576.76, -0.052588657, 0.19386517, -1096164.3, 531447.0, 0.0060171927, 10.004561, 9.997829 
1.5250544e+3, 1.4391673e+2, -1087486.6, -1553538.9, 15530.853, 0.085864484, 0.19445704, -1086969.8, 442663.28, 0.002747618, 10.00402, 9.997824 
1.5250476e+3, 1.5391442e+2, -1081716.3, -1497511.0, 24958.547, 0.0478889, 0.1759747, -1080223.5, 351432.7, 0.0007817907, 10.003368, 9.9978485 
1.5250409e+3, 1.639124e+2, -1021189.3, -1353140.3, 31958.348, 0.011339589, 0.16509396, -1018140.56, 315535.56, 0.00009220657, 10.00283, 9.998426 
1.5250345e+3, 1.7391093e+2, -969501.9, -1266765.8, 26424.076, 0.0007776082, 0.16446877, -967171.25, 268518.53, 0.0000008739153, 10.002465, 9.998523 
1.5250279e+3, 1.839096e+2, -933858.06, -1185216.3, 8290.248, 0.0022974878, 0.17564294, -933584.94, 204118.28, 0.0, 10.001977, 9.998646 
1.5250212e+3, 1.9390854e+2, -931254.3, -1128692.5, 12642.367, 0.015201295, 0.1994549, -930448.1, 109267.32, 0.0, 10.001303, 9.998686 
1.5250145e+3, 2.0390752e+2, -896528.9, -1025299.4, 6387.997, 0.02094783, 0.21589345, -896212.75, 45514.363, 0.0, 10.000713, 9.999007 
1.5250075e+3, 2.1390663e+2, -860582.44, -949981.1, 5214.3906, 0.017817901, 0.21909598, -860279.3, -16542.463, 0.0, 10.000256, 9.999072 
1.5250002e+3, 2.2390589e+2, -816233.3, -841120.7, -11803.771, 0.009442536, 0.2249573, -811525.5, -65780.71, 0.0, 9.999729, 9.9994 
1.5249924e+3, 2.339054e+2, -805534.5, -777964.56, -13153.089, -0.0076709758, 0.2289941, -772696.25, -124947.055, 0.0, 9.999099, 9.999464 
1.5249848e+3, 2.4390501e+2, -767101.8, -659289.2, -13527.518, -0.00998617, 0.22651057, -657617.75, -107864.89, 0.0, 9.998478, 9.999905 
1.5249775e+3, 2.539049e+2, -751680.5, -592145.5, -18390.744, 0.009702415, 0.21514489, -590052.94, -138298.83, 0.0, 9.997872, 9.999985 
1.5249701e+3, 2.6390514e+2, -701813.56, -464841.63, -23459.469, 0.0129630705, 0.22217533, -462541.53, -108789.83, 0.0, 9.997316, 10.000453 
1.5249622e+3, 2.7390587e+2, -668537.2, -388269.53, -26117.205, -0.007468666, 0.24108903, -385856.53, -130112.51, 0.0, 9.99683, 10.00054 
1.5249549e+3, 2.8390646e+2, -628434.44, -272231.4, -7928.6357, -0.008043629, 0.22708489, -272055.0, -114316.45, 0.0, 9.996235, 10.000951 
1.524948e+3, 2.9390717e+2, -638594.2, -223087.75, -13822.931, 0.016701572, 0.19338992, -222628.39, -162896.13, 0.0, 9.995479, 10.000979 
1.5249404e+3, 3.039094e+2, -645487.4, -134858.13, -13439.482, -0.018351482, 0.29550868, -134504.64, -134504.64, 0.0, 9.994812, 10.001572 
1.5249328e+3, 3.1391016e+2, -652195.3, -29594.82, 19852.682, -0.08112989, 0.20223945, -28962.426, -28962.426, 0.0, 9.994298, 10.0025425 
1.5350696e+3, 1.23927504e+2, -1174454.8, -1747288.4, -72859.016, 0.06139921, 0.15340309, -1165333.1, 560193.56, 0.010408979, 10.005032, 9.997351 
1.5350634e+3, 1.3392554e+2, -1114882.6, -1628648.6, 59301.613, -0.03612557, 0.1834061, -1108126.6, 519420.38, 0.006377426, 10.004563, 9.9977255 
1.5350586e+3, 1.439233e+2, -1068800.0, -1515490.3, -9064.866, 0.09557167, 0.17430414, -1068616.1, 460952.97, 0.0029280488, 10.004022, 9.998085 
1.5350507e+3, 1.5392137e+2, -1059542.0, -1452985.6, -68.92073, 0.028359456, 0.1638754, -1059542.0, 372045.28, 0.0008420692, 10.003373, 9.998153 
1.5350434e+3, 1.6391952e+2, -1029677.06, -1372679.3, 16703.389, -0.009680735, 0.16104774, -1028865.56, 304739.63, 0.00010173792, 10.002835, 9.998291 
1.5350372e+3, 1.7391793e+2, -982233.7, -1294702.6, 12573.716, 0.020408688, 0.16720687, -981728.56, 253892.97, 0.0000010362653, 10.002469, 9.99833 
1.5350302e+3, 1.8391658e+2, -925457.0, -1169180.0, -16109.167, 0.03112018, 0.18150336, -924396.9, 213239.13, 0.0, 10.001981, 9.998755 
1.5350224e+3, 1.9391565e+2, -920201.75, -1107360.4, -12801.762, 0.005086991, 0.20361818, -919330.1, 120316.39, 0.0, 10.0013075, 9.998832 
1.535015e+3, 2.0391478e+2, -894848.0, -1023472.1, -11606.203, -0.0071565546, 0.22752948, -893809.1, 47847.453, 0.0, 10.000718, 9.999019 
1.5350075e+3, 2.1391411e+2, -860417.4, -951170.94, -11633.219, 0.00411082, 0.25139156, -858949.94, -15285.149, 0.0, 10.000259, 9.9990635 
1.5349999e+3, 2.2391337e+2, -813352.56, -836564.9, -34464.88, 0.008624156, 0.258324, -788592.1, -42919.48, 0.0, 9.999733, 9.999431 
1.5349917e+3, 2.3391265e+2, -802436.56, -772840.4, -36247.605, 0.001612056, 0.23396805, -748486.56, -100807.38, 0.0, 9.999103, 9.999499 
1.5349835e+3, 2.4391219e+2, -772216.94, -671068.9, -35663.813, 0.0015490033, 0.22521585, -659758.8, -110075.2, 0.0, 9.998481, 9.999825 
1.5349755e+3, 2.5391224e+2, -758035.25, -606536.75, -40214.445, 0.011829476, 0.24172553, -596523.8, -144840.36, 0.0, 9.997875, 9.999886 
1.5349673e+3, 2.6391247e+2, -703097.3, -468727.28, -41182.27, 0.01060673, 0.25483906, -461701.56, -108020.375, 0.0, 9.997319, 10.000426 
1.5349591e+3, 2.7391294e+2, -669331.56, -390962.22, -43402.504, -0.006844101, 0.24619044, -384352.0, -128676.01, 0.0, 9.996832, 10.000522 
1.534951e+3, 2.8391325e+2, -635670.7, -288137.6, -34446.56, -0.00853148, 0.21576197, -284756.25, -127083.82, 0.0, 9.996237, 10.000842 
1.5349434e+3, 2.9391384e+2, -646253.0, -240333.16, -41723.79, 0.009582667, 0.18242633, -236088.81, -176421.61, 0.0, 9.995482, 10.00086 
1.5349352e+3, 3.0391607e+2, -639277.4, -123514.69, -33103.6, -0.018161887, 0.28607863, -121398.66, -121398.66, 0.0, 9.994816, 10.001649 
1.5349273e+3, 3.1391725e+2, -656533.0, -38859.25, 3648.3147, -0.06283676, 0.22226317, -38837.703, -38837.703, 0.0, 9.994296, 10.0024805 
1.5450746e+3, 1.23934925e+2, -1146008.8, -1727401.6, -45192.02, 0.05308806, 0.14945647, -1142516.9, 582937.0, 0.011007626, 10.005208, 9.997401 
1.5450679e+3, 1.3393298e+2, -1155472.0, -1651389.0, 90498.67, -0.01945312, 0.1847745, -1139473.3, 488000.97, 0.0067662774, 10.0043, 9.997695 
1.5450625e+3, 1.4393073e+2, -1112345.1, -1527848.1, 28431.023, 0.10651022, 0.17327562, -1110408.8, 419087.88, 0.0031238934, 10.003688, 9.998159 
1.545054e+3, 1.5392892e+2, -1030700.44, -1429490.4, 21921.994, 0.01874273, 0.1656158, -1029498.94, 402014.44, 0.0009077041, 10.003532, 9.998237 
1.5450463e+3, 1.6392717e+2, -993140.7, -1350579.0, 26438.037, -0.021074113, 0.16530727, -991195.75, 342334.66, 0.0001122654, 10.003069, 9.998329 
1.5450396e+3, 1.7392561e+2, -1028356.6, -1313059.5, 37305.426, 0.033826515, 0.17193797, -1023549.56, 211997.22, 0.0000011877057, 10.002138, 9.998363 
1.5450321e+3, 1.839243e+2, -989548.1, -1191495.6, 24030.057, 0.049849004, 0.18564314, -986728.1, 150832.75, 0.0, 10.001506, 9.99883 
1.5450238e+3, 1.9392343e+2, -911394.9, -1094153.1, 22822.828, -0.000051183393, 0.2063219, -908587.9, 130982.586, 0.0, 10.001331, 9.998909 
1.5450156e+3, 2.039226e+2, -867356.7, -1012395.75, 13079.671, -0.02234554, 0.23000927, -866186.6, 75393.53, 0.0, 10.000917, 9.998998 
1.5450077e+3, 2.1392189e+2, -880022.8, -964274.6, 9771.891, -0.00057709287, 0.25496083, -878904.25, -35315.29, 0.0, 10.000143, 9.999028 
1.5449995e+3, 2.239212e+2, -840496.9, -846356.2, -10621.065, 0.009698909, 0.26510897, -832408.8, -86811.94, 0.0, 9.999535, 9.999458 
1.5449907e+3, 2.3392056e+2, -788801.1, -762502.56, -12493.262, 0.0014955484, 0.24775022, -757513.94, -109911.414, 0.0, 9.999182, 9.999531 
1.544982e+3, 2.439201e+2, -743732.06, -662820.9, -16476.51, -0.0009434559, 0.24083413, -659594.3, -109987.445, 0.0, 9.998702, 9.999773 
1.5449734e+3, 2.5392005e+2, -740382.6, -604850.8, -19528.51, 0.004902795, 0.25104105, -602093.06, -150485.14, 0.0, 9.998029, 9.999823 
1.5449646e+3, 2.639202e+2, -697189.06, -468267.88, -16329.71, 0.0055148867, 0.26012826, -467108.88, -113502.305, 0.0, 9.997373, 10.000402 
1.544956e+3, 2.7392063e+2, -683136.8, -399952.25, -18863.41, -0.00080527534, 0.251479, -398701.25, -143099.58, 0.0, 9.99675, 10.000499 
1.5449473e+3, 2.8392097e+2, -637775.56, -286432.3, -6832.8613, -0.00022665158, 0.2220619, -286299.47, -128701.53, 0.0, 9.996213, 10.000864 
1.544939e+3, 2.939216e+2, -598553.75, -213785.39, -3824.911, 0.0074158083, 0.18984501, -213747.36, -154155.52, 0.0, 9.995797, 10.00089 
1.5449303e+3, 3.0392373e+2, -585623.3, -90220.82, 5049.7856, -0.016245967, 0.28096396, -90169.35, -90169.35, 0.0, 9.995154, 10.001713 
1.5449217e+3, 3.13925e+2, -678003.3, -58322.57, 40430.83, -0.046048723, 0.22300647, -55695.813, -55695.813, 0.0, 9.994191, 10.002397 
1.5550797e+3, 1.2394304e+2, -1138041.9, -1710974.1, -77530.14, 0.05007828, 0.14458756, -1127735.8, 597639.1, 0.011652207, 10.00521, 9.997515 
1.5550724e+3, 1.3394131e+2, -1152157.9, -1645546.5, 55498.883, -0.0029003397, 0.1974444, -1145992.1, 481400.72, 0.0071876086, 10.004305, 9.997733 
1.5550663e+3, 1.439391e+2, -1119584.9, -1545158.6, 18957.258, 0.11830408, 0.19088568, -1118742.0, 410673.1, 0.0033371637, 10.0036955, 9.998038 
1.5550576e+3, 1.539371e+2, -1040033.1, -1450424.3, 15858.739, 0.01859284, 0.18113829, -1039421.2, 392013.1, 0.0009794077, 10.003536, 9.998093 
1.5550493e+3, 1.6393533e+2, -978193.06, -1320802.9, -5989.9985, -0.023390785, 0.1779609, -978088.4, 355363.22, 0.0001239549, 10.003073, 9.998533 
1.5550418e+3, 1.7393397e+2, -1010311.4, -1277290.0, 1837.2354, 0.040852766, 0.17853975, -1010298.75, 225166.69, 0.0000013544981, 10.002143, 9.998607 
1.5550336e+3, 1.8393275e+2, -986408.4, -1186908.5, 14319.652, 0.05832813, 0.18801907, -985390.9, 152087.02, 0.0, 10.001512, 9.998859 
1.5550251e+3, 1.9393188e+2, -910410.44, -1093806.8, 16464.604, -0.0003720768, 0.20764126, -908944.0, 130543.16, 0.0, 10.001336, 9.998911 
1.5550165e+3, 2.0393094e+2, -870926.8, -1021295.5, -13697.718, -0.024984613, 0.22348286, -869689.25, 71808.66, 0.0, 10.000922, 9.998936 
1.555008e+3, 2.1392998e+2, -884174.94, -974257.25, -19236.645, 0.003423361, 0.2299377, -880239.0, -36729.36, 0.0, 10.000147, 9.99896 
1.554999e+3, 2.239293e+2, -838803.06, -844334.7, -25005.428, 0.012396065, 0.24551763, -816410.94, -70893.19, 0.0, 9.999539, 9.999472 
1.5549898e+3, 2.3392913e+2, -786575.9, -759425.0, -24960.146, -0.008220653, 0.27045754, -744587.4, -97068.0, 0.0, 9.999186, 9.999551 
1.5549806e+3, 2.4392876e+2, -745041.94, -666922.1, -39769.52, -0.017917775, 0.27329418, -650238.94, -100716.01, 0.0, 9.998706, 9.999744 
1.5549712e+3, 2.5392827e+2, -742296.75, -609999.3, -43963.37, -0.011587669, 0.24256992, -596722.4, -145194.42, 0.0, 9.998031, 9.999787 
1.554962e+3, 2.6392823e+2, -698785.3, -472741.75, -38861.875, -0.0026808165, 0.23752788, -466247.13, -112718.8, 0.0, 9.9973755, 10.000372 
1.5549527e+3, 2.7392888e+2, -685004.56, -405210.53, -41106.188, 0.010285132, 0.25699028, -399296.38, -143774.75, 0.0, 9.996754, 10.000463 
1.5549438e+3, 2.8392947e+2, -626712.9, -264838.63, -22098.613, 0.016313499, 0.24618098, -263494.13, -105978.5, 0.0, 9.996217, 10.001012 
1.5549348e+3, 2.939303e+2, -586149.06, -188845.64, -18496.65, 0.00935331, 0.21564339, -187986.39, -128479.58, 0.0, 9.995798, 10.001062 
1.5549256e+3, 3.0393228e+2, -582808.06, -85029.86, -28284.07, -0.013524578, 0.2798317, -83427.89, -83427.89, 0.0, 9.995155, 10.00175 
1.554916e+3, 3.1393337e+2, -686096.94, -75657.14, 7020.031, -0.03146996, 0.20477153, -75576.42, -75576.42, 0.0, 9.994191, 10.002279 
1.565085e+3, 1.2395194e+2, -1157383.6, -1713272.4, -54719.258, 0.06894322, 0.16269945, -1152048.5, 573240.1, 0.012353585, 10.005051, 9.997575 
1.5650767e+3, 1.3395007e+2, -1106524.4, -1625796.0, 69968.875, -0.009108359, 0.20407006, -1097261.6, 530045.8, 0.007647472, 10.004636, 9.997708 
1.56507e+3, 1.439478e+2, -1061529.0, -1511947.1, 42497.35, 0.09990704, 0.1915546, -1057554.4, 471775.72, 0.0035708763, 10.004076, 9.998082 
1.5650612e+3, 1.5394594e+2, -1070700.5, -1459673.9, 53994.133, 0.02866638, 0.18938093, -1063344.6, 368003.63, 0.001058527, 10.0033045, 9.998139 
1.5650524e+3, 1.6394424e+2, -1029127.75, -1339916.3, 28552.61, -0.006852397, 0.18988915, -1026526.4, 306838.5, 0.00013719169, 10.002702, 9.998579 
1.5650438e+3, 1.7394291e+2, -976625.2, -1255996.5, 20225.74, 0.02887437, 0.18745634, -975168.5, 260210.06, 0.0000015912761, 10.002355, 9.99865 
1.5650351e+3, 1.8394168e+2, -931872.1, -1153161.0, 31515.703, 0.040950947, 0.19191928, -927471.2, 209919.64, 0.0, 10.001857, 9.998924 
1.5650265e+3, 1.9394082e+2, -936137.9, -1098784.4, 38482.336, 0.011906756, 0.20409775, -927492.44, 111907.19, 0.0, 10.00113, 9.998975 
1.5650174e+3, 2.0393987e+2, -930055.25, -1050275.5, 7113.0747, -0.004619684, 0.21706265, -929635.9, 11774.265, 0.0, 10.000521, 9.998929 
1.5650079e+3, 2.1393892e+2, -893777.1, -980686.3, 4319.413, -0.00065454835, 0.22719346, -893562.94, -50140.92, 0.0, 10.000091, 9.998941 
1.5649985e+3, 2.2393824e+2, -833570.75, -846759.94, 2744.352, -0.0018973092, 0.24650289, -833022.5, -87592.11, 0.0, 9.9995985, 9.999425 
1.564989e+3, 2.3393807e+2, -815863.8, -779195.94, -2776.2256, -0.011510514, 0.2755736, -778986.9, -131554.52, 0.0, 9.999012, 9.999498 
1.5649793e+3, 2.4393769e+2, -776699.7, -678869.44, -22455.598, -0.017189771, 0.27930704, -673961.3, -124525.15, 0.0, 9.998477, 9.999771 
1.5649691e+3, 2.5393718e+2, -741451.3, -605624.0, -22381.898, -0.017427124, 0.24400121, -602030.9, -150589.61, 0.0, 9.998022, 9.99982 
1.5649593e+3, 2.6393718e+2, -674702.44, -462403.06, -14180.05, -0.010125673, 0.2411312, -461460.16, -108018.71, 0.0, 9.997549, 10.000359 
1.5649496e+3, 2.7393797e+2, -644655.0, -388067.97, -15899.889, 0.008496476, 0.27396396, -387086.47, -131652.48, 0.0, 9.997043, 10.00044 
1.56494e+3, 2.839386e+2, -593954.06, -245442.25, -1604.0741, 0.019367691, 0.26832983, -245434.86, -88007.414, 0.0, 9.9964285, 10.001041 
1.5649307e+3, 2.9393932e+2, -604312.5, -192921.66, -8627.046, 0.016506067, 0.2282684, -192740.83, -133322.14, 0.0, 9.995656, 10.0011015 
1.5649207e+3, 3.0394116e+2, -595763.6, -90776.21, -26825.896, -0.0029870656, 0.27383435, -89355.164, -89355.164, 0.0, 9.995067, 10.001752 
1.5649106e+3, 3.1394255e+2, -612905.1, -53961.01, 7986.9014, -0.03282192, 0.22848232, -53846.906, -53846.906, 0.0, 9.994754, 10.002155 
1.5750904e+3, 1.2396168e+2, -1157156.0, -1714076.1, -68481.2, 0.10731161, 0.20364632, -1148858.9, 576335.8, 0.013122303, 10.005057, 9.997568 
1.575081e+3, 1.3395932e+2, -1113240.3, -1640555.0, 53604.605, -0.037962418, 0.20498002, -1107846.3, 519371.6, 0.0081521515, 10.004639, 9.997606 
1.5750736e+3, 1.4395691e+2, -1046964.44, -1482780.9, 14243.18, 0.051963825, 0.1760191, -1046499.5, 482741.72, 0.003828451, 10.00408, 9.998282 
1.5750647e+3, 1.5395544e+2, -1054083.8, -1426578.0, 24460.338, 0.04872225, 0.19031325, -1052484.4, 378770.5, 0.0011466388, 10.003308, 9.998365 
1.5750554e+3, 1.6395392e+2, -1036585.56, -1357180.3, 13423.125, 0.027847696, 0.20097469, -1036024.56, 297245.4, 0.0001523179, 10.002707, 9.99846 
1.5750459e+3, 1.739524e+2, -987290.4, -1279875.5, 7100.713, -0.002270476, 0.19881745, -987118.1, 248167.95, 0.0000019351096, 10.002359, 9.998485 
1.5750366e+3, 1.839511e+2, -924605.2, -1139728.1, 5520.346, -0.0023785739, 0.19755176, -924463.6, 212836.0, 0.0, 10.001862, 9.999015 
1.5750279e+3, 1.9395019e+2, -927026.56, -1081448.3, 11120.68, 0.036537692, 0.19569482, -926229.8, 113078.055, 0.0, 10.001134, 9.999093 
1.5750183e+3, 2.0394936e+2, -926772.25, -1044997.2, -10120.699, 0.038404997, 0.21077588, -925912.1, 15404.877, 0.0, 10.0005245, 9.998964 
1.5750079e+3, 2.139487e+2, -891233.3, -976997.3, -11400.05, -0.013067511, 0.24673057, -889743.8, -46417.496, 0.0, 10.000095, 9.998965 
1.5749978e+3, 2.23948e+2, -840943.7, -863622.4, -18205.137, -0.033581994, 0.2679219, -830835.25, -85500.14, 0.0, 9.999602, 9.999309 
1.5749879e+3, 2.3394734e+2, -824604.9, -798707.5, -24119.79, -0.008540831, 0.26282603, -784280.44, -136938.61, 0.0, 9.999015, 9.999364 
1.574978e+3, 2.4394684e+2, -771028.7, -668374.25, -39152.363, 0.0011407076, 0.25881258, -655146.1, -105799.21, 0.0, 9.99848, 9.999844 
1.5749674e+3, 2.5394675e+2, -734128.0, -591773.4, -38269.72, -0.01290981, 0.25562188, -582137.44, -130789.15, 0.0, 9.998026, 9.999915 
1.5749568e+3, 2.6394698e+2, -674434.4, -463297.03, -31685.629, -0.017445786, 0.27115458, -458644.44, -105298.086, 0.0, 9.997553, 10.000352 
1.5749465e+3, 2.7394775e+2, -645153.75, -390641.2, -33592.813, -0.0068487534, 0.30220005, -386281.97, -130942.69, 0.0, 9.997047, 10.000422 
1.5749364e+3, 2.839482e+2, -600291.0, -260049.38, -28695.572, 0.008141724, 0.288125, -257646.2, -100312.11, 0.0, 9.996432, 10.000941 
1.5749264e+3, 2.9394865e+2, -611440.56, -208760.1, -36990.496, 0.027882861, 0.22694398, -205390.31, -146061.97, 0.0, 9.995658, 10.000993 
1.574916e+3, 3.039503e+2, -598381.9, -97153.86, -39126.375, 0.014251782, 0.26228577, -94118.0, -94118.0, 0.0, 9.995068, 10.001709 
1.5749052e+3, 3.1395242e+2, -622048.06, -73762.66, -446.69727, -0.051442783, 0.29625627, -73762.29, -73762.29, 0.0, 9.994755, 10.002021 
1.5850957e+3, 1.2397167e+2, -1135178.4, -1694330.9, -31690.21, 0.11689777, 0.20318435, -1133388.1, 591709.1, 0.013963458, 10.005177, 9.997647 
1.5850858e+3, 1.3396928e+2, -1118968.5, -1642972.4, 94164.7, -0.033371247, 0.20171013, -1102560.8, 524559.4, 0.008705411, 10.004602, 9.997606 
1.5850776e+3, 1.4396687e+2, -1062565.5, -1488208.9, 44087.99, 0.04889994, 0.17241934, -1058046.8, 471096.5, 0.004112346, 10.003967, 9.998299 
1.585068e+3, 1.5396544e+2, -1063349.1, -1429660.8, 36629.402, 0.047535084, 0.18899973, -1059722.3, 371434.75, 0.0012448359, 10.003242, 9.998376 
1.5850581e+3, 1.6396394e+2, -1043561.75, -1360122.9, 33716.01, 0.027993139, 0.20179188, -1040010.6, 293161.38, 0.00016938407, 10.00266, 9.998461 
1.5850483e+3, 1.7396244e+2, -997550.7, -1284795.6, 40352.004, -0.0039792275, 0.2010414, -991989.7, 243198.39, 0.0000023797534, 10.002292, 9.998483 
1.5850385e+3, 1.8396115e+2, -931176.7, -1140941.5, 30983.75, -0.0043052793, 0.2013858, -926695.9, 210505.6, 0.0, 10.00181, 9.99903 
1.5850289e+3, 1.9396028e+2, -922775.94, -1077677.6, 27011.707, 0.03764103, 0.201671, -918200.75, 121008.74, 0.0, 10.001159, 9.999105 
1.585019e+3, 2.0395948e+2, -913140.4, -1037726.44, 9678.276, 0.04015531, 0.21866775, -912393.0, 28825.334, 0.0, 10.000618, 9.998968 
1.585008e+3, 2.1395883e+2, -869991.0, -966376.7, 7213.252, -0.014808348, 0.2562258, -869454.2, -26226.783, 0.0, 10.000242, 9.998966 
1.5849975e+3, 2.2395812e+2, -820535.2, -852244.1, -5018.2085, -0.035280596, 0.27427, -819759.94, -74523.7, 0.0, 9.999739, 9.999319 
1.584987e+3, 2.3395735e+2, -819114.06, -794671.0, -1526.9332, -0.005076918, 0.25897875, -794575.94, -147332.19, 0.0, 9.999049, 9.999374 
1.5849763e+3, 2.4395685e+2, -770639.4, -671553.2, -6472.2085, 0.005202668, 0.2551253, -671132.25, -121883.13, 0.0, 9.9985, 9.99981 
1.5849653e+3, 2.5395688e+2, -717834.2, -587998.6, -15212.491, -0.014995291, 0.2674344, -586240.0, -134990.27, 0.0, 9.9981575, 9.999876 
1.5849544e+3, 2.6395714e+2, -653240.3, -452697.16, -20208.975, -0.02141796, 0.28803506, -450680.94, -97433.18, 0.0, 9.997699, 10.000353 
1.5849435e+3, 2.739578e+2, -642453.25, -388668.3, -21527.277, -0.00684486, 0.31012982, -386855.22, -131613.78, 0.0, 9.997066, 10.000424 
1.5849328e+3, 2.8395823e+2, -592192.3, -268845.4, -16319.266, 0.005591389, 0.29517442, -268023.84, -110787.06, 0.0, 9.996545, 10.000825 
1.5849221e+3, 2.9395857e+2, -543251.0, -189839.1, -26921.996, 0.014324946, 0.2405857, -187800.02, -128568.31, 0.0, 9.996188, 10.000866 
1.5849112e+3, 3.0395997e+2, -517393.06, -70574.15, -30964.553, 0.0082241865, 0.25926188, -68438.516, -68438.516, 0.0, 9.99568, 10.001595 
1.5849e+3, 3.1396228e+2, -606045.06, -85206.61, 3965.5764, -0.041210286, 0.32281718, -85176.42, -85176.42, 0.0, 9.99495, 10.001846 
1.5951008e+3, 1.2398198e+2, -1123472.5, -1671152.3, -49988.57, 0.09778884, 0.16466339, -1118947.4, 606048.1, 0.014875609, 10.005183, 9.9978075 
1.5950906e+3, 1.3397999e+2, -1112059.9, -1629500.3, 71793.21, 0.0034105354, 0.19411251, -1102283.5, 524730.56, 0.009307294, 10.004608, 9.997697 
1.595082e+3, 1.4397772e+2, -1073963.6, -1513509.6, 16619.502, 0.08878449, 0.18029252, -1073336.1, 455700.2, 0.0044231717, 10.003973, 9.998122 
1.595071e+3, 1.5397596e+2, -1077134.6, -1460236.4, 8882.127, 0.025001893, 0.185692, -1076928.9, 354125.4, 0.0013533578, 10.003247, 9.998164 
1.5950604e+3, 1.6397434e+2, -1034547.25, -1343555.0, 18220.24, -0.0059982063, 0.19279605, -1033476.6, 299594.06, 0.00018821016, 10.002666, 9.998573 
1.5950508e+3, 1.7397302e+2, -986268.8, -1263189.0, 26393.666, 0.023362124, 0.19428094, -983775.6, 251308.84, 0.0000028938316, 10.002297, 9.99863 
1.5950407e+3, 1.8397187e+2, -935412.7, -1151331.3, 7321.2554, 0.03440562, 0.20343457, -935164.75, 201931.73, 0.0, 10.001815, 9.998958 
1.59503e+3, 1.9397107e+2, -928848.75, -1091996.9, 2531.707, 0.01493287, 0.22184442, -928809.5, 110295.086, 0.0, 10.0011635, 9.999006 
1.5950191e+3, 2.039702e+2, -914876.56, -1043146.25, -5220.958, 0.00034851648, 0.24061267, -914664.4, 26449.955, 0.0, 10.000623, 9.99893 
1.5950084e+3, 2.1396932e+2, -871480.56, -970997.75, -6383.021, -0.006031346, 0.2557332, -871072.9, -27947.488, 0.0, 10.000246, 9.998934 
1.5949975e+3, 2.2396855e+2, -810834.5, -833550.3, -29280.537, -0.007196508, 0.26588243, -790786.2, -45651.98, 0.0, 9.9997425, 9.999448 
1.594986e+3, 2.3396808e+2, -808236.0, -773539.0, -26710.162, -0.0013831464, 0.26427174, -759037.8, -111899.19, 0.0, 9.999053, 9.999518 
1.5949747e+3, 2.4396767e+2, -780424.75, -693341.75, -19654.945, -0.005541221, 0.26834303, -689111.1, -139968.02, 0.0, 9.998504, 9.9996605 
1.5949634e+3, 2.539675e+2, -730048.2, -614863.6, -26772.443, -0.024010647, 0.2792119, -608945.0, -157798.78, 0.0, 9.998161, 9.999691 
1.594952e+3, 2.6396757e+2, -652515.06, -452745.34, -41747.15, -0.022278901, 0.29141122, -444372.13, -91225.805, 0.0, 9.997704, 10.000352 
1.5949407e+3, 2.7396807e+2, -640721.25, -386303.6, -44150.734, 0.007961544, 0.29710394, -378859.63, -123718.42, 0.0, 9.997068, 10.000441 
1.5949294e+3, 2.8396854e+2, -601677.9, -289938.5, -29364.441, 0.010785557, 0.28894538, -287196.63, -130060.22, 0.0, 9.996549, 10.00068 
1.5949179e+3, 2.939691e+2, -553455.7, -213244.88, -39050.43, -0.025064778, 0.26977342, -208820.1, -149690.53, 0.0, 9.996195, 10.000703 
1.5949066e+3, 3.0397004e+2, -529737.9, -98390.64, -56234.9, -0.021957893, 0.2649708, -91179.82, -91179.82, 0.0, 9.995687, 10.001402 
1.5948954e+3, 3.1397194e+2, -621616.06, -117887.195, -21136.523, -0.00328096, 0.30564624, -117001.86, -117001.86, 0.0, 9.994949, 10.001623 
1.605106e+3, 1.23993225e+2, -1085754.8, -1652993.1, -23641.691, 0.0921174, 0.15803006, -1084771.1, 640113.75, 0.0158546, 10.005454, 9.997803 
1.6050954e+3, 1.3399121e+2, -1115014.9, -1639025.3, 80638.914, 0.013113692, 0.19311544, -1102886.3, 524017.75, 0.00995612, 10.004628, 9.997621 
1.605086e+3, 1.439889e+2, -1080571.5, -1524571.9, 25944.695, 0.098273575, 0.18439326, -1079060.5, 449866.3, 0.0047606267, 10.003965, 9.998049 
1.6050743e+3, 1.5398708e+2, -1040156.25, -1450830.1, 27952.6, 0.017120723, 0.18929158, -1038262.4, 392683.56, 0.0014721199, 10.003541, 9.998086 
1.6050631e+3, 1.6398545e+2, -982261.3, -1312486.1, 41409.207, -0.017871922, 0.19613561, -977147.9, 355814.88, 0.0002086687, 10.003003, 9.998622 
1.6050531e+3, 1.7398417e+2, -982155.94, -1254110.5, 42784.4, 0.026258154, 0.19788368, -975583.9, 259391.6, 0.0000034510517, 10.002297, 9.998691 
1.6050425e+3, 1.8398303e+2, -956771.7, -1170686.0, 19515.729, 0.040405653, 0.21009046, -955005.8, 181981.42, 0.0, 10.00171, 9.998875 
1.605031e+3, 1.9398223e+2, -916980.5, -1097497.3, 13753.114, 0.0063694324, 0.2356989, -915938.7, 123057.695, 0.0, 10.001296, 9.998903 
1.6050197e+3, 2.0398131e+2, -889215.9, -1023590.5, 8663.356, -0.01005768, 0.25295392, -888659.7, 52347.082, 0.0, 10.000771, 9.998991 
1.6050087e+3, 2.1398035e+2, -889855.5, -970844.9, 15022.007, 0.0007085763, 0.2538671, -887159.0, -44141.46, 0.0, 10.000084, 9.999012 
1.6049972e+3, 2.2397958e+2, -841339.25, -849169.0, -7772.1807, 0.0037724692, 0.2598004, -836551.7, -91525.59, 0.0, 9.999539, 9.999436 
1.6049853e+3, 2.3397918e+2, -787710.94, -765967.7, -18303.693, -0.0055016144, 0.26909703, -755550.44, -108520.36, 0.0, 9.999207, 9.9994955 
1.6049732e+3, 2.4397883e+2, -742083.56, -672678.8, -11846.767, -0.012901609, 0.27769613, -670712.4, -121678.125, 0.0, 9.998759, 9.999678 
1.6049616e+3, 2.539786e+2, -731238.94, -613081.4, -4199.4395, -0.017074006, 0.2830162, -612932.3, -161894.89, 0.0, 9.998146, 9.999709 
1.6049498e+3, 2.639786e+2, -670465.5, -473147.47, -15689.365, -0.013145898, 0.2903165, -471907.75, -118869.37, 0.0, 9.997634, 10.000243 
1.6049379e+3, 2.7397898e+2, -619997.94, -390123.5, -29370.646, 0.0006797995, 0.29390246, -386430.2, -131394.97, 0.0, 9.997273, 10.000314 
1.6049258e+3, 2.8397945e+2, -566831.0, -274198.1, -16386.14, -0.0038206975, 0.29454026, -273283.4, -116252.95, 0.0, 9.996795, 10.000668 
1.604914e+3, 2.9398015e+2, -561681.56, -216727.9, -14108.352, -0.03213176, 0.2954061, -216151.84, -157130.48, 0.0, 9.99614, 10.000705 
1.6049023e+3, 3.039808e+2, -544141.94, -114330.46, -21706.346, -0.01742657, 0.26045337, -113237.02, -113237.02, 0.0, 9.995629, 10.001319 
1.6048905e+3, 3.139824e+2, -571748.2, -102834.04, 21757.156, -0.0034719056, 0.28491473, -101826.695, -101826.695, 0.0, 9.995333, 10.00154 
1.6151114e+3, 1.2400544e+2, -1097722.3, -1678211.3, -50679.16, 0.096664645, 0.18397139, -1093331.0, 631434.1, 0.016899303, 10.005458, 9.997626 
1.6150999e+3, 1.3400298e+2, -1132183.4, -1675491.0, 48738.99, -0.0036506855, 0.19865152, -1127845.8, 498943.7, 0.010652377, 10.004631, 9.99737 
1.6150898e+3, 1.440005e+2, -1078603.5, -1522033.9, 7971.1675, 0.078427054, 0.18515421, -1078460.4, 450354.1, 0.0051257196, 10.00397, 9.998065 
1.6150779e+3, 1.539988e+2, -1036374.4, -1444934.3, 11706.933, 0.02330535, 0.19966319, -1036039.2, 394792.78, 0.0016018309, 10.003548, 9.998124 
1.6150662e+3, 1.6399722e+2, -982652.2, -1315323.3, 15405.106, -0.008655858, 0.2115133, -981940.3, 350907.63, 0.00023102766, 10.00301, 9.998601 
1.6150552e+3, 1.7399591e+2, -983599.75, -1258778.9, 15984.43, 0.004688019, 0.21153319, -982674.4, 252186.58, 0.0000040571285, 10.002302, 9.998657 
1.6150439e+3, 1.839947e+2, -963417.9, -1186147.6, 2802.2507, 0.013632775, 0.22132732, -963382.6, 173491.16, 0.0, 10.001715, 9.998767 
1.6150324e+3, 1.9399373e+2, -924462.0, -1114628.9, -1589.7643, 0.011769161, 0.24355142, -924448.75, 114436.27, 0.0, 10.001301, 9.998785 
1.6150206e+3, 2.0399275e+2, -877936.25, -1001747.4, -15980.119, 0.008635007, 0.25615567, -875907.0, 64988.67, 0.0, 10.000775, 9.999141 
1.6150089e+3, 2.1399191e+2, -876616.75, -945030.7, -10406.965, 0.005033317, 0.25051236, -875068.7, -32164.494, 0.0, 10.000089, 9.999188 
1.6149966e+3, 2.2399117e+2, -851744.94, -872495.1, -20991.586, -0.0030038753, 0.2558672, -838704.44, -93792.14, 0.0, 9.999544, 9.999275 
1.6149843e+3, 2.3399065e+2, -801021.56, -795156.5, -29903.037, -0.017710794, 0.27336913, -768042.5, -121124.016, 0.0, 9.999211, 9.999294 
1.614972e+3, 2.4399027e+2, -729164.5, -647366.06, -32963.234, -0.017048191, 0.2832052, -635736.06, -86812.99, 0.0, 9.998763, 9.999851 
1.61496e+3, 2.5399017e+2, -715718.6, -582096.06, -26174.754, 0.0057059485, 0.27883172, -577151.75, -126227.85, 0.0, 9.998149, 9.999922 
1.6149476e+3, 2.6399016e+2, -686086.06, -506919.5, -28879.984, 0.0055849133, 0.28486776, -502379.38, -149454.75, 0.0, 9.997637, 10.000011 
1.6149348e+3, 2.739904e+2, -638973.7, -431423.38, -41555.098, -0.029506419, 0.30086803, -423412.53, -168488.28, 0.0, 9.997278, 10.00003 
1.6149224e+3, 2.839908e+2, -557832.6, -257290.3, -38988.863, -0.03899475, 0.31215864, -252314.7, -95394.84, 0.0, 9.9968, 10.000782 
1.6149104e+3, 2.9399177e+2, -550167.8, -193429.88, -37770.14, -0.006970017, 0.31669968, -189474.75, -130566.71, 0.0, 9.99614, 10.000866 
1.6148983e+3, 3.0399212e+2, -542815.5, -112478.53, -32641.438, 0.021233508, 0.24487248, -110016.734, -110016.734, 0.0, 9.99563, 10.001332 
1.6148853e+3, 3.1399366e+2, -567021.9, -95331.27, 13328.476, -0.044278607, 0.26121536, -94954.95, -94954.95, 0.0, 9.995339, 10.00159 
1.6251168e+3, 1.2401782e+2, -1112148.8, -1689526.1, -55262.277, 0.09860995, 0.20716108, -1106907.0, 617737.75, 0.018013354, 10.005385, 9.9975815 
1.6251045e+3, 1.340151e+2, -1126592.0, -1683313.9, 49392.543, -0.003079663, 0.2046873, -1122243.9, 504428.06, 0.011399846, 10.004723, 9.997271 
1.6250938e+3, 1.4401256e+2, -1055584.9, -1506062.5, 24174.951, 0.07848727, 0.1894005, -1054291.3, 474406.16, 0.0055212528, 10.004113, 9.998105 
1.6250814e+3, 1.5401104e+2, -1027425.8, -1434715.5, 28916.328, 0.021893037, 0.21718478, -1025383.06, 405329.97, 0.001744212, 10.003587, 9.998175 
1.6250692e+3, 1.6400953e+2, -986962.2, -1323861.0, 24165.418, -0.011145282, 0.23373751, -985237.7, 347490.9, 0.00025601638, 10.003011, 9.998541 
1.6250573e+3, 1.7400806e+2, -981137.25, -1265705.8, 20183.207, -0.0004686917, 0.22632252, -979712.9, 255030.2, 0.0000047593935, 10.002357, 9.998582 
1.6250455e+3, 1.8400674e+2, -959212.1, -1183467.4, 15099.412, 0.00811626, 0.230309, -958200.0, 178556.89, 0.0, 10.001743, 9.99877 
1.6250336e+3, 1.9400574e+2, -940166.8, -1121004.3, 20154.957, 0.010292839, 0.24910358, -937947.7, 100820.67, 0.0, 10.00119, 9.998793 
1.6250215e+3, 2.0400481e+2, -885985.2, -996464.7, 5216.522, 0.010635938, 0.26116285, -885739.4, 55039.055, 0.0, 10.000683, 9.99922 
1.6250089e+3, 2.1400408e+2, -849054.25, -922094.94, 3008.1667, 0.008929641, 0.25899166, -848930.6, -6145.2705, 0.0, 10.000238, 9.999271 
1.6249964e+3, 2.2400334e+2, -818362.06, -860606.25, -1850.3425, 0.0006743151, 0.26352307, -818281.2, -73488.06, 0.0, 9.999794, 9.999235 
1.6249835e+3, 2.3400272e+2, -784603.5, -793223.2, 80.91133, -0.017450474, 0.2744842, -784602.75, -137801.88, 0.0, 9.9993515, 9.999238 
1.6249709e+3, 2.4400231e+2, -717644.0, -639647.06, -10869.0625, -0.017928924, 0.28471842, -638160.75, -89354.92, 0.0, 9.998836, 9.999867 
1.624958e+3, 2.5400233e+2, -704804.06, -574027.75, -19833.58, 0.007203892, 0.290103, -571085.94, -120280.66, 0.0, 9.998214, 9.999945 
1.6249453e+3, 2.6400232e+2, -677252.75, -500735.66, -13821.355, 0.00809692, 0.29396492, -499660.0, -146854.17, 0.0, 9.997691, 10.000026 
1.6249321e+3, 2.7400237e+2, -633694.4, -427287.44, -3622.4482, -0.028586576, 0.2923651, -427223.88, -172417.22, 0.0, 9.997311, 10.000041 
1.6249192e+3, 2.8400284e+2, -554325.25, -259898.02, -3322.3, -0.042529374, 0.30530497, -259860.53, -103058.266, 0.0, 9.996845, 10.000741 
1.6249065e+3, 2.9400396e+2, -536664.3, -191892.0, -19555.236, -0.017632386, 0.33467433, -190786.39, -131997.34, 0.0, 9.996257, 10.000818 
1.624894e+3, 3.040041e+2, -530793.7, -106605.695, -15769.502, 0.020244524, 0.2441045, -106020.26, -106020.26, 0.0, 9.995715, 10.00133 
1.6248807e+3, 3.1400564e+2, -575866.3, -88173.88, 32481.426, -0.03763411, 0.26143005, -86020.06, -86020.06, 0.0, 9.995232, 10.00169 
1.6351222e+3, 1.2403046e+2, -1106991.0, -1678534.8, -75417.49, 0.096175306, 0.22986123, -1097206.8, 627316.1, 0.019202052, 10.005387, 9.99766 
1.6351095e+3, 1.3402762e+2, -1123609.3, -1677920.3, 24136.666, 0.013189009, 0.21108392, -1122560.3, 503990.47, 0.012202877, 10.004727, 9.997306 
1.6350982e+3, 1.4402513e+2, -1050959.9, -1498462.4, 3339.5476, 0.096577115, 0.19691573, -1050934.9, 477640.56, 0.0059500798, 10.004121, 9.998156 
1.6350849e+3, 1.5402384e+2, -1023322.6, -1427726.5, 8737.159, 0.013031586, 0.2416619, -1023133.94, 407454.97, 0.0019009894, 10.003592, 9.998221 
1.6350721e+3, 1.6402233e+2, -993987.25, -1339763.8, -272.39917, -0.025033757, 0.2627323, -993987.06, 338617.3, 0.00028448043, 10.003014, 9.998431 
1.6350599e+3, 1.740206e+2, -989224.25, -1284268.9, -4517.486, 0.010147615, 0.24250264, -989155.06, 245466.61, 0.000005611926, 10.002362, 9.998453 
1.6350475e+3, 1.8401916e+2, -951158.5, -1168793.0, -6089.783, 0.023107149, 0.23736693, -950988.25, 185648.36, 0.0, 10.00175, 9.998869 
1.6350347e+3, 1.9401824e+2, -930686.94, -1103117.5, -429.03055, 0.0016451202, 0.252137, -930685.9, 107960.695, 0.0, 10.001196, 9.998914 
1.635022e+3, 2.0401743e+2, -885274.06, -996649.8, -11572.215, -0.0044866386, 0.2677392, -884084.44, 56570.9, 0.0, 10.000688, 9.999218 
1.6350093e+3, 2.1401682e+2, -849580.2, -924742.44, -13156.106, 0.012334521, 0.27944198, -847343.94, -4682.7617, 0.0, 10.000243, 9.999253 
1.6349962e+3, 2.240161e+2, -812724.9, -850505.75, -17880.65, 0.014784384, 0.28314647, -805604.4, -60935.6, 0.0, 9.999799, 9.999304 
1.634983e+3, 2.3401533e+2, -778320.56, -781891.4, -15703.711, -0.0048662964, 0.27249178, -764301.06, -117623.484, 0.0, 9.999356, 9.999315 
1.6349696e+3, 2.4401489e+2, -727542.7, -661882.1, -32693.12, -0.01600045, 0.28238413, -648380.25, -99697.25, 0.0, 9.99884, 9.999714 
1.6349562e+3, 2.5401503e+2, -716709.25, -600391.44, -42111.082, -0.013293554, 0.31708783, -586746.44, -136064.19, 0.0, 9.998219, 9.999763 
1.6349429e+3, 2.6401502e+2, -658410.56, -463243.34, -27826.525, -0.0061571943, 0.31769276, -459353.44, -106670.75, 0.0, 9.997696, 10.000283 
1.6349298e+3, 2.7401486e+2, -611835.44, -383241.47, -16639.314, 0.0039707907, 0.26770908, -382036.66, -127353.37, 0.0, 9.9973135, 10.000343 
1.6349162e+3, 2.8401533e+2, -569027.6, -291750.38, -23529.025, -0.01429662, 0.27338487, -289767.94, -133089.42, 0.0, 9.996848, 10.000523 
1.6349024e+3, 2.9401666e+2, -555519.75, -232776.3, -40692.406, -0.06594892, 0.35005805, -227724.75, -169059.4, 0.0, 9.996261, 10.000537 
1.6348892e+3, 3.0401662e+2, -531653.2, -109915.08, -33437.184, -0.022039933, 0.25939134, -107280.49, -107280.49, 0.0, 9.995719, 10.0013075 
1.6348766e+3, 3.1401825e+2, -565281.25, -66674.06, 15838.36, 0.01789401, 0.28495902, -66171.46, -66171.46, 0.0, 9.995231, 10.00184 
1.6451277e+3, 1.2404355e+2, -1119236.1, -1674806.1, -40382.957, 0.110656, 0.23238592, -1116316.1, 608079.7, 0.020469721, 10.005268, 9.997742 
1.6451141e+3, 1.3404077e+2, -1109441.5, -1664297.1, 54853.387, 0.010640159, 0.21610087, -1104070.8, 522351.7, 0.013063849, 10.004804, 9.997361 
1.6451024e+3, 1.4403835e+2, -1035696.4, -1497676.9, 29462.365, 0.09417525, 0.20658755, -1033825.06, 494621.53, 0.0064135124, 10.004259, 9.998093 
1.6450886e+3, 1.5403697e+2, -1029635.4, -1439440.0, 24896.928, 0.024074642, 0.25234663, -1028128.3, 402332.78, 0.0020729213, 10.003589, 9.998141 
1.6450752e+3, 1.6403541e+2, -1003040.56, -1345266.9, 13258.656, -0.010866587, 0.27335903, -1002527.6, 329949.7, 0.00031690818, 10.002959, 9.998418 
1.6450623e+3, 1.7403367e+2, -985087.8, -1283122.1, 17076.557, 0.011413785, 0.25245237, -984112.56, 250382.25, 0.0000066388466, 10.002397, 9.998444 
1.6450492e+3, 1.8403225e+2, -935724.9, -1158832.5, 19217.807, 0.019064134, 0.24756451, -934081.56, 202428.03, 0.0, 10.001847, 9.998889 
1.645036e+3, 1.9403137e+2, -912854.75, -1092181.1, 16818.78, 0.0029891834, 0.26364976, -911291.0, 127227.99, 0.0, 10.00131, 9.998933 
1.6450226e+3, 2.0403053e+2, -873937.94, -990907.94, 2547.8755, -0.0017152545, 0.27776614, -873882.44, 66645.21, 0.0, 10.000767, 9.999218 
1.6450094e+3, 2.1402988e+2, -854038.94, -927215.94, 1300.1306, 0.010868723, 0.2840186, -854015.8, -11481.74, 0.0, 10.0002165, 9.999248 
1.644996e+3, 2.2402917e+2, -821358.4, -843410.56, -1201.9773, 0.013257974, 0.2859231, -821293.06, -76751.66, 0.0, 9.999693, 9.999402 
1.6449822e+3, 2.3402855e+2, -792499.4, -776763.4, 2697.4382, -0.000635109, 0.27920666, -776313.8, -129765.336, 0.0, 9.99921, 9.999419 
1.6449685e+3, 2.4402818e+2, -736666.4, -668751.3, -9729.576, -0.013955712, 0.2917672, -667384.94, -118831.74, 0.0, 9.998791, 9.99969 
1.6449544e+3, 2.5402826e+2, -684413.94, -589304.8, -9383.289, -0.024933787, 0.32664105, -588387.9, -137834.73, 0.0, 9.998462, 9.999721 
1.6449405e+3, 2.640282e+2, -618430.8, -437188.13, -242.23267, -0.019141547, 0.32308307, -437187.8, -84633.92, 0.0, 9.997943, 10.000341 
1.644927e+3, 2.7402803e+2, -630351.56, -384464.4, -7771.416, 0.0068682097, 0.26459634, -384219.03, -129665.016, 0.0, 9.997155, 10.000409 
1.6449131e+3, 2.8402853e+2, -611006.44, -322041.34, -14208.206, -0.010275848, 0.2722456, -321344.4, -164795.34, 0.0, 9.996606, 10.000429 
1.6448985e+3, 2.940299e+2, -544440.4, -239800.56, -18360.158, -0.08005446, 0.3614738, -238698.02, -180161.42, 0.0, 9.996393, 10.000423 
1.644885e+3, 3.0402967e+2, -510159.7, -103862.97, -15686.529, -0.030936126, 0.2627479, -103258.234, -103258.234, 0.0, 9.995888, 10.001266 
1.6448715e+3, 3.1403148e+2, -595687.94, -64522.78, 28799.738, 0.017281631, 0.3115929, -62965.824, -62965.824, 0.0, 9.994953, 10.001986 
1.6551332e+3, 1.2405715e+2, -1113288.1, -1663207.0, -53288.824, 0.13706456, 0.21778864, -1108171.9, 616090.8, 0.021819968, 10.005276, 9.997822 
1.6551188e+3, 1.3405465e+2, -1104421.6, -1654696.9, 36805.254, -0.009880615, 0.2201215, -1101970.8, 524315.7, 0.013983971, 10.00481, 9.997425 
1.6551064e+3, 1.4405224e+2, -1047807.44, -1524199.4, 4561.6895, 0.072741434, 0.21837899, -1047763.75, 480546.78, 0.0069120205, 10.004265, 9.997909 
1.6550925e+3, 1.540505e+2, -1043659.25, -1470422.8, -682.25806, 0.05361363, 0.24969354, -1043658.1, 386671.28, 0.0022601155, 10.003594, 9.997928 
1.6550785e+3, 1.640488e+2, -997119.7, -1335036.8, -8640.849, 0.029290805, 0.2662567, -996898.9, 335448.38, 0.00035339769, 10.002966, 9.9984865 
1.6550645e+3, 1.7404729e+2, -977392.94, -1269088.9, -4143.543, 0.0033943346, 0.25628862, -977334.06, 257028.33, 0.000007849871, 10.002402, 9.998538 
1.6550508e+3, 1.8404596e+2, -939862.0, -1169115.6, -1035.4365, -0.0037095116, 0.2608427, -939857.3, 196518.64, 0.0, 10.001852, 9.998817 
1.6550374e+3, 1.9404505e+2, -918592.2, -1105736.0, -3158.8608, 0.01411734, 0.28375703, -918538.9, 119846.86, 0.0, 10.001315, 9.998838 
1.6550237e+3, 2.0404412e+2, -873854.75, -992456.0, -17845.365, 0.018467003, 0.29159713, -871227.8, 69167.82, 0.0, 10.0007715, 9.999207 
1.6550095e+3, 2.140432e+2, -853427.75, -927637.94, -18883.7, 0.004094707, 0.27270007, -848898.94, -6494.5815, 0.0, 10.000221, 9.999244 
1.6549955e+3, 2.240425e+2, -812341.8, -826392.9, -18996.783, -0.004438002, 0.27185738, -799113.06, -54701.816, 0.0, 9.999698, 9.999518 
1.6549814e+3, 2.3404232e+2, -782969.4, -758604.2, -14554.24, -0.0049356236, 0.2946796, -751806.75, -105392.74, 0.0, 9.999214, 9.999543 
1.6549672e+3, 2.4404211e+2, -729377.1, -655264.0, -21630.129, -0.011992756, 0.31287766, -649413.06, -100996.23, 0.0, 9.998795, 9.999782 
1.6549528e+3, 2.54042e+2, -677274.9, -576401.7, -20455.498, -0.02761814, 0.31843138, -572411.44, -121992.914, 0.0, 9.9984665, 9.999808 
1.6549383e+3, 2.6404187e+2, -628498.6, -460162.13, -27268.674, -0.031133275, 0.3101947, -455855.1, -103435.01, 0.0, 9.997949, 10.000182 
1.6549239e+3, 2.7404186e+2, -642954.75, -412083.44, -36530.645, -0.021419913, 0.28417927, -406441.1, -152021.5, 0.0, 9.997159, 10.000219 
1.6549094e+3, 2.8404233e+2, -608486.44, -317866.56, -23229.344, -0.031605233, 0.3029193, -316021.53, -159606.75, 0.0, 9.996608, 10.000459 
1.654895e+3, 2.9404348e+2, -540388.4, -232796.48, -25184.248, -0.05864044, 0.3680491, -230748.16, -172344.31, 0.0, 9.996396, 10.000472 
1.6548811e+3, 3.040431e+2, -514694.47, -114764.836, -47570.207, -0.005889352, 0.25341958, -109184.4, -109184.4, 0.0, 9.995891, 10.001191 
1.654866e+3, 3.1404528e+2, -586840.0, -46398.406, -6387.2114, -0.0433437, 0.34209725, -46322.93, -46322.93, 0.0, 9.994951, 10.002112 
1.6651386e+3, 1.2407146e+2, -1072612.9, -1648129.5, -24923.486, 0.14110686, 0.21890527, -1071535.5, 652587.44, 0.023254892, 10.005592, 9.997774 
1.6651237e+3, 1.3406897e+2, -1084225.1, -1650863.1, 50274.9, -0.009461476, 0.22972475, -1079799.0, 546347.56, 0.014964713, 10.004985, 9.997366 
1.6651106e+3, 1.4406654e+2, -1041911.8, -1527672.9, 11681.781, 0.077098705, 0.2326499, -1041631.06, 486539.84, 0.0074467515, 10.004338, 9.997848 
1.6650961e+3, 1.5406469e+2, -1042772.44, -1476881.5, 16185.115, 0.057962496, 0.2563079, -1042169.9, 388021.44, 0.002463059, 10.0036335, 9.997863 
1.6650815e+3, 1.6406293e+2, -989309.3, -1335336.4, 16533.383, 0.03420385, 0.2717, -988521.2, 343688.8, 0.0003940118, 10.003039, 9.998448 
1.6650671e+3, 1.7406145e+2, -951831.6, -1260905.9, 11169.692, 0.00855176, 0.27106673, -951428.5, 282796.4, 0.000009278141, 10.002598, 9.998499 
1.6650529e+3, 1.8406014e+2, -913648.56, -1158259.5, 5744.199, 0.0020243612, 0.28051552, -913513.75, 222724.67, 0.0, 10.002043, 9.998799 
1.6650388e+3, 1.9405921e+2, -918660.44, -1107532.4, 7890.0063, 0.021288788, 0.30160475, -918331.4, 119917.1, 0.0, 10.001325, 9.99882 
1.6650245e+3, 2.0405822e+2, -877523.56, -989407.9, 2299.1245, 0.022894323, 0.305431, -877476.3, 62782.242, 0.0, 10.000729, 9.999247 
1.6650097e+3, 2.1405728e+2, -838812.7, -915510.25, 4714.5645, -0.0006816063, 0.2798647, -838524.0, 3743.287, 0.0, 10.000302, 9.999287 
1.6649951e+3, 2.2405662e+2, -790076.25, -808411.3, 2994.9502, -0.014523729, 0.27556512, -789599.44, -45325.652, 0.0, 9.999822, 9.99958 
1.6649806e+3, 2.3405649e+2, -771721.1, -746067.3, 1698.8755, -0.014721332, 0.2994239, -745955.25, -99679.586, 0.0, 9.999264, 9.999605 
1.6649659e+3, 2.4405633e+2, -736123.44, -649379.7, -5919.642, -0.018847594, 0.31649914, -648977.56, -100699.77, 0.0, 9.998712, 9.999861 
1.664951e+3, 2.5405627e+2, -714716.06, -585506.8, -5575.8857, -0.027736884, 0.31795543, -585266.6, -134987.66, 0.0, 9.998174, 9.999886 
1.6649361e+3, 2.6405615e+2, -665230.56, -484331.3, -14019.277, -0.03155158, 0.31083643, -483251.3, -130970.97, 0.0, 9.997727, 10.000122 
1.664921e+3, 2.7405617e+2, -612531.0, -406030.2, -15778.473, -0.03301876, 0.29421097, -404831.53, -150551.5, 0.0, 9.997407, 10.00014 
1.664906e+3, 2.8405663e+2, -564702.25, -290864.56, 4334.3574, -0.044560324, 0.31519017, -290795.97, -134520.75, 0.0, 9.996885, 10.000509 
1.6648914e+3, 2.9405776e+2, -582876.44, -246678.56, 2724.0532, -0.05665318, 0.36969358, -246656.5, -188392.31, 0.0, 9.9960785, 10.000527 
1.6648768e+3, 3.040572e+2, -582712.2, -167192.39, -26275.26, 0.0017881488, 0.24548644, -165537.48, -165537.48, 0.0, 9.995512, 10.001012 
1.6648607e+3, 3.1405932e+2, -537782.44, -18383.563, 4638.5205, -0.07772306, 0.34812483, -18342.143, -18342.143, 0.0, 9.995273, 10.00215 
1.675144e+3, 1.2408651e+2, -1084432.5, -1672948.9, -42394.227, 0.12122237, 0.23652865, -1081394.3, 642581.56, 0.024772266, 10.005599, 9.997599 
1.675129e+3, 1.3408381e+2, -1096908.3, -1678140.1, 27096.428, 0.009928657, 0.24445166, -1095647.8, 530354.5, 0.016006995, 10.00499, 9.997177 
1.6751152e+3, 1.4408131e+2, -1037820.94, -1520599.5, -14789.46, 0.104493745, 0.24905588, -1037368.3, 490659.16, 0.008019802, 10.004343, 9.997895 
1.6750994e+3, 1.5407951e+2, -1036601.6, -1466456.6, -10631.974, 0.03809792, 0.27189004, -1036338.8, 393707.78, 0.0026832542, 10.003641, 9.9979315 
1.6750844e+3, 1.6407774e+2, -998971.3, -1357721.6, -1203.4497, 0.005572889, 0.28936136, -998967.25, 333098.16, 0.00043910716, 10.003046, 9.998293 
1.6750698e+3, 1.7407617e+2, -963770.7, -1287283.6, -5461.6675, 0.026168628, 0.29653385, -963678.5, 270403.84, 0.000010990718, 10.002603, 9.998318 
1.6750552e+3, 1.8407479e+2, -911371.0, -1154872.3, -20341.025, 0.03469451, 0.30657357, -909683.5, 226413.63, 0.0, 10.002046, 9.998822 
1.6750401e+3, 1.940738e+2, -914898.2, -1101304.1, -18867.836, 0.024235424, 0.31722307, -913007.56, 125099.76, 0.0, 10.001328, 9.998862 
1.6750251e+3, 2.0407285e+2, -871005.9, -977444.5, -14407.83, 0.011536829, 0.31937045, -869090.06, 71026.56, 0.0, 10.000732, 9.999329 
1.67501e+3, 2.140721e+2, -832403.8, -903790.06, -10717.323, -0.0034373344, 0.30549073, -830829.56, 11293.502, 0.0, 10.000306, 9.999367 
1.674995e+3, 2.2407144e+2, -789601.94, -809100.25, -16901.396, -0.017201575, 0.29708406, -779839.5, -35710.117, 0.0, 9.999826, 9.999576 
1.6749798e+3, 2.3407103e+2, -771830.9, -748025.3, -18458.547, -0.030343058, 0.29332957, -737964.6, -91830.64, 0.0, 9.999269, 9.999591 
1.6749644e+3, 2.4407081e+2, -731327.1, -641211.5, -25344.12, -0.03493488, 0.30274442, -634572.75, -86436.18, 0.0, 9.998716, 9.999917 
1.6749492e+3, 2.5407103e+2, -709875.6, -576988.2, -24685.014, -0.025588434, 0.32557586, -572550.9, -122415.84, 0.0, 9.998178, 9.999944 
1.674934e+3, 2.6407102e+2, -662510.75, -480207.22, -25582.643, -0.020449268, 0.32513824, -476685.25, -124549.95, 0.0, 9.99773, 10.00015 
1.6749184e+3, 2.740709e+2, -609840.44, -402491.03, -26522.639, -0.027340235, 0.29404506, -399152.22, -145016.13, 0.0, 9.997413, 10.000163 
1.6749029e+3, 2.8407136e+2, -559507.6, -282116.16, -23618.164, -0.049144734, 0.3084072, -280119.6, -123988.42, 0.0, 9.996891, 10.000568 
1.6748872e+3, 2.9407257e+2, -578964.44, -239315.31, -26882.594, -0.075834915, 0.36716256, -237200.77, -179082.33, 0.0, 9.9960785, 10.00058 
1.6748722e+3, 3.040719e+2, -603747.06, -211341.3, -35889.21, -0.009223619, 0.2399627, -208085.89, -208085.89, 0.0, 9.995511, 10.0007105 
1.674856e+3, 3.1407353e+2, -541485.4, -28328.955, -4530.644, -0.08415929, 0.32839137, -28288.959, -28288.959, 0.0, 9.995279, 10.002079 
1.6851497e+3, 1.2410188e+2, -1054714.8, -1665946.5, -29538.125, 0.11615837, 0.24523439, -1053290.6, 670535.4, 0.02636578, 10.005853, 9.997526 
1.6851339e+3, 1.3409911e+2, -1086099.3, -1680279.6, 41928.652, 0.01299502, 0.25440246, -1083155.1, 542698.1, 0.01710969, 10.005105, 9.997106 
1.6851197e+3, 1.4409657e+2, -1023227.94, -1516216.4, 4402.331, 0.11362577, 0.25841048, -1023188.6, 504690.28, 0.008632802, 10.004461, 9.997868 
1.6851033e+3, 1.5409467e+2, -994180.8, -1448464.6, 1298.1676, 0.03402365, 0.27428365, -994177.06, 435721.66, 0.002922699, 10.003947, 9.997907 
1.6850874e+3, 1.640929e+2, -965079.9, -1349788.4, 8742.845, -0.00045782738, 0.2956779, -964881.3, 367036.6, 0.0004894384, 10.003318, 9.998215 
1.6850725e+3, 1.7409143e+2, -980767.1, -1304819.6, 10910.0625, 0.03361342, 0.32272977, -980400.2, 253534.3, 0.000013084683, 10.002528, 9.998232 
1.6850573e+3, 1.8409003e+2, -936518.5, -1163393.0, -85.18711, 0.045930475, 0.33572483, -936518.44, 199431.14, 0.0, 10.00186, 9.998852 
1.6850413e+3, 1.9408886e+2, -908345.3, -1093650.5, 447.64737, 0.025120841, 0.32550088, -908344.2, 129616.734, 0.0, 10.001357, 9.9989 
1.6850257e+3, 2.0408791e+2, -852352.94, -958324.44, 7952.515, 0.008998006, 0.32069913, -851759.44, 88210.54, 0.0, 10.00082, 9.999416 
1.6850103e+3, 2.1408738e+2, -837162.75, -895761.94, 11822.839, 0.0006476124, 0.3198192, -834867.3, 7106.9004, 0.0, 10.000232, 9.999455 
1.6849947e+3, 2.2408684e+2, -809889.5, -813345.56, 5897.6094, -0.010391342, 0.31581765, -805472.0, -61492.563, 0.0, 9.999666, 9.999622 
1.6849789e+3, 2.3408638e+2, -788679.94, -751464.25, 7734.031, -0.026979111, 0.30427587, -749921.0, -103936.59, 0.0, 9.999135, 9.99963 
1.6849631e+3, 2.4408616e+2, -741593.94, -643017.44, 2994.8818, -0.035740793, 0.30962437, -642926.5, -94939.46, 0.0, 9.998635, 9.999942 
1.6849475e+3, 2.540864e+2, -708802.3, -573997.06, 204.89066, -0.030963251, 0.3338256, -573996.75, -124011.61, 0.0, 9.998177, 9.999964 
1.6849317e+3, 2.6408643e+2, -665316.6, -474381.3, 871.2797, -0.026256774, 0.33156243, -474377.34, -122392.266, 0.0, 9.997684, 10.000212 
1.6849157e+3, 2.740863e+2, -644912.94, -412102.75, 2818.435, -0.028999034, 0.29432705, -412068.66, -158083.13, 0.0, 9.997143, 10.000226 
1.6848995e+3, 2.8408676e+2, -595958.44, -299661.53, -2068.84, -0.054168407, 0.30630866, -299647.1, -143666.73, 0.0, 9.996643, 10.000566 
1.6848832e+3, 2.94088e+2, -563774.44, -233774.78, -11902.1045, -0.09189188, 0.36831343, -233346.06, -175378.63, 0.0, 9.996193, 10.000562 
1.6848677e+3, 3.0408728e+2, -596666.94, -221359.34, -12876.087, -0.015802462, 0.2460485, -220918.11, -220918.11, 0.0, 9.99562, 10.000588 
1.6848509e+3, 3.1408858e+2, -593493.4, -39427.152, 31502.121, -0.08993341, 0.31165442, -37641.813, -37641.813, 0.0, 9.994864, 10.002201 
1.6951557e+3, 1.2411761e+2, -1053846.6, -1663407.3, -51628.746, 0.12063613, 0.24746214, -1049504.8, 674167.94, 0.028029542, 10.0058565, 9.997544 
1.695139e+3, 1.3411494e+2, -1083224.1, -1675469.9, 13867.69, 0.00042476505, 0.25989494, -1082899.5, 542799.3, 0.018270316, 10.005114, 9.997136 
1.6951242e+3, 1.441123e+2, -1029759.8, -1532054.9, -15623.077, 0.10571888, 0.26088268, -1029274.4, 498450.7, 0.009286032, 10.004471, 9.997756 
1.6951074e+3, 1.5411015e+2, -1002035.1, -1466537.3, -18096.62, 0.044342384, 0.2637793, -1001331.1, 428416.38, 0.0031830342, 10.003953, 9.997782 
1.695091e+3, 1.6410837e+2, -965248.0, -1351555.8, -20176.867, 0.013868162, 0.2909037, -964197.06, 367570.16, 0.00054598093, 10.003322, 9.998203 
1.6950749e+3, 1.7410722e+2, -980014.5, -1305176.8, -18705.662, 0.031022556, 0.3496782, -978941.94, 254839.44, 0.00001570412, 10.002534, 9.998228 
1.695059e+3, 1.8410589e+2, -933831.44, -1159792.0, -19722.695, 0.036453612, 0.3680368, -932122.9, 203673.08, 0.0, 10.001865, 9.998876 
1.6950427e+3, 1.9410443e+2, -905740.9, -1090056.3, -18106.645, 0.023777435, 0.32640263, -903979.0, 133830.5, 0.0, 10.001362, 9.998924 
1.6950266e+3, 2.041034e+2, -845879.5, -946457.7, -13479.17, 0.014617091, 0.30942193, -844104.44, 95714.5, 0.0, 10.000824, 9.999497 
1.6950107e+3, 2.141031e+2, -830357.94, -883185.94, -9721.562, 0.011164594, 0.32304314, -828625.75, 13195.369, 0.0, 10.000236, 9.999542 
1.6949946e+3, 2.2410277e+2, -802936.2, -800557.6, -13684.784, 0.0055521587, 0.33222786, -788010.56, -44186.25, 0.0, 9.99967, 9.999709 
1.6949783e+3, 2.3410252e+2, -782031.56, -739328.75, -11302.704, -0.0044815065, 0.33245048, -736521.6, -90694.31, 0.0, 9.99914, 9.999713 
1.694962e+3, 2.4410233e+2, -742110.0, -645773.3, -13389.14, -0.021239892, 0.3371662, -643947.06, -96117.336, 0.0, 9.998639, 9.999922 
1.6949454e+3, 2.5410235e+2, -710172.6, -578543.5, -15778.082, -0.04425254, 0.3425787, -576678.6, -126848.75, 0.0, 9.998181, 9.999931 
1.694929e+3, 2.6410228e+2, -658546.06, -462107.25, -18156.346, -0.049703527, 0.33019358, -460443.2, -108612.85, 0.0, 9.997687, 10.000296 
1.6949128e+3, 2.741023e+2, -637733.3, -398751.03, -16376.143, -0.038863666, 0.29537815, -397634.1, -143805.03, 0.0, 9.997147, 10.000318 
1.694896e+3, 2.841028e+2, -600950.6, -311236.72, -18142.545, -0.060146265, 0.3091741, -310105.0, -154281.4, 0.0, 9.996646, 10.000486 
1.6948791e+3, 2.9410395e+2, -570662.1, -249375.08, -27673.727, -0.104534745, 0.37283534, -247008.86, -189196.64, 0.0, 9.996196, 10.000455 
1.6948633e+3, 3.0410334e+2, -592214.94, -213329.63, -39547.637, -0.017997827, 0.2640484, -209245.7, -209245.7, 0.0, 9.995622, 10.000644 
1.6948457e+3, 3.1410444e+2, -571568.5, 5629.4854, 901.84845, -0.09540391, 0.30177045, 5630.8945, 5630.8945, 0.0, 9.9948635, 10.002513 
1.7051615e+3, 1.2413417e+2, -1022591.6, -1653911.4, -12540.613, 0.11309632, 0.24978007, -1022342.6, 701168.25, 0.029759241, 10.006115, 9.997486 
1.705144e+3, 1.3413142e+2, -1048971.9, -1662828.5, 41610.594, -0.003724035, 0.2611394, -1046164.06, 579373.44, 0.01948559, 10.005381, 9.997092 
1.7051287e+3, 1.4412874e+2, -1006948.6, -1529483.9, 15028.801, 0.11120407, 0.26247898, -1006516.7, 521047.7, 0.009978459, 10.004671, 9.997676 
1.7051113e+3, 1.5412652e+2, -1002808.75, -1476035.9, 15492.417, 0.05005149, 0.26769772, -1002302.06, 427285.63, 0.003465084, 10.00399, 9.997698 
1.7050943e+3, 1.641247e+2, -966739.56, -1354111.1, 10347.472, 0.019904228, 0.29646686, -966463.4, 365144.63, 0.0006096058, 10.003322, 9.998184 
1.7050776e+3, 1.7412356e+2, -961996.2, -1297958.5, 9859.102, 0.03732652, 0.3564912, -961707.1, 271915.22, 0.000019016989, 10.0026655, 9.998213 
1.7050609e+3, 1.8412222e+2, -904350.1, -1138058.3, 15488.8545, 0.03993766, 0.37463653, -903328.06, 232308.6, 0.0, 10.002038, 9.99894 
1.7050442e+3, 1.9412082e+2, -887908.94, -1073396.9, 20591.396, 0.020032069, 0.33059654, -885650.5, 151998.86, 0.0, 10.001452, 9.998994 
1.7050275e+3, 2.0411982e+2, -841872.6, -942314.7, 21915.633, 0.010849311, 0.31236997, -837299.06, 102359.414, 0.0, 10.000845, 9.999514 
1.7050108e+3, 2.1411954e+2, -834839.56, -884180.5, 18931.387, 0.017087568, 0.32680836, -828412.94, 13247.874, 0.0, 10.000203, 9.99955 
1.7049943e+3, 2.2411928e+2, -803796.06, -790590.6, 14774.728, 0.01531641, 0.33822414, -781010.4, -37346.848, 0.0, 9.999623, 9.999799 
1.7049775e+3, 2.3411916e+2, -777064.94, -725975.75, 17511.955, 0.0009235791, 0.34281513, -720549.44, -74884.46, 0.0, 9.999129, 9.999807 
1.7049606e+3, 2.4411903e+2, -744949.5, -646321.3, 16680.531, -0.021228928, 0.34922105, -643576.6, -95909.88, 0.0, 9.99862, 9.999927 
1.7049435e+3, 2.5411904e+2, -724377.75, -585816.1, 15688.21, -0.05098531, 0.35266903, -584062.1, -134394.7, 0.0, 9.998089, 9.999925 
1.7049266e+3, 2.64119e+2, -679146.6, -466193.06, 9818.233, -0.056438677, 0.34157097, -465741.34, -114073.76, 0.0, 9.997524, 10.000344 
1.7049098e+3, 2.741191e+2, -668353.56, -407309.84, 7851.744, -0.037108537, 0.3114431, -407073.9, -153408.8, 0.0, 9.996914, 10.000369 
1.7048925e+3, 2.8411955e+2, -644539.8, -334513.16, 9814.332, -0.060444802, 0.32011744, -334202.78, -178542.81, 0.0, 9.99636, 10.000463 
1.7048751e+3, 2.9412055e+2, -619582.94, -277135.6, 5039.4, -0.11867815, 0.36891845, -277061.44, -219410.69, 0.0, 9.995882, 10.000414 
1.7048587e+3, 3.041201e+2, -628080.3, -227976.53, -12316.393, -0.024877582, 0.28127763, -227597.75, -227597.75, 0.0, 9.995368, 10.000665 
1.7048405e+3, 3.141211e+2, -565040.06, 34938.04, 19594.268, -0.102758355, 0.30294263, 35577.273, 35577.273, 0.0, 9.9948, 10.002744 
1.7151673e+3, 1.2415156e+2, -1032717.06, -1674151.5, -34674.723, 0.09048853, 0.2535745, -1030848.06, 692492.44, 0.031549897, 10.00612, 9.997342 
1.7151496e+3, 1.3414863e+2, -1057540.3, -1680938.8, 14014.729, -0.00022354301, 0.2584047, -1057225.4, 568143.7, 0.020751772, 10.005384, 9.996968 
1.7151335e+3, 1.4414589e+2, -1010653.44, -1538069.3, -10614.241, 0.12864576, 0.26316643, -1010439.9, 516956.88, 0.010708659, 10.004675, 9.997617 
1.7151153e+3, 1.541438e+2, -1005577.7, -1483919.4, -10176.931, 0.051268753, 0.28548664, -1005361.25, 424058.06, 0.0037692625, 10.003998, 9.997642 
1.7150976e+3, 1.6414188e+2, -967953.25, -1359108.8, -14302.178, 0.018099833, 0.31207672, -967431.0, 364009.34, 0.0006810527, 10.003329, 9.998148 
1.7150804e+3, 1.7414041e+2, -963409.9, -1302980.6, -14716.794, 0.05179163, 0.34350464, -962773.25, 270684.25, 0.00002321552, 10.002671, 9.998178 
1.7150632e+3, 1.8413906e+2, -896861.1, -1124185.8, -6635.45, 0.05501114, 0.35597178, -896667.6, 238804.27, 0.0, 10.002042, 9.999036 
1.7150456e+3, 1.9413802e+2, -879822.9, -1058159.3, -1072.2194, 0.013648259, 0.33822283, -879816.44, 157664.38, 0.0, 10.001456, 9.999098 
1.7150281e+3, 2.0413715e+2, -845476.0, -951280.25, -1658.5057, -0.0022892607, 0.32980573, -845450.0, 94038.805, 0.0, 10.000848, 9.999453 
1.7150111e+3, 2.1413666e+2, -839646.44, -895832.06, -4633.6396, 0.018395413, 0.33096933, -839266.8, 2226.9084, 0.0, 10.000207, 9.999469 
1.7149939e+3, 2.241363e+2, -797349.1, -779005.0, -3551.6309, 0.018604254, 0.33349425, -778341.4, -34843.863, 0.0, 9.999628, 9.999878 
1.7149764e+3, 2.3413624e+2, -769640.75, -712322.06, -65.23667, -0.011332347, 0.33520466, -712322.0, -66824.164, 0.0, 9.999134, 9.9999 
1.714959e+3, 2.4413623e+2, -743024.7, -644007.3, -2214.3699, -0.03637894, 0.34587997, -643957.8, -96459.24, 0.0, 9.998624, 9.999942 
1.7149416e+3, 2.5413638e+2, -723130.06, -584960.44, -3102.5881, -0.051227354, 0.364413, -584890.8, -135392.6, 0.0, 9.998094, 9.999929 
1.7149241e+3, 2.6413646e+2, -678428.44, -466208.72, -11836.934, -0.046169065, 0.36613056, -465550.53, -114053.04, 0.0, 9.997528, 10.000344 
1.7149068e+3, 2.7413663e+2, -668306.9, -408017.44, -13918.803, -0.023305217, 0.3429236, -407275.25, -153780.88, 0.0, 9.996914, 10.000366 
1.7148891e+3, 2.8413695e+2, -642883.1, -331691.22, -7653.5513, -0.05508203, 0.33930004, -331503.1, -176012.67, 0.0, 9.996359, 10.000484 
1.7148708e+3, 2.9413766e+2, -617984.2, -275158.16, -11988.689, -0.13550653, 0.35639444, -274739.4, -217255.36, 0.0, 9.995884, 10.000428 
1.714854e+3, 3.041375e+2, -629485.25, -232223.47, -32394.654, -0.037663676, 0.29828873, -229599.19, -229599.19, 0.0, 9.995371, 10.000635 
1.7148352e+3, 3.141385e+2, -556172.1, 52797.086, -5361.952, -0.11117653, 0.32018435, 52844.293, 52844.293, 0.0, 9.994799, 10.002869 
1.7251737e+3, 1.2416963e+2, -1022711.3, -1674457.9, -7253.9688, 0.10464985, 0.25981757, -1022630.6, 700533.0, 0.033397652, 10.006229, 9.997287 
1.7251548e+3, 1.3416661e+2, -1051863.8, -1681092.3, 42349.066, -0.008735043, 0.2600382, -1049026.3, 576166.6, 0.022066245, 10.005447, 9.996935 
1.7251381e+3, 1.4416383e+2, -1006322.44, -1543647.1, 25059.766, 0.11911216, 0.2647882, -1005156.25, 522064.97, 0.011475286, 10.004745, 9.997543 
1.7251194e+3, 1.5416172e+2, -990498.7, -1485035.9, 23422.533, 0.053699087, 0.294833, -989391.8, 439852.22, 0.0040955306, 10.004142, 9.997563 
1.725101e+3, 1.6415977e+2, -944327.6, -1350814.1, 17558.662, 0.024030535, 0.32193458, -943570.56, 387695.13, 0.00076092564, 10.003508, 9.998117 
1.7250831e+3, 1.7415817e+2, -941718.6, -1295490.1, 17078.027, 0.04880663, 0.34385458, -940896.06, 292387.88, 0.000028535813, 10.002836, 9.998148 
1.7250651e+3, 1.8415679e+2, -884578.25, -1120202.6, 21170.705, 0.052263387, 0.35605663, -882691.2, 252607.52, 0.0, 10.002137, 9.999016 
1.725047e+3, 1.9415586e+2, -890347.75, -1065549.9, 16465.744, 0.02391591, 0.3514011, -888813.75, 148493.19, 0.0, 10.001396, 9.999075 
1.725029e+3, 2.0415501e+2, -858771.3, -955934.3, 16013.735, 0.00933417, 0.3469261, -856200.06, 83114.65, 0.0, 10.0007515, 9.999465 
1.7250113e+3, 2.1415447e+2, -833143.8, -890798.0, 19731.648, 0.015205759, 0.33940932, -827037.56, 14282.71, 0.0, 10.000247, 9.999483 
1.7249936e+3, 2.2415408e+2, -787418.25, -768854.44, 22652.209, 0.009882908, 0.33854374, -753656.2, -10332.241, 0.0, 9.999677, 9.999922 
1.7249754e+3, 2.3415412e+2, -784336.94, -714133.75, 21805.434, -0.013151979, 0.34376758, -707912.2, -62588.766, 0.0, 9.999014, 9.999944 
1.7249575e+3, 2.4415411e+2, -773293.9, -654101.3, 19162.086, -0.033933558, 0.35282603, -651096.44, -103772.58, 0.0, 9.998401, 9.999978 
1.7249396e+3, 2.5415424e+2, -755540.9, -596381.25, 19890.432, -0.047921725, 0.36393467, -593933.1, -144609.19, 0.0, 9.997857, 9.999964 
1.7249216e+3, 2.6415437e+2, -704543.8, -476415.16, 12059.45, -0.042545892, 0.36979327, -475779.44, -124456.76, 0.0, 9.997343, 10.000361 
1.7249037e+3, 2.7415472e+2, -674398.8, -409095.03, 10710.123, -0.02100255, 0.36405855, -408663.38, -155345.39, 0.0, 9.996868, 10.000379 
1.7248854e+3, 2.8415507e+2, -638526.1, -325623.63, 19349.965, -0.05700572, 0.3570165, -324431.53, -169117.19, 0.0, 9.996376, 10.000516 
1.7248666e+3, 2.941555e+2, -620638.8, -273167.94, 15709.685, -0.14296736, 0.34883243, -272459.13, -215148.86, 0.0, 9.995855, 10.000454 
1.7248492e+3, 3.0415574e+2, -643026.25, -239594.27, -7785.5283, -0.037537355, 0.32554784, -239444.08, -239444.08, 0.0, 9.995284, 10.000625 
1.7248298e+3, 3.1415656e+2, -575915.75, 50682.477, 13689.555, -0.11970222, 0.3335491, 50981.418, 50981.418, 0.0, 9.994635, 10.002932 
1.7351803e+3, 1.2418844e+2, -1023720.2, -1673366.3, -31599.322, 0.1498847, 0.26991427, -1022186.8, 700793.1, 0.035302855, 10.006224, 9.997299 
1.73516e+3, 1.3418542e+2, -1048382.44, -1674534.6, 12520.813, -0.02936206, 0.26578715, -1048132.2, 576876.7, 0.023427946, 10.005455, 9.996978 
1.7351426e+3, 1.4418258e+2, -1011911.44, -1557788.1, 1814.9349, 0.08342029, 0.26724926, -1011905.4, 515132.2, 0.012276436, 10.004756, 9.997443 
1.7351235e+3, 1.5418036e+2, -997404.2, -1501012.8, 445.46597, 0.057027485, 0.29607835, -997403.8, 431658.0, 0.004442728, 10.004147, 9.997453 
1.7351046e+3, 1.6417834e+2, -946242.1, -1356029.8, -7659.113, 0.03669644, 0.3261651, -946099.0, 384985.06, 0.0008494107, 10.00351, 9.998082 
1.7350858e+3, 1.7417681e+2, -943001.6, -1300113.0, -8145.906, 0.028725104, 0.35722184, -942815.94, 290285.94, 0.000035226243, 10.002841, 9.998116 
1.735067e+3, 1.841754e+2, -893787.3, -1141290.5, -6211.959, 0.03225675, 0.3746858, -893631.5, 241485.8, 0.0, 10.002143, 9.99887 
1.7350487e+3, 1.941743e+2, -900540.5, -1088534.6, -11102.64, 0.05040268, 0.36979565, -899887.06, 137240.77, 0.0, 10.001401, 9.998917 
1.7350301e+3, 2.0417339e+2, -852488.7, -944685.2, -3300.9526, 0.044626266, 0.36334807, -852370.6, 86765.83, 0.0, 10.000756, 9.999542 
1.7350115e+3, 2.141729e+2, -825569.25, -876777.1, 1428.2003, 0.006983399, 0.3522368, -825529.44, 15611.206, 0.0, 10.000251, 9.999578 
1.7349929e+3, 2.2417259e+2, -786892.1, -769421.44, -1050.1946, -0.011156954, 0.3539247, -769358.56, -26215.22, 0.0, 9.9996805, 9.999918 
1.7349747e+3, 2.3417272e+2, -784686.5, -716543.94, -2212.7615, -0.004351756, 0.36880812, -716472.2, -71329.91, 0.0, 9.999019, 9.999927 
1.734956e+3, 2.4417263e+2, -769402.3, -647658.8, -672.2283, -0.013708163, 0.37012035, -647655.1, -100511.84, 0.0, 9.9984045, 10.000022 
1.7349374e+3, 2.541725e+2, -751530.56, -589395.3, 641.35065, -0.04125653, 0.35073185, -589392.8, -140247.55, 0.0, 9.99786, 10.000011 
1.734919e+3, 2.6417264e+2, -702584.25, -473698.1, -5035.9946, -0.04619955, 0.35187113, -473587.34, -122443.4, 0.0, 9.997345, 10.0003805 
1.7349005e+3, 2.7417332e+2, -672512.25, -406983.44, -6105.805, -0.031664707, 0.374737, -406843.1, -153706.34, 0.0, 9.996873, 10.000393 
1.7348816e+3, 2.841737e+2, -635314.2, -320710.44, 750.11475, -0.06737715, 0.37346756, -320708.66, -165575.92, 0.0, 9.996381, 10.000549 
1.7348625e+3, 2.9417402e+2, -618417.3, -269560.34, -2849.937, -0.13999893, 0.34647998, -269537.06, -212406.66, 0.0, 9.995857, 10.000479 
1.7348447e+3, 3.0417463e+2, -643147.7, -240800.75, -31111.547, -0.023443341, 0.3639856, -238409.27, -238409.27, 0.0, 9.995285, 10.000618 
1.7348243e+3, 3.1417522e+2, -576487.44, 47381.176, -16303.42, -0.12895727, 0.35117334, 47806.94, 47806.94, 0.0, 9.99464, 10.002908 
1.7451864e+3, 1.2420767e+2, -1055506.4, -1691116.1, -9325.012, 0.1422063, 0.27396983, -1055369.5, 667422.44, 0.037266273, 10.006024, 9.997269 
1.7451656e+3, 1.3420469e+2, -1015618.06, -1657439.6, 26609.316, -0.03204057, 0.27291283, -1014516.75, 610303.9, 0.02483376, 10.005693, 9.996979 
1.7451474e+3, 1.4420182e+2, -963494.2, -1534157.9, 9428.973, 0.08912499, 0.273553, -963338.44, 563511.1, 0.013107799, 10.0051, 9.9974375 
1.7451277e+3, 1.5419959e+2, -996276.44, -1500819.9, 14125.074, 0.0565223, 0.30076253, -995881.25, 432992.7, 0.0048079174, 10.004161, 9.997446 
1.745108e+3, 1.6419755e+2, -965017.4, -1369773.8, 15929.58, 0.034104105, 0.332636, -964391.44, 366505.03, 0.0009458271, 10.003405, 9.998037 
1.7450887e+3, 1.7419605e+2, -938960.44, -1303708.8, 13620.712, 0.029821314, 0.37008208, -938452.5, 294461.84, 0.000043436936, 10.002896, 9.998063 
1.7450693e+3, 1.8419461e+2, -878432.56, -1139961.5, 11660.74, 0.034234006, 0.39239025, -877913.6, 257016.5, 0.0000000000000006446772, 10.002277, 9.998813 
1.7450501e+3, 1.9419348e+2, -888800.94, -1089427.4, 12949.078, 0.04919561, 0.3900124, -887968.6, 148972.88, 0.0, 10.001513, 9.998855 
1.7450309e+3, 2.041925e+2, -841899.4, -936866.56, 29354.264, 0.042892583, 0.38040608, -833558.56, 105392.11, 0.0, 10.000821, 9.999563 
1.7450117e+3, 2.1419194e+2, -827846.94, -875033.8, 28515.482, 0.008042461, 0.35916474, -814429.8, 26525.256, 0.0, 10.000226, 9.999601 
1.7449926e+3, 2.2419162e+2, -801545.4, -779289.56, 17568.164, -0.006941254, 0.36013728, -769621.56, -26663.852, 0.0, 9.999595, 9.999889 
1.7449737e+3, 2.3419182e+2, -801586.3, -728124.4, 13951.321, 0.0033662617, 0.38645524, -725564.06, -80607.75, 0.0, 9.99892, 9.999893 
1.7449544e+3, 2.4419175e+2, -778120.5, -642488.5, 19976.459, -0.005852125, 0.38676226, -639607.5, -92650.266, 0.0, 9.998308, 10.000102 
1.7449354e+3, 2.5419152e+2, -757009.25, -581810.94, 24142.559, -0.037365016, 0.35054684, -578544.94, -129585.7, 0.0, 9.997782, 10.000099 
1.7449163e+3, 2.641917e+2, -714436.1, -476069.66, 21210.969, -0.04455278, 0.34757188, -474196.9, -123239.41, 0.0, 9.997253, 10.000406 
1.7448972e+3, 2.7419248e+2, -692953.44, -414409.38, 20396.799, -0.031443503, 0.38089952, -412923.7, -159974.2, 0.0, 9.996726, 10.000411 
1.744878e+3, 2.841929e+2, -661544.44, -327043.44, 25463.127, -0.067327715, 0.37865746, -325116.22, -170170.61, 0.0, 9.996177, 10.000602 
1.7448582e+3, 2.9419318e+2, -654474.56, -280539.63, 22476.803, -0.13510299, 0.3437663, -279193.4, -222249.56, 0.0, 9.995586, 10.000532 
1.74484e+3, 3.041943e+2, -669586.6, -244018.13, -409.07166, -0.016259724, 0.40460166, -244017.73, -244017.73, 0.0, 9.995067, 10.000699 
1.7448187e+3, 3.1419468e+2, -578303.9, 42933.613, 13832.686, -0.15037364, 0.35995138, 43241.465, 43241.465, 0.0, 9.994647, 10.0028715 
1.7551918e+3, 1.2422738e+2, -1060652.0, -1702702.3, -18161.916, 0.08141794, 0.27368584, -1060138.6, 662460.44, 0.039283894, 10.006038, 9.997181 
1.7551714e+3, 1.3422443e+2, -1020087.0, -1665229.8, 13849.03, -0.017320465, 0.2814781, -1019789.9, 604838.0, 0.026276993, 10.005691, 9.996928 
1.7551531e+3, 1.4422159e+2, -959776.8, -1524576.6, -24067.012, 0.13401948, 0.28349024, -958753.1, 567903.7, 0.013962982, 10.005094, 9.997508 
1.7551318e+3, 1.542194e+2, -989850.7, -1489029.0, -21330.746, 0.051762298, 0.30862066, -988940.9, 439739.6, 0.0051869308, 10.004167, 9.997526 
1.7551112e+3, 1.6421741e+2, -968541.06, -1379633.0, -4320.848, 0.016464729, 0.34128448, -968495.7, 362207.1, 0.00104859, 10.003413, 9.997967 
1.7550917e+3, 1.7421584e+2, -944101.2, -1315899.9, -5304.611, 0.051092137, 0.38246432, -944025.5, 288695.9, 0.000053070675, 10.002899, 9.997979 
1.7550717e+3, 1.8421441e+2, -876546.7, -1137330.9, -16130.139, 0.05661697, 0.40898517, -875552.75, 259184.61, 0.0000000010737394, 10.002279, 9.998832 
1.7550513e+3, 1.9421336e+2, -886029.7, -1085641.6, -15364.488, 0.020394346, 0.41218573, -884853.94, 151894.11, 0.0, 10.001518, 9.99888 
1.7550312e+3, 2.0421234e+2, -844460.0, -944110.5, 7129.759, 0.0047793174, 0.39860222, -843952.5, 94805.14, 0.0, 10.000826, 9.999513 
1.755012e+3, 2.1421155e+2, -831194.3, -883847.2, 6853.452, 0.018497996, 0.35999086, -830316.9, 10446.985, 0.0, 10.000231, 9.99954 
1.7549925e+3, 2.2421113e+2, -805023.3, -788487.2, -6903.163, 0.022016548, 0.35671762, -785984.25, -43216.73, 0.0, 9.9996, 9.9998255 
1.7549725e+3, 2.342114e+2, -805330.0, -737659.2, -10471.123, 0.009425331, 0.39667228, -736076.0, -91309.93, 0.0, 9.998925, 9.999826 
1.7549528e+3, 2.4421139e+2, -770105.7, -627479.06, 680.82745, -0.010984861, 0.40309605, -627475.8, -80709.555, 0.0, 9.998312, 10.000205 
1.7549331e+3, 2.5421128e+2, -747987.56, -564769.06, 5427.2153, -0.0367607, 0.36409348, -564608.44, -115841.9, 0.0, 9.997786, 10.000216 
1.7549136e+3, 2.6421145e+2, -712089.7, -472881.06, 2276.9556, -0.037890386, 0.35758638, -472859.38, -122095.32, 0.0, 9.997257, 10.000428 
1.7548941e+3, 2.7421215e+2, -691690.6, -413113.0, 1682.2017, -0.01948796, 0.3821527, -413102.84, -160345.8, 0.0, 9.996729, 10.00042 
1.7548741e+3, 2.8421253e+2, -657295.3, -319280.4, 4147.739, -0.05616309, 0.3719691, -319229.53, -164475.52, 0.0, 9.996179, 10.000656 
1.7548537e+3, 2.942129e+2, -649718.75, -271635.9, 525.63873, -0.13049957, 0.34072295, -271635.2, -214883.45, 0.0, 9.995587, 10.000595 
1.754835e+3, 3.042146e+2, -657453.06, -219844.94, -16154.114, -0.018962353, 0.44772136, -219249.44, -219249.44, 0.0, 9.995068, 10.000866 
1.754813e+3, 3.1421486e+2, -582351.8, 33165.65, -8953.849, -0.18291004, 0.3743971, 33295.87, 33295.87, 0.0, 9.99465, 10.002805 
1.7651978e+3, 1.24247864e+2, -987339.6, -1674620.5, 15275.695, 0.054666072, 0.27345607, -987000.25, 735398.06, 0.04135137, 10.006613, 9.997104 
1.765177e+3, 1.3424484e+2, -1067976.4, -1692890.6, 42688.617, -0.011486963, 0.27789778, -1065073.8, 559354.6, 0.02775263, 10.005382, 9.996886 
1.765158e+3, 1.4424199e+2, -1038817.8, -1561468.9, 9451.359, 0.15472694, 0.28144804, -1038647.0, 487810.63, 0.014836867, 10.004543, 9.997518 
1.7651358e+3, 1.5423998e+2, -978229.3, -1481199.3, 7364.878, 0.045625996, 0.3213972, -978121.5, 450358.34, 0.0055757514, 10.004242, 9.99754 
1.7651147e+3, 1.6423799e+2, -930681.0, -1358902.6, 20324.092, 0.003391695, 0.35492575, -929718.56, 400783.34, 0.0011557055, 10.003667, 9.997985 
1.7650945e+3, 1.7423627e+2, -968345.6, -1325440.6, 25600.107, 0.057093047, 0.37866476, -966519.7, 266002.03, 0.00006374245, 10.0027275, 9.997994 
1.765074e+3, 1.8423478e+2, -916572.4, -1161180.9, 21688.482, 0.064894214, 0.40168074, -914664.25, 219873.97, 0.000000009428086, 10.0020275, 9.998787 
1.7650527e+3, 1.9423383e+2, -870595.2, -1083742.0, 16300.032, 0.0086426735, 0.42037094, -869355.9, 167192.56, 0.0, 10.001651, 9.998827 
1.7650321e+3, 2.0423289e+2, -813231.44, -932665.06, 29840.918, -0.009800815, 0.4168507, -806190.7, 132367.13, 0.0, 10.001059, 9.999477 
1.7650121e+3, 2.1423206e+2, -841559.1, -892412.25, 30265.248, 0.024146365, 0.38042215, -827457.3, 13106.85, 0.0, 10.000178, 9.999505 
1.764992e+3, 2.2423154e+2, -829280.4, -807325.4, 22527.645, 0.034644276, 0.3727228, -793242.94, -50674.21, 0.0, 9.999468, 9.999759 
1.7649716e+3, 2.3423159e+2, -801601.7, -743740.06, 18250.73, 0.010888695, 0.39948627, -738464.44, -93895.29, 0.0, 9.998987, 9.999754 
1.764951e+3, 2.4423157e+2, -751760.75, -614931.5, 25437.28, -0.013716532, 0.4043196, -610355.6, -63785.89, 0.0, 9.998425, 10.000236 
1.7649308e+3, 2.542316e+2, -750029.25, -561156.25, 23624.49, -0.034323085, 0.38045406, -558246.1, -109677.86, 0.0, 9.997755, 10.000255 
1.7649108e+3, 2.642319e+2, -733669.5, -482179.25, 17020.264, -0.03152655, 0.38137725, -481032.6, -130467.6, 0.0, 9.9971075, 10.000434 
1.7648907e+3, 2.7423254e+2, -726132.9, -428981.03, 15467.773, -0.010993251, 0.3997042, -428178.06, -175619.33, 0.0, 9.996492, 10.0004225 
1.7648703e+3, 2.8423288e+2, -683941.94, -320126.63, 20992.967, -0.050348602, 0.3801589, -318919.28, -164363.13, 0.0, 9.995947, 10.00076 
1.7648493e+3, 2.942333e+2, -655146.1, -260667.0, 21709.984, -0.1327788, 0.34306222, -259475.8, -202922.6, 0.0, 9.995495, 10.000713 
1.7648299e+3, 3.042355e+2, -649739.75, -195098.58, 10512.918, -0.020052332, 0.48084068, -194855.61, -194855.61, 0.0, 9.995034, 10.001051 
1.7648076e+3, 3.142357e+2, -609501.1, 4367.316, 8931.921, -0.1864696, 0.3873252, 4497.2495, 4497.2495, 0.0, 9.994535, 10.002661 
1.7752045e+3, 1.2426915e+2, -996396.9, -1687222.0, -24327.115, 0.05706701, 0.27398404, -995541.3, 726648.1, 0.04347384, 10.006597, 9.997024 
1.7751822e+3, 1.3426593e+2, -1071120.5, -1699571.9, -3309.6157, -0.015307893, 0.26289514, -1071103.0, 553118.7, 0.029263701, 10.005385, 9.99684 
1.7751625e+3, 1.4426303e+2, -1041993.0, -1570340.1, -4532.9053, 0.15133744, 0.26844496, -1041954.1, 484297.66, 0.015729219, 10.004554, 9.997454 
1.77514e+3, 1.5426126e+2, -982217.5, -1490291.6, -3976.7524, 0.038345672, 0.3390198, -982186.4, 446085.78, 0.0059722764, 10.004244, 9.997479 
1.7751181e+3, 1.6425931e+2, -924210.3, -1346060.6, -13276.532, -0.005321906, 0.3731562, -923792.9, 406501.03, 0.0012655696, 10.003667, 9.9980755 
1.7750971e+3, 1.742573e+2, -960163.94, -1310647.1, -9676.816, 0.04811068, 0.35913026, -959897.0, 272418.47, 0.000074936936, 10.002733, 9.998095 
1.775076e+3, 1.842557e+2, -923803.8, -1178626.8, 6318.69, 0.059357576, 0.37137118, -923647.2, 210685.58, 0.000000028818846, 10.002035, 9.998666 
1.7750545e+3, 1.9425486e+2, -879740.1, -1104503.0, 2606.631, 0.013390658, 0.41471288, -879709.9, 156633.05, 0.0, 10.001656, 9.998684 
1.7750332e+3, 2.0425405e+2, -814517.44, -936914.8, -1358.1298, -0.002052131, 0.43480378, -814502.3, 123849.21, 0.0, 10.001062, 9.999448 
1.7750125e+3, 2.1425344e+2, -842048.3, -895254.44, -2163.1196, 0.024521204, 0.420752, -841960.5, -1604.1743, 0.0, 10.000183, 9.999485 
1.7749915e+3, 2.2425282e+2, -834272.9, -819594.06, 4222.494, 0.030811315, 0.40871218, -818466.1, -76104.44, 0.0, 9.999473, 9.999673 
1.7749704e+3, 2.342524e+2, -806853.6, -756744.56, 1258.0195, 0.007748432, 0.39465436, -756713.0, -112346.93, 0.0, 9.998993, 9.999663 
1.7749494e+3, 2.4425218e+2, -754527.7, -622855.7, 1779.3245, -0.01429398, 0.38986546, -622831.6, -76463.31, 0.0, 9.998431, 10.00018 
1.7749286e+3, 2.5425252e+2, -753133.56, -569441.0, -508.17435, -0.030203838, 0.39946488, -569439.6, -121074.46, 0.0, 9.99776, 10.000196 
1.774908e+3, 2.6425296e+2, -734607.56, -485651.0, -5600.3486, -0.025740586, 0.41935876, -485525.06, -135164.02, 0.0, 9.997111, 10.000411 
1.7748873e+3, 2.7425355e+2, -726892.6, -431747.88, -7000.841, -0.007710367, 0.43484673, -431581.9, -179226.61, 0.0, 9.996494, 10.000404 
1.7748663e+3, 2.842538e+2, -672842.94, -298106.3, 4001.7722, -0.05196858, 0.40430292, -298063.6, -143710.66, 0.0, 9.995949, 10.000913 
1.7748447e+3, 2.9425424e+2, -642091.75, -235271.17, 5495.462, -0.14117339, 0.35044885, -235196.95, -178847.69, 0.0, 9.995499, 10.000887 
1.774825e+3, 3.0425674e+2, -636090.56, -168576.56, -7448.519, -0.01772328, 0.5033305, -168457.92, -168457.92, 0.0, 9.995038, 10.001232 
1.7748024e+3, 3.142572e+2, -627552.1, -34167.49, -18395.059, -0.16121896, 0.41800386, -33597.785, -33597.785, 0.0, 9.994536, 10.002398 
1.7852108e+3, 1.24291055e+2, -1089118.9, -1730236.6, -5375.638, 0.07210939, 0.27974018, -1089073.8, 632901.9, 0.04566575, 10.005939, 9.997032 
1.7851876e+3, 1.34288e+2, -1046603.44, -1680827.3, 16614.85, -0.030473858, 0.2805506, -1046168.5, 577837.8, 0.0308193, 10.005543, 9.99689 
1.7851672e+3, 1.4428508e+2, -992276.56, -1548817.0, 26379.701, 0.13855988, 0.2830367, -991029.0, 535007.56, 0.016643941, 10.004921, 9.997422 
1.7851444e+3, 1.5428312e+2, -1017485.5, -1510973.6, 28969.652, 0.051005915, 0.339124, -1015790.7, 412267.88, 0.0063768043, 10.004022, 9.997442 
1.7851219e+3, 1.6428113e+2, -972469.25, -1367709.8, 15379.701, 0.00956807, 0.3723691, -971871.75, 358208.88, 0.0013773687, 10.003332, 9.998085 
1.7850998e+3, 1.742793e+2, -932072.75, -1295349.1, 11390.816, 0.034825012, 0.374561, -931715.94, 300384.5, 0.00008619833, 10.002923, 9.998107 
1.7850779e+3, 1.8427771e+2, -887950.1, -1170483.5, 26479.66, 0.041085098, 0.38948837, -885489.8, 248628.11, 0.0000000562377, 10.002324, 9.99858 
1.785056e+3, 1.9427663e+2, -912849.5, -1130841.0, 25742.416, 0.020130308, 0.4181443, -909850.9, 126279.664, 0.0, 10.001476, 9.998588 
1.7850342e+3, 2.042757e+2, -863946.44, -973015.56, 17676.254, 0.009847878, 0.43852594, -861153.25, 76987.26, 0.0, 10.000779, 9.999335 
1.7850126e+3, 2.1427518e+2, -835668.6, -904980.0, 8624.268, 0.01530227, 0.4451686, -834611.6, 5533.454, 0.0, 10.000285, 9.999368 
1.784991e+3, 2.2427452e+2, -802631.06, -804734.06, 16381.45, 0.015498492, 0.43610257, -787267.44, -45116.62, 0.0, 9.999694, 9.999667 
1.7849694e+3, 2.3427388e+2, -809452.8, -757307.75, 20087.518, 0.0062075383, 0.40064245, -750467.0, -106310.664, 0.0, 9.998975, 9.999666 
1.7849478e+3, 2.4427357e+2, -786629.7, -650654.3, 18848.623, -0.008928284, 0.39192092, -648089.94, -101930.52, 0.0, 9.998266, 10.000067 
1.7849262e+3, 2.5427398e+2, -788867.5, -600436.9, 10648.925, -0.026799021, 0.42124608, -599836.94, -151680.36, 0.0, 9.997576, 10.000071 
1.7849049e+3, 2.6427445e+2, -748176.8, -485853.1, 10759.399, -0.02318142, 0.44850945, -485412.53, -135259.9, 0.0, 9.996993, 10.000465 
1.7848837e+3, 2.7427503e+2, -713354.9, -417410.13, 16381.364, -0.005579565, 0.45463282, -416506.13, -164359.53, 0.0, 9.996555, 10.000473 
1.7848621e+3, 2.842753e+2, -664508.5, -289777.75, 24051.889, -0.050329234, 0.41888624, -288240.3, -134096.38, 0.0, 9.99599, 10.000949 
1.7848401e+3, 2.942758e+2, -674784.2, -245095.38, 14847.344, -0.13780709, 0.3673298, -244582.97, -188443.25, 0.0, 9.995252, 10.000937 
1.78482e+3, 3.042784e+2, -657686.9, -157071.1, 7260.025, -0.010677642, 0.52008086, -156965.84, -156965.84, 0.0, 9.994799, 10.001426 
1.784797e+3, 3.1427902e+2, -626463.9, -62250.965, -10963.481, -0.15429251, 0.4355244, -62038.008, -62038.008, 0.0, 9.99467, 10.002139 
1.795217e+3, 1.24313615e+2, -1085470.9, -1719926.5, -16765.26, 0.09431417, 0.2917096, -1085028.3, 636728.25, 0.047940984, 10.005939, 9.997106 
1.7951928e+3, 1.3431105e+2, -1039152.0, -1662950.8, 932.42487, -0.055718154, 0.32838303, -1039150.6, 584631.5, 0.03242852, 10.00554, 9.997016 
1.7951718e+3, 1.443081e+2, -993999.06, -1551505.4, -6612.706, 0.11794266, 0.3227146, -993920.6, 531891.4, 0.017586285, 10.004918, 9.997407 
1.7951486e+3, 1.5430556e+2, -1018677.4, -1514596.1, -5113.382, 0.081859164, 0.32229406, -1018624.7, 409214.47, 0.0067916154, 10.0040245, 9.997417 
1.7951255e+3, 1.643035e+2, -977376.75, -1379816.8, -1394.9452, 0.04573005, 0.3538595, -977371.9, 352489.9, 0.0014912081, 10.003338, 9.998001 
1.7951025e+3, 1.7430227e+2, -937420.25, -1308233.6, -3950.7148, 0.017057322, 0.42400414, -937378.1, 294498.72, 0.00009724471, 10.002928, 9.998017 
1.79508e+3, 1.8430075e+2, -891454.2, -1179493.0, -4082.7795, 0.010119023, 0.45437086, -891396.3, 242497.55, 0.000000085167756, 10.002328, 9.998518 
1.7950577e+3, 1.9429907e+2, -915935.25, -1139351.1, -5761.776, 0.028725145, 0.43038505, -915786.75, 120124.76, 0.0, 10.001482, 9.9985285 
1.7950352e+3, 2.042978e+2, -877837.6, -1003982.44, -1237.5363, 0.02570405, 0.42854, -877825.5, 60099.414, 0.0, 10.000785, 9.999122 
1.7950125e+3, 2.1429722e+2, -850660.56, -938136.9, -9175.109, -0.0037047442, 0.45343274, -849708.56, -9777.705, 0.0, 10.00029, 9.999139 
1.7949903e+3, 2.2429658e+2, -797139.1, -795323.8, -9186.676, -0.01185326, 0.45434088, -787000.06, -45063.453, 0.0, 9.9997, 9.999731 
1.7949684e+3, 2.3429601e+2, -802651.06, -745052.2, -6027.75, 0.0059163547, 0.41781852, -744428.1, -100487.73, 0.0, 9.99898, 9.99975 
1.7949462e+3, 2.4429569e+2, -798841.3, -677655.0, -6239.7344, 0.0022181708, 0.4112832, -677334.6, -131391.06, 0.0, 9.99827, 9.999881 
1.7949238e+3, 2.5429595e+2, -802449.4, -630231.6, -14345.744, -0.024649432, 0.44607517, -629044.8, -181101.52, 0.0, 9.99758, 9.9998665 
1.794902e+3, 2.642963e+2, -738245.9, -467142.9, -5373.1904, -0.024627622, 0.4683923, -467036.44, -117096.016, 0.0, 9.996998, 10.000593 
1.7948803e+3, 2.7429688e+2, -701720.8, -395662.47, 1020.7062, -0.004183187, 0.45754954, -395659.06, -143725.63, 0.0, 9.996562, 10.000621 
1.7948581e+3, 2.8429717e+2, -670673.7, -304753.2, -2609.3438, -0.04473575, 0.42291778, -304734.6, -150804.48, 0.0, 9.9959955, 10.000845 
1.7948355e+3, 2.9429775e+2, -681749.44, -260254.86, -12646.19, -0.12478188, 0.39457512, -259875.77, -203950.23, 0.0, 9.995251, 10.000835 
1.7948148e+3, 3.0430028e+2, -643271.1, -127280.4, 1566.6082, -0.0020204356, 0.53097373, -127275.65, -127275.65, 0.0, 9.994797, 10.001633 
1.7947915e+3, 3.143013e+2, -643693.6, -100592.98, -25315.758, -0.1655077, 0.46534172, -99415.48, -99415.48, 0.0, 9.994678, 10.001873 
1.8052228e+3, 1.2433668e+2, -1093922.8, -1718364.5, -1396.6315, 0.094906874, 0.3181177, -1093919.6, 627612.56, 0.050305903, 10.00587, 9.997148 
1.8051982e+3, 1.3433413e+2, -1078295.9, -1671268.8, 8397.101, -0.05680395, 0.34830287, -1078177.0, 545380.44, 0.034097634, 10.005226, 9.997108 
1.8051766e+3, 1.4433122e+2, -1034298.2, -1563121.0, -4971.3975, 0.12243885, 0.33567902, -1034251.44, 491335.56, 0.018561646, 10.00461, 9.997473 
1.8051526e+3, 1.5432869e+2, -1011155.94, -1503613.5, 1288.9998, 0.08376055, 0.3315872, -1011152.56, 416460.7, 0.007220303, 10.00405, 9.9974785 
1.8051289e+3, 1.6432661e+2, -965919.8, -1382895.3, 14909.586, 0.04530843, 0.361673, -965387.4, 364248.53, 0.001608107, 10.003458, 9.99792 
1.8051054e+3, 1.743253e+2, -958934.25, -1328549.8, 11940.934, 0.013104943, 0.43361, -958548.9, 273103.1, 0.00010803382, 10.002827, 9.997925 
1.8050821e+3, 1.8432373e+2, -913012.5, -1195947.3, 4318.8115, 0.0052079437, 0.46709883, -912946.56, 220723.06, 0.000000109468616, 10.002211, 9.99846 
1.805059e+3, 1.9432205e+2, -900367.4, -1137727.9, 1391.1528, 0.026980702, 0.4474957, -900359.25, 135328.22, 0.0, 10.001618, 9.998472 
1.805036e+3, 2.0432067e+2, -853398.56, -1006026.7, 14147.743, 0.02367075, 0.4445209, -852098.25, 85603.77, 0.0, 10.001016, 9.998994 
1.8050128e+3, 2.1431988e+2, -844548.6, -949877.56, 13109.14, -0.01131952, 0.46149012, -842941.56, -3231.1672, 0.0, 10.000399, 9.999004 
1.80499e+3, 2.2431916e+2, -795881.4, -796785.2, 6903.735, -0.018488375, 0.46279603, -789414.75, -47697.754, 0.0, 9.999721, 9.999709 
1.8049672e+3, 2.3431867e+2, -806360.94, -748395.56, 1198.142, 0.008943153, 0.43809998, -748370.8, -104651.27, 0.0, 9.998963, 9.999733 
1.8049444e+3, 2.4431834e+2, -797265.0, -684775.44, 5435.883, 0.005676634, 0.4327831, -684513.4, -138790.56, 0.0, 9.998317, 9.999809 
1.8049215e+3, 2.543184e+2, -774004.0, -624678.5, 7082.4004, -0.032816064, 0.45390782, -624343.4, -176618.78, 0.0, 9.997812, 9.999791 
1.804899e+3, 2.6431862e+2, -716061.1, -455988.47, 14646.362, -0.033622704, 0.4688611, -455166.22, -105443.48, 0.0, 9.99715, 10.000595 
1.8048768e+3, 2.743192e+2, -741251.1, -413761.34, 9676.85, 0.00009316104, 0.46082827, -413475.66, -161760.25, 0.0, 9.996289, 10.000627 
1.804854e+3, 2.843196e+2, -731373.75, -336846.0, 4234.984, -0.037602596, 0.43693647, -336800.53, -183089.39, 0.0, 9.995593, 10.000817 
1.8048306e+3, 2.9432034e+2, -700788.0, -270549.1, 2019.1952, -0.12834288, 0.42411965, -270539.6, -214834.17, 0.0, 9.995127, 10.000824 
1.8048096e+3, 3.0432254e+2, -632130.4, -93433.414, 34664.9, -0.003965752, 0.5160987, -91211.91, -91211.91, 0.0, 9.994753, 10.001884 
1.8047863e+3, 3.1432396e+2, -693245.6, -136015.95, 228.50958, -0.1439004, 0.47122806, -136015.86, -136015.86, 0.0, 9.9943905, 10.001767 
1.8152285e+3, 1.243603e+2, -1095550.8, -1717845.3, -19266.89, 0.07446286, 0.35672942, -1094954.8, 626348.0, 0.052760337, 10.005864, 9.997156 
1.8152036e+3, 1.3435736e+2, -1075965.1, -1664176.5, -15624.756, -0.03687993, 0.3420317, -1075550.4, 547781.5, 0.0358313, 10.005222, 9.997161 
1.8151814e+3, 1.4435446e+2, -1026201.7, -1545595.4, -26248.283, 0.14830054, 0.3241523, -1024878.56, 500482.28, 0.019576313, 10.004609, 9.997596 
1.8151563e+3, 1.5435253e+2, -1001843.4, -1485516.0, -19872.37, 0.05832257, 0.36577243, -1001028.25, 426352.56, 0.0076675084, 10.004054, 9.997602 
1.8151319e+3, 1.6435045e+2, -971280.44, -1396118.6, -8772.052, 0.010598003, 0.39407963, -971099.4, 358303.66, 0.0017300043, 10.003464, 9.9978285 
1.8151082e+3, 1.7434841e+2, -965182.6, -1343645.0, -11578.301, 0.022238825, 0.40448415, -964828.75, 266597.03, 0.000118796386, 10.002832, 9.99782 
1.8150845e+3, 1.8434668e+2, -917055.5, -1206393.1, -17752.621, 0.024786545, 0.42961082, -915970.3, 217474.89, 0.00000012626741, 10.002215, 9.998387 
1.8150605e+3, 1.9434552e+2, -904257.06, -1147939.4, -20441.865, 0.014715499, 0.46971077, -902554.2, 132904.4, 0.0, 10.001624, 9.998401 
1.8150367e+3, 2.0434427e+2, -856012.56, -1013370.6, -8334.459, 0.0035911568, 0.48595265, -855572.4, 81899.85, 0.0, 10.001021, 9.998943 
1.8150133e+3, 2.143431e+2, -847193.06, -957230.3, -9285.233, -0.007750001, 0.46939728, -846415.06, -6930.944, 0.0, 10.000403, 9.998953 
1.8149897e+3, 2.243422e+2, -803715.7, -814897.56, -20329.06, -0.0045592077, 0.46190715, -788222.75, -46730.28, 0.0, 9.999725, 9.999585 
1.8149664e+3, 2.3434184e+2, -814625.7, -767497.56, -26296.027, 0.015146931, 0.46153784, -755752.3, -112257.94, 0.0, 9.998969, 9.999601 
1.8149428e+3, 2.4434142e+2, -793736.0, -679657.06, -13035.482, 0.0008992358, 0.45584098, -678186.5, -132688.52, 0.0, 9.998323, 9.999843 
1.8149191e+3, 2.5434119e+2, -769617.75, -618087.75, -10761.943, -0.05195895, 0.44360572, -617327.2, -169826.02, 0.0, 9.99782, 9.999835 
1.8148959e+3, 2.6434126e+2, -724870.1, -476452.38, -16185.891, -0.05062956, 0.44919, -475402.2, -125901.75, 0.0, 9.997156, 10.000453 
1.8148732e+3, 2.7434194e+2, -751828.4, -436593.25, -22367.38, 0.006425707, 0.4654968, -435014.1, -183520.78, 0.0, 9.996289, 10.000471 
1.8148497e+3, 2.8434253e+2, -727539.56, -329546.72, -13960.478, -0.03021958, 0.46200725, -329057.63, -175569.69, 0.0, 9.995592, 10.00087 
1.8148254e+3, 2.9434335e+2, -693995.5, -258667.94, -14041.841, -0.1490476, 0.45449126, -258215.48, -202735.05, 0.0, 9.995133, 10.000904 
1.8148042e+3, 3.04345e+2, -611205.2, -51997.97, 22302.658, -0.016073674, 0.47184214, -51109.89, -51109.89, 0.0, 9.994759, 10.002168 
1.8147811e+3, 3.1434724e+2, -690781.1, -130494.39, -24026.117, -0.08883589, 0.4792308, -129465.99, -129465.99, 0.0, 9.994385, 10.001809 
1.8252343e+3, 1.2438424e+2, -1137879.1, -1734202.4, 10626.841, 0.09019482, 0.36674112, -1137689.9, 583379.6, 0.05530269, 10.005554, 9.9971895 
1.8252087e+3, 1.343814e+2, -1101751.3, -1667436.5, 9690.398, -0.035004303, 0.35381332, -1101585.3, 521512.47, 0.037634287, 10.00501, 9.997239 
1.8251859e+3, 1.4437857e+2, -1041221.25, -1547054.5, 182.8288, 0.14631338, 0.3378584, -1041221.2, 483904.7, 0.02063734, 10.004487, 9.9976425 
1.8251602e+3, 1.543767e+2, -1005014.6, -1481564.6, 1014.17755, 0.050171934, 0.38086766, -1005012.44, 422132.63, 0.008138512, 10.004014, 9.997647 
1.8251354e+3, 1.6437458e+2, -966012.1, -1392151.8, 9014.103, 0.004248069, 0.40270525, -965821.56, 363345.78, 0.0018595326, 10.003498, 9.997837 
1.8251112e+3, 1.7437238e+2, -951536.06, -1336291.4, 13030.108, 0.028563559, 0.39604378, -951095.3, 280095.84, 0.000130009, 10.002927, 9.997823 
1.8250868e+3, 1.8437056e+2, -910716.3, -1213575.0, 8415.04, 0.032213587, 0.41769043, -910482.7, 222728.67, 0.00000013249935, 10.002307, 9.998292 
1.8250622e+3, 1.9436945e+2, -911140.56, -1162565.1, 2729.778, 0.007537752, 0.4727609, -911110.94, 124113.86, 0.0, 10.001629, 9.998296 
1.8250376e+3, 2.043682e+2, -870161.6, -1024674.44, 12591.907, -0.004671727, 0.4996841, -869142.2, 68096.28, 0.0, 10.000947, 9.998899 
1.8250136e+3, 2.1436705e+2, -871359.0, -972996.5, 11361.792, 0.0007569664, 0.4871439, -870104.4, -30853.943, 0.0, 10.000259, 9.998913 
1.8249895e+3, 2.2436604e+2, -826594.56, -841377.25, -296.00027, 0.005763767, 0.47863084, -826588.6, -85328.74, 0.0, 9.999638, 9.999443 
1.8249652e+3, 2.3436548e+2, -806111.3, -779680.1, -7967.6836, 0.0074549443, 0.47210196, -777464.06, -134199.92, 0.0, 9.999101, 9.999453 
1.824941e+3, 2.4436495e+2, -774931.5, -670363.1, 2936.687, -0.011705918, 0.46409723, -670280.75, -125012.13, 0.0, 9.998455, 9.999841 
1.8249168e+3, 2.5436473e+2, -791439.7, -627728.4, 1676.1993, -0.052452907, 0.4525825, -627711.25, -180440.2, 0.0, 9.997669, 9.99984 
1.8248929e+3, 2.6436472e+2, -758282.6, -504683.1, -6940.0186, -0.048122905, 0.4532079, -504493.3, -155222.2, 0.0, 9.996982, 10.000342 
1.8248694e+3, 2.7436522e+2, -741176.94, -444481.72, -11037.223, -0.000057772362, 0.46257022, -444071.7, -192805.38, 0.0, 9.996421, 10.000353 
1.8248452e+3, 2.843658e+2, -700475.1, -313462.66, 1564.2161, -0.03723766, 0.47045147, -313456.34, -160195.89, 0.0, 9.995768, 10.000895 
1.8248205e+3, 2.9436693e+2, -707395.75, -259435.5, 325.50238, -0.14527377, 0.48409688, -259435.25, -204185.19, 0.0, 9.995019, 10.000953 
1.8247989e+3, 3.0436796e+2, -639168.0, -53342.15, 37537.91, -0.009061825, 0.43492037, -50946.63, -50946.63, 0.0, 9.994518, 10.002274 
1.8247756e+3, 3.143708e+2, -711347.4, -130411.195, -33997.23, -0.06904568, 0.49459252, -128428.4, -128428.4, 0.0, 9.994204, 10.001896 
1.8352403e+3, 1.2440856e+2, -1136466.9, -1728903.9, -4112.781, 0.13492437, 0.35070202, -1136438.4, 584393.5, 0.057935894, 10.005556, 9.997227 
1.8352135e+3, 1.3440625e+2, -1096692.1, -1655467.4, -10980.367, -0.049565975, 0.38240713, -1096476.5, 526378.6, 0.03951316, 10.005012, 9.997322 
1.83519e+3, 1.4440353e+2, -1043775.44, -1552206.6, -18144.96, 0.119017795, 0.37460136, -1043128.7, 481753.7, 0.021752436, 10.004487, 9.997609 
1.8351644e+3, 1.5440121e+2, -1007502.9, -1487100.4, -16601.629, 0.057563927, 0.37750575, -1006928.9, 419976.9, 0.008639071, 10.004014, 9.997611 
1.8351391e+3, 1.6439901e+2, -959688.44, -1379955.5, -12201.719, 0.023647027, 0.38890588, -959334.5, 369594.0, 0.001999787, 10.003499, 9.997922 
1.835114e+3, 1.7439716e+2, -944226.94, -1323148.0, -8400.865, 0.031894423, 0.40773356, -944040.8, 286907.56, 0.0001423853, 10.002932, 9.997912 
1.835089e+3, 1.8439534e+2, -918680.56, -1232317.9, -16761.604, 0.027657162, 0.43049726, -917787.3, 215181.05, 0.00000012564814, 10.002314, 9.998162 
1.8350635e+3, 1.943938e+2, -920177.94, -1183610.4, -22337.64, 0.005137476, 0.45679867, -918297.25, 116689.12, 0.0, 10.001636, 9.99815 
1.8350385e+3, 2.043925e+2, -872817.25, -1032354.3, -12576.494, -0.001530823, 0.4861847, -871831.9, 65169.21, 0.0, 10.000953, 9.998846 
1.8350141e+3, 2.1439168e+2, -873758.5, -979985.4, -13774.225, 0.013954097, 0.5149134, -872001.5, -32991.688, 0.0, 10.000264, 9.998864 
1.8349892e+3, 2.2439064e+2, -837461.94, -865802.0, -20054.322, 0.011953426, 0.5128462, -827076.56, -86056.76, 0.0, 9.999642, 9.999275 
1.8349642e+3, 2.3438953e+2, -817533.8, -805459.6, -27149.35, -0.014723143, 0.46952412, -783684.25, -140654.8, 0.0, 9.999106, 9.999275 
1.8349393e+3, 2.4438883e+2, -777591.56, -677922.4, -24967.387, -0.03235022, 0.45766926, -672017.75, -126982.35, 0.0, 9.99846, 9.999788 
1.8349145e+3, 2.5438893e+2, -794002.56, -634686.0, -26939.291, -0.033705283, 0.48187512, -630254.06, -183219.3, 0.0, 9.997672, 9.999792 
1.8348901e+3, 2.6438886e+2, -763566.6, -517509.63, -27616.96, -0.025888715, 0.48162025, -514448.03, -165412.56, 0.0, 9.996985, 10.000255 
1.8348657e+3, 2.7438885e+2, -746449.1, -458082.06, -31523.0, -0.020457303, 0.45039228, -454676.34, -203640.92, 0.0, 9.9964285, 10.0002575 
1.8348406e+3, 2.843894e+2, -700300.4, -315588.84, -26042.197, -0.0594703, 0.46066305, -313834.0, -160804.27, 0.0, 9.995774, 10.000878 
1.8348157e+3, 2.943909e+2, -707204.94, -260131.88, -26349.113, -0.11631715, 0.5142987, -258584.3, -203569.02, 0.0, 9.99502, 10.000949 
1.8347935e+3, 3.043913e+2, -644963.94, -66368.95, 25923.553, 0.01679803, 0.40638867, -65209.793, -65209.793, 0.0, 9.994518, 10.002185 
1.8347697e+3, 3.143948e+2, -700582.5, -110342.08, -57300.715, -0.08648041, 0.5377637, -104830.766, -104830.766, 0.0, 9.994209, 10.002033 
1.8452458e+3, 1.2443364e+2, -1117515.8, -1716488.8, 15867.606, 0.13231525, 0.35978428, -1117095.8, 603491.44, 0.060666922, 10.005702, 9.997242 
1.8452185e+3, 1.3443142e+2, -1107689.5, -1653780.5, 541.2615, -0.044783454, 0.39612088, -1107689.0, 514920.5, 0.0414753, 10.004914, 9.997379 
1.8451945e+3, 1.4442877e+2, -1071104.8, -1559585.4, 2704.781, 0.12809947, 0.389361, -1071089.8, 453546.2, 0.022928648, 10.004277, 9.997658 
1.8451683e+3, 1.5442641e+2, -1029253.06, -1492346.9, 9726.383, 0.059257217, 0.38268104, -1029048.9, 397610.88, 0.009174538, 10.003845, 9.997654 
1.8451424e+3, 1.6442421e+2, -979580.5, -1391632.5, 9807.851, 0.021803517, 0.39355385, -979347.2, 349335.22, 0.002153755, 10.003374, 9.997901 
1.8451169e+3, 1.7442243e+2, -957747.7, -1332235.4, 4375.356, 0.029544313, 0.42323923, -957696.56, 273004.97, 0.0001568468, 10.002853, 9.997887 
1.8450913e+3, 1.8442057e+2, -920271.8, -1235967.3, -7937.966, 0.02614465, 0.44646764, -920072.3, 212649.47, 0.00000011027377, 10.002318, 9.998133 
1.8450654e+3, 1.9441888e+2, -903025.75, -1178399.6, -6135.5903, 0.0063958936, 0.45980644, -902889.1, 131852.03, 0.0, 10.00177, 9.998119 
1.8450397e+3, 2.0441748e+2, -851545.7, -1033261.9, 2715.3774, -0.0011129116, 0.48661706, -851505.1, 85251.625, 0.0, 10.00115, 9.998742 
1.8450142e+3, 2.1441667e+2, -855683.75, -983169.94, -3706.339, 0.008531041, 0.52634776, -855576.06, -16810.469, 0.0, 10.000443, 9.9987545 
1.8449888e+3, 2.2441553e+2, -824523.06, -869641.8, -5849.7803, 0.005030985, 0.52496755, -823777.0, -83000.266, 0.0, 9.999779, 9.999182 
1.8449631e+3, 2.344142e+2, -815920.9, -814912.1, -7361.123, -0.017403303, 0.46969232, -808038.1, -165249.69, 0.0, 9.999166, 9.99918 
1.8449377e+3, 2.4441345e+2, -777868.94, -686773.8, -10125.776, -0.031243417, 0.4599967, -685661.9, -140866.7, 0.0, 9.998499, 9.999707 
1.8449123e+3, 2.5441363e+2, -786459.1, -639675.0, -15665.402, -0.029663479, 0.5024778, -638021.7, -191228.05, 0.0, 9.997766, 9.999712 
1.8448871e+3, 2.6441345e+2, -755256.4, -520240.84, -11126.477, -0.02238608, 0.50006616, -519715.25, -170919.98, 0.0, 9.997076, 10.00019 
1.844862e+3, 2.7441314e+2, -749064.94, -466550.22, -13079.079, -0.02178702, 0.4455088, -465946.0, -215148.2, 0.0, 9.996446, 10.00019 
1.8448365e+3, 2.844137e+2, -709969.2, -325413.2, -14192.604, -0.057442997, 0.46071565, -324890.1, -172098.06, 0.0, 9.995733, 10.000829 
1.8448108e+3, 2.944154e+2, -722795.25, -273498.34, -17018.773, -0.101331875, 0.5424125, -272854.63, -218079.31, 0.0, 9.994942, 10.000894 
1.844788e+3, 3.044152e+2, -673363.9, -107935.75, 43841.9, 0.017787648, 0.38625115, -104556.555, -104556.555, 0.0, 9.994448, 10.001932 
1.8447638e+3, 3.1441873e+2, -687120.2, -83031.01, -63062.117, -0.089051746, 0.54943234, -76518.05, -76518.05, 0.0, 9.994216, 10.002215 
1.855251e+3, 1.2445947e+2, -1121083.3, -1718452.9, -5861.766, 0.08543916, 0.39050022, -1121025.8, 599309.7, 0.063498095, 10.005691, 9.997234 
1.8552236e+3, 1.3445696e+2, -1107220.8, -1650423.4, -28552.316, -0.023091814, 0.39545816, -1105724.1, 516636.16, 0.043523785, 10.00491, 9.997406 
1.8551992e+3, 1.4445433e+2, -1064267.9, -1545061.1, -14309.835, 0.16929178, 0.38356555, -1063842.4, 460544.0, 0.024169512, 10.004279, 9.997759 
1.855172e+3, 1.5445225e+2, -1021833.5, -1478116.8, -6714.8975, 0.055079274, 0.39610738, -1021734.7, 404672.3, 0.009748335, 10.00385, 9.997752 
1.8551455e+3, 1.6445012e+2, -987989.4, -1410865.9, -9822.792, -0.00041060726, 0.41590056, -987761.3, 340667.84, 0.002323737, 10.003379, 9.997768 
1.8551198e+3, 1.7444816e+2, -966915.1, -1353223.6, -15075.511, 0.021572357, 0.4422478, -966327.75, 264123.13, 0.00017441528, 10.002858, 9.997743 
1.8550937e+3, 1.8444628e+2, -915517.94, -1228111.1, -28238.475, 0.027257144, 0.46526974, -912987.5, 219484.27, 0.00000010372912, 10.002323, 9.998186 
1.8550672e+3, 1.9444466e+2, -897529.06, -1169115.8, -26297.098, 0.010983194, 0.4815589, -895006.25, 139483.23, 0.0, 10.001776, 9.998182 
1.8550408e+3, 2.0444314e+2, -862027.4, -1056992.5, -23049.586, -0.0038844491, 0.50105816, -859339.44, 77166.43, 0.0, 10.001155, 9.998579 
1.8550144e+3, 2.1444196e+2, -867250.56, -1009139.6, -29471.656, -0.015776278, 0.52131885, -861372.56, -22854.207, 0.0, 10.000448, 9.998575 
1.8549883e+3, 2.2444066e+2, -826093.06, -874848.56, -28202.15, -0.015077161, 0.51476616, -813193.0, -72661.95, 0.0, 9.9997835, 9.999145 
1.8549626e+3, 2.3443943e+2, -816980.0, -819168.75, -29401.855, -0.00016255515, 0.47281075, -788652.2, -146110.44, 0.0, 9.99917, 9.999149 
1.8549363e+3, 2.444387e+2, -785446.1, -704581.9, -36552.523, -0.008391455, 0.47129282, -690508.56, -145960.02, 0.0, 9.998505, 9.999584 
1.85491e+3, 2.5443873e+2, -794424.25, -658348.5, -42352.965, -0.041444805, 0.51405966, -646243.2, -199694.61, 0.0, 9.99777, 9.999582 
1.854884e+3, 2.6443845e+2, -757821.25, -527688.25, -34272.117, -0.038385954, 0.5082981, -522692.78, -174141.44, 0.0, 9.997082, 10.000138 
1.8548585e+3, 2.7443805e+2, -751532.75, -473645.8, -36317.914, -0.002905672, 0.44872493, -468977.72, -218423.42, 0.0, 9.99645, 10.00014 
1.8548325e+3, 2.844386e+2, -715972.44, -339987.78, -43504.71, -0.030271612, 0.47135353, -335019.56, -182471.25, 0.0, 9.995739, 10.000728 
1.8548058e+3, 2.9444033e+2, -730608.5, -291764.47, -45382.355, -0.10234703, 0.56735486, -287120.47, -232589.1, 0.0, 9.9949465, 10.000768 
1.8547823e+3, 3.0443946e+2, -703846.9, -173126.72, 34976.38, -0.00846352, 0.3731493, -170831.56, -170831.56, 0.0, 9.994452, 10.001484 
1.8547581e+3, 3.1444263e+2, -670625.5, -51193.984, -83571.68, -0.07406648, 0.54237574, -40116.855, -40116.855, 0.0, 9.994223, 10.002433 
1.8652566e+3, 1.2448561e+2, -1180648.4, -1740427.8, 11304.722, 0.09957467, 0.41175196, -1180420.1, 539660.56, 0.066420175, 10.005236, 9.997301 
1.8652284e+3, 1.3448305e+2, -1116149.3, -1642984.5, -14314.778, -0.026667126, 0.40074718, -1115760.6, 506345.1, 0.045652628, 10.004808, 9.997504 
1.8652034e+3, 1.4448047e+2, -1057648.9, -1539058.8, 3435.1877, 0.16009971, 0.3887746, -1057624.4, 466506.6, 0.025472526, 10.004322, 9.997777 
1.865176e+3, 1.5447848e+2, -1032497.5, -1481350.5, 5071.2295, 0.05542692, 0.408607, -1032440.2, 393710.53, 0.010360834, 10.003773, 9.997766 
1.8651488e+3, 1.6447636e+2, -1003988.56, -1418503.6, 3243.331, 0.0024073455, 0.4293333, -1003963.2, 324209.63, 0.0025108724, 10.003272, 9.997766 
1.8651225e+3, 1.7447433e+2, -970712.6, -1355456.9, 7079.7456, 0.018069666, 0.4487283, -970582.4, 259613.05, 0.00019592533, 10.002837, 9.997735 
1.8650958e+3, 1.8447243e+2, -915964.1, -1226204.0, -6698.6514, 0.02448482, 0.47190577, -915819.5, 216396.83, 0.00000012857653, 10.002314, 9.998202 
1.8650688e+3, 1.9447093e+2, -910124.1, -1173041.8, -9006.427, 0.017561173, 0.4972803, -909816.0, 124416.945, 0.0, 10.001683, 9.9981985 
1.8650419e+3, 2.0446938e+2, -874116.3, -1067484.6, -4939.612, 0.0030254237, 0.5144466, -873990.25, 62259.188, 0.0, 10.001096, 9.998534 
1.8650149e+3, 2.1446797e+2, -853936.9, -1008058.9, -2795.6023, -0.020097196, 0.51820713, -853886.2, -15622.5, 0.0, 10.0005665, 9.998524 
1.8649882e+3, 2.2446656e+2, -813099.06, -878754.25, -1993.4578, -0.020922406, 0.50869673, -813038.6, -72761.21, 0.0, 9.99992, 9.99905 
1.8649617e+3, 2.3446538e+2, -830114.94, -836301.3, -9184.017, 0.004618553, 0.48136923, -823517.2, -181229.13, 0.0, 9.999131, 9.999049 
1.864935e+3, 2.444646e+2, -796475.06, -718495.3, -15193.085, 0.0017808005, 0.4851387, -715639.75, -171344.23, 0.0, 9.99847, 9.999503 
1.8649079e+3, 2.544645e+2, -772245.8, -656715.0, -18127.553, -0.03285466, 0.5206515, -653937.44, -207640.31, 0.0, 9.997966, 9.999497 
1.8648812e+3, 2.6446408e+2, -727221.56, -514747.44, -11930.045, -0.03279597, 0.5098323, -514079.7, -165778.98, 0.0, 9.997303, 10.000118 
1.864855e+3, 2.7446365e+2, -754734.1, -476723.84, -12740.704, -0.00071689865, 0.44985256, -476141.2, -225837.73, 0.0, 9.99644, 10.000123 
1.8648283e+3, 2.8446418e+2, -727370.0, -354370.5, -16001.128, -0.025248758, 0.47417647, -353685.34, -201387.67, 0.0, 9.995704, 10.000645 
1.8648009e+3, 2.944658e+2, -710923.9, -294984.78, -15653.893, -0.09042031, 0.5699354, -294396.5, -240114.58, 0.0, 9.995141, 10.00065 
1.8647766e+3, 3.0446467e+2, -716635.56, -211214.05, 76520.96, -0.016727373, 0.3727777, -199882.8, -199882.8, 0.0, 9.994507, 10.001194 
1.8647522e+3, 3.144673e+2, -716902.75, -31983.908, -40105.57, -0.06312159, 0.51461923, -29643.514, -29643.514, 0.0, 9.993731, 10.0028 
1.8752624e+3, 1.2451211e+2, -1174981.6, -1724313.6, 1820.4371, 0.1655462, 0.42313695, -1174975.6, 544846.9, 0.069420144, 10.005234, 9.997414 
1.8752329e+3, 1.345097e+2, -1107131.3, -1622524.1, -30551.404, -0.05432794, 0.41226304, -1105326.5, 516518.97, 0.04785142, 10.004812, 9.997645 
1.875207e+3, 1.445072e+2, -1061807.9, -1548387.5, -16884.588, 0.104093164, 0.4049524, -1061222.6, 462647.06, 0.026831761, 10.004327, 9.997713 
1.8751797e+3, 1.545051e+2, -1037256.9, -1492060.4, -15354.719, 0.0600717, 0.41996807, -1036739.06, 389151.72, 0.011010613, 10.003775, 9.997693 
1.8751523e+3, 1.6450292e+2, -996391.75, -1403744.4, -13256.092, 0.028481891, 0.4337932, -995960.9, 331952.47, 0.002715594, 10.003274, 9.997868 
1.8751252e+3, 1.745009e+2, -962564.2, -1340112.1, -9069.709, 0.018091293, 0.4432554, -962346.44, 267588.94, 0.00022189613, 10.00284, 9.997841 
1.875098e+3, 1.8449906e+2, -917251.1, -1230654.4, -29837.363, 0.017268699, 0.46740958, -914435.75, 217520.06, 0.00000020880177, 10.002318, 9.998172 
1.8750705e+3, 1.9449764e+2, -911670.25, -1178587.5, -32248.234, 0.025969282, 0.507168, -907829.4, 126142.4, 0.0, 10.00169, 9.998159 
1.875043e+3, 2.0449613e+2, -868977.56, -1059135.5, -24506.844, 0.019367265, 0.52634335, -865870.0, 70117.875, 0.0, 10.001102, 9.9985895 
1.8750155e+3, 2.1449466e+2, -848808.06, -999459.1, -21915.25, -0.004676614, 0.51720667, -845684.75, -7682.7573, 0.0, 10.000571, 9.998582 
1.8749881e+3, 2.2449319e+2, -823859.7, -902945.2, -30502.75, -0.012964457, 0.5074618, -813462.0, -73445.83, 0.0, 9.999925, 9.998884 
1.8749607e+3, 2.3449199e+2, -841836.1, -862485.75, -37920.7, -0.003698348, 0.49545622, -812859.8, -170831.72, 0.0, 9.999135, 9.998869 
1.8749334e+3, 2.444911e+2, -799505.9, -726858.25, -33532.605, -0.0009958448, 0.5011817, -713746.7, -169709.86, 0.0, 9.998475, 9.999445 
1.8749061e+3, 2.544908e+2, -774628.9, -664464.94, -35837.223, -0.003110511, 0.5219555, -653832.9, -207792.88, 0.0, 9.997974, 9.999442 
1.8748789e+3, 2.644903e+2, -725945.0, -514934.44, -43032.52, -0.005321539, 0.504395, -506496.03, -158451.84, 0.0, 9.997312, 10.000114 
1.8748511e+3, 2.744899e+2, -753741.25, -476699.84, -44905.84, -0.01695255, 0.44811442, -469602.84, -219556.63, 0.0, 9.996445, 10.000122 
1.8748237e+3, 2.8449032e+2, -732167.9, -366182.66, -37116.93, -0.043804497, 0.4682993, -362456.34, -210415.22, 0.0, 9.9957075, 10.000563 
1.8747965e+3, 2.9449177e+2, -717823.56, -312399.94, -35316.867, -0.06414273, 0.5498983, -309346.47, -255318.6, 0.0, 9.995151, 10.000527 
1.8747711e+3, 3.0449077e+2, -724577.8, -230706.75, 48304.633, -0.005929506, 0.38647148, -226026.52, -226026.52, 0.0, 9.994515, 10.001059 
1.874746e+3, 3.144928e+2, -680439.7, 42733.55, -77236.43, -0.057699338, 0.47403178, 50890.56, 50890.56, 0.0, 9.993731, 10.003315 
1.8852676e+3, 1.245391e+2, -1172675.4, -1719328.0, 36697.16, 0.16855645, 0.42292058, -1170222.9, 549335.94, 0.072497, 10.005255, 9.9974375 
1.8852377e+3, 1.3453682e+2, -1101446.3, -1614794.0, -9057.522, -0.050153665, 0.42178488, -1101286.5, 520294.1, 0.05011593, 10.004847, 9.997682 
1.8852113e+3, 1.4453442e+2, -1058191.9, -1538701.4, -854.94275, 0.102335535, 0.42053762, -1058190.3, 465413.4, 0.02824338, 10.004329, 9.997777 
1.8851833e+3, 1.5453224e+2, -1044108.1, -1488110.9, 9120.303, 0.05586846, 0.42246506, -1043920.9, 381704.38, 0.01169636, 10.003701, 9.997754 
1.8851556e+3, 1.6453005e+2, -1014371.75, -1406326.1, 18015.629, 0.02864448, 0.42984545, -1013545.4, 314102.28, 0.0029381223, 10.003127, 9.997919 
1.885128e+3, 1.745281e+2, -993152.2, -1348974.8, 17662.947, 0.029254932, 0.44042966, -992277.56, 237391.23, 0.00025257785, 10.002608, 9.99789 
1.8851003e+3, 1.845263e+2, -945246.94, -1246227.0, -6915.5166, 0.028324462, 0.46699074, -945088.1, 186600.73, 0.0000003626038, 10.002138, 9.99815 
1.8850723e+3, 1.945249e+2, -907542.2, -1179492.9, -9497.001, 0.023744006, 0.5104046, -907210.94, 126494.195, 0.0, 10.001734, 9.99813 
1.8850441e+3, 2.0452334e+2, -852614.44, -1050203.9, -6536.608, 0.016141826, 0.5288815, -852398.44, 83323.164, 0.0, 10.001213, 9.998596 
1.8850163e+3, 2.1452183e+2, -851596.2, -999966.0, -8755.003, 0.005945678, 0.5146058, -851081.4, -13345.514, 0.0, 10.000552, 9.998587 
1.8849881e+3, 2.2452037e+2, -826549.2, -912261.25, -19133.07, -0.0026917723, 0.5092713, -822472.1, -82722.02, 0.0, 9.999945, 9.998809 
1.8849598e+3, 2.3451924e+2, -808475.94, -855149.8, -20115.592, -0.011136061, 0.5126011, -801003.0, -159240.97, 0.0, 9.999406, 9.998787 
1.8849318e+3, 2.445183e+2, -768535.8, -713065.75, -12368.802, -0.010199094, 0.51835155, -710432.75, -166661.25, 0.0, 9.998697, 9.999431 
1.884904e+3, 2.545178e+2, -803903.1, -679444.94, -11995.167, 0.0047021434, 0.5214597, -678299.44, -232523.39, 0.0, 9.997782, 9.99943 
1.884876e+3, 2.6451728e+2, -766013.8, -537173.9, -18169.373, 0.005999998, 0.5042734, -535740.25, -187960.08, 0.0, 9.997055, 10.000084 
1.8848477e+3, 2.7451703e+2, -741336.94, -474267.16, -23363.543, -0.017197955, 0.46780843, -472238.7, -222457.97, 0.0, 9.99655, 10.000086 
1.8848194e+3, 2.8451735e+2, -706187.56, -355941.84, -15379.687, -0.037644517, 0.4768665, -355267.78, -203490.75, 0.0, 9.9959, 10.000538 
1.8847917e+3, 2.9451832e+2, -735026.5, -326270.3, -8963.535, -0.033662677, 0.51750803, -326073.84, -272305.9, 0.0, 9.995061, 10.000473 
1.8847655e+3, 3.045179e+2, -762040.56, -255519.52, 78816.32, -0.00639616, 0.4161516, -243538.83, -243538.83, 0.0, 9.994291, 10.000994 
1.8847395e+3, 3.1451944e+2, -671069.75, 82092.13, -48921.23, -0.06027881, 0.46083334, 85256.49, 85256.49, 0.0, 9.993649, 10.003623 
1.8952723e+3, 1.245666e+2, -1178347.6, -1729665.8, 27886.193, 0.11279299, 0.4121545, -1176940.8, 542348.75, 0.07566494, 10.0052595, 9.997365 
1.8952428e+3, 1.3456443e+2, -1107900.3, -1625201.8, -24038.842, -0.01667341, 0.4289259, -1106785.6, 514525.1, 0.052452132, 10.00484, 9.997613 
1.8952163e+3, 1.4456216e+2, -1048556.3, -1516086.9, -23821.936, 0.1497387, 0.43465275, -1047345.6, 475987.16, 0.0297081, 10.004321, 9.997939 
1.8951868e+3, 1.5455996e+2, -1032120.7, -1464112.9, -14562.715, 0.04213598, 0.41699412, -1031630.3, 393723.9, 0.012417277, 10.003705, 9.997918 
1.8951583e+3, 1.6455778e+2, -1013524.7, -1407130.5, -1763.4004, 0.003679306, 0.41911492, -1013516.8, 313859.2, 0.0031781944, 10.003136, 9.997911 
1.8951309e+3, 1.7455593e+2, -992877.7, -1350866.5, -1787.931, 0.0512713, 0.44032255, -992868.75, 236527.03, 0.0002879766, 10.002615, 9.997875 
1.8951027e+3, 1.8455411e+2, -946204.9, -1250610.9, -22201.016, 0.056822132, 0.46989915, -944594.25, 186821.5, 0.0000005824179, 10.002145, 9.998118 
1.8950738e+3, 1.9455263e+2, -908760.3, -1184388.8, -24237.184, 0.010616113, 0.50710905, -906645.25, 126788.14, 0.0, 10.00174, 9.9980955 
1.8950452e+3, 2.04551e+2, -855512.44, -1058254.0, -30359.008, -0.0066528847, 0.52285755, -851064.0, 84386.805, 0.0, 10.001219, 9.99854 
1.8950167e+3, 2.1454944e+2, -854733.94, -1008513.06, -32814.707, 0.011606929, 0.5103346, -848024.4, -10558.731, 0.0, 10.000557, 9.998528 
1.8949881e+3, 2.2454806e+2, -825582.56, -912432.8, -38736.32, 0.0095549, 0.5134784, -810816.25, -71336.56, 0.0, 9.999949, 9.998807 
1.894959e+3, 2.3454708e+2, -807316.7, -855241.5, -39306.523, -0.01786076, 0.53305894, -785244.4, -143753.89, 0.0, 9.999413, 9.998785 
1.8949303e+3, 2.4454612e+2, -765967.06, -710123.4, -45298.684, -0.02640387, 0.5373235, -684832.44, -141332.44, 0.0, 9.998704, 9.99945 
1.8949015e+3, 2.5454542e+2, -801830.6, -676660.6, -45579.008, -0.010519817, 0.5191776, -661822.56, -216316.66, 0.0, 9.997785, 9.99945 
1.894873e+3, 2.6454496e+2, -770812.5, -548746.2, -36822.105, 0.00053836446, 0.5095755, -542799.7, -195290.17, 0.0, 9.997058, 10.000005 
1.8948443e+3, 2.74545e+2, -746203.9, -487550.28, -41303.266, -0.0006722117, 0.51026225, -481114.88, -231607.02, 0.0, 9.99656, 9.999991 
1.8948157e+3, 2.8454506e+2, -702824.6, -352142.1, -46160.52, -0.0058110408, 0.5006966, -346167.75, -194661.36, 0.0, 9.995911, 10.000562 
1.8947871e+3, 2.9454538e+2, -733992.06, -325764.03, -40661.57, 0.0008273007, 0.4710671, -321753.34, -268250.03, 0.0, 9.995065, 10.000477 
1.8947597e+3, 3.0454588e+2, -762466.7, -257869.47, 54523.457, -0.019423675, 0.46321678, -252045.25, -252045.25, 0.0, 9.994293, 10.000978 
1.894733e+3, 3.1454733e+2, -665995.44, 89759.72, -75739.734, -0.071279176, 0.49709985, 97275.41, 97275.41, 0.0, 9.993657, 10.0036745 
1.9052775e+3, 1.2459493e+2, -1155387.4, -1712339.4, 53873.418, 0.10236708, 0.42488506, -1150224.1, 568788.25, 0.078933336, 10.005427, 9.997404 
1.9052476e+3, 1.3459264e+2, -1149357.4, -1642104.6, 1847.0012, -0.007514429, 0.42686853, -1149350.5, 471684.06, 0.054864757, 10.004537, 9.997642 
1.9052203e+3, 1.4459041e+2, -1103779.9, -1545885.0, 7809.6694, 0.15838979, 0.43726093, -1103641.9, 419414.5, 0.031225875, 10.003951, 9.99791 
1.9051905e+3, 1.5458828e+2, -1032237.1, -1467374.1, 3317.3218, 0.046095762, 0.43282685, -1032211.9, 392865.66, 0.013170786, 10.003725, 9.997884 
1.9051614e+3, 1.6458616e+2, -980635.75, -1380512.0, 6616.0767, 0.0051049176, 0.4340997, -980526.3, 346572.66, 0.0034339838, 10.003321, 9.998003 
1.9051336e+3, 1.745842e+2, -971817.8, -1330035.5, 13118.595, 0.051658574, 0.43814543, -971338.06, 257780.55, 0.00032763038, 10.002718, 9.997968 
1.9051048e+3, 1.8458237e+2, -941672.06, -1250197.8, 1456.0348, 0.056737598, 0.46149874, -941665.2, 189473.3, 0.00000084087617, 10.002188, 9.998099 
1.9050756e+3, 1.9458091e+2, -911038.1, -1188245.3, -577.8574, 0.010823066, 0.50543267, -911036.94, 122119.2, 0.0, 10.00174, 9.998067 
1.9050463e+3, 2.0457932e+2, -859921.06, -1060312.3, -13826.306, -0.0061231563, 0.52711266, -858971.6, 76201.95, 0.0, 10.001192, 9.998537 
1.9050172e+3, 2.1457782e+2, -859475.6, -1011044.9, -13508.501, 0.011981311, 0.5193453, -858281.1, -21092.762, 0.0, 10.000529, 9.998522 
1.904988e+3, 2.2457643e+2, -836483.3, -915520.1, -14841.838, 0.011633273, 0.52418655, -833788.2, -94585.72, 0.0, 9.999869, 9.998822 
1.9049585e+3, 2.3457545e+2, -835694.56, -866918.7, -14638.748, -0.011488234, 0.54177797, -829905.0, -188691.66, 0.0, 9.999213, 9.998799 
1.904929e+3, 2.445745e+2, -776887.25, -710596.1, -24574.756, -0.022637347, 0.54397523, -702479.75, -159256.9, 0.0, 9.998612, 9.999488 
1.9048995e+3, 2.5457385e+2, -757023.25, -650559.6, -24357.559, -0.01830332, 0.5254106, -645251.56, -200023.17, 0.0, 9.998077, 9.999485 
1.9048701e+3, 2.6457345e+2, -727282.06, -531687.5, -12689.159, -0.006863196, 0.5244561, -530867.75, -183636.48, 0.0, 9.997377, 9.999966 
1.9048409e+3, 2.745736e+2, -760404.6, -498828.75, -13870.092, 0.008421688, 0.5394207, -498095.34, -248866.55, 0.0, 9.996486, 9.999948 
1.9048117e+3, 2.8457344e+2, -719626.25, -363324.06, -17431.742, 0.013163799, 0.5104726, -362473.25, -211243.75, 0.0, 9.995813, 10.000529 
1.9047824e+3, 2.9457325e+2, -691336.1, -309507.44, -17570.443, 0.01594603, 0.4358634, -308700.6, -255469.98, 0.0, 9.99538, 10.000434 
1.9047537e+3, 3.045745e+2, -712279.2, -231551.48, 70104.58, -0.043727368, 0.50479907, -221536.77, -221536.77, 0.0, 9.994633, 10.000994 
1.9047266e+3, 3.1457564e+2, -696395.75, 47729.86, -59943.25, -0.06656852, 0.5072433, 52527.668, 52527.668, 0.0, 9.99357, 10.003425 
1.9152832e+3, 1.24624066e+2, -1150161.5, -1696865.4, 28016.977, 0.12984958, 0.45665976, -1148729.5, 569998.25, 0.08228411, 10.005423, 9.997524 
1.9152519e+3, 1.3462146e+2, -1142497.9, -1627759.0, -30897.432, -0.021575466, 0.4171733, -1140538.5, 480213.5, 0.057342622, 10.004547, 9.997737 
1.915224e+3, 1.446192e+2, -1117004.5, -1576905.5, -2019.7593, 0.13095838, 0.43082184, -1116995.6, 405778.75, 0.032788843, 10.003964, 9.997692 
1.9151944e+3, 1.546173e+2, -1047534.06, -1500609.0, -5275.9004, 0.06684062, 0.4685108, -1047472.6, 377322.4, 0.013950549, 10.003729, 9.997656 
1.915165e+3, 1.6461512e+2, -968888.25, -1356694.8, -15554.293, 0.031013032, 0.47222802, -968265.44, 358551.38, 0.0037018002, 10.003321, 9.998168 
1.915136e+3, 1.7461294e+2, -958520.44, -1304045.5, -9480.725, 0.030606644, 0.43369296, -958260.5, 270576.8, 0.0003705665, 10.002721, 9.998146 
1.9151066e+3, 1.8461104e+2, -942359.75, -1253608.5, -15342.796, 0.028679572, 0.44297433, -941605.25, 189251.86, 0.0000011196438, 10.0021925, 9.9980755 
1.9150774e+3, 1.9460976e+2, -912483.5, -1193238.4, -16880.947, 0.024114883, 0.50560015, -911472.2, 121401.52, 0.0, 10.001745, 9.998033 
1.9150478e+3, 2.0460829e+2, -856771.75, -1055810.9, -37836.934, 0.016949408, 0.5411798, -849821.7, 85068.55, 0.0, 10.001197, 9.998568 
1.9150177e+3, 2.146069e+2, -856180.1, -1006358.8, -37579.66, 0.006781084, 0.54183084, -847301.4, -10396.988, 0.0, 10.000535, 9.998553 
1.9149879e+3, 2.246055e+2, -833987.3, -912460.06, -38717.88, 0.003535196, 0.5419187, -818100.5, -79181.67, 0.0, 9.999875, 9.998842 
1.9149579e+3, 2.3460431e+2, -833469.0, -864232.75, -38332.46, 0.008125844, 0.53804356, -807547.4, -166616.13, 0.0, 9.999218, 9.998817 
1.9149277e+3, 2.4460337e+2, -772940.3, -704554.3, -43728.527, 0.0011063978, 0.53728825, -683237.44, -140296.64, 0.0, 9.998618, 9.999529 
1.9148974e+3, 2.5460297e+2, -752994.06, -645415.8, -43346.74, -0.019086944, 0.54079306, -630123.75, -185179.47, 0.0, 9.998087, 9.999517 
1.9148673e+3, 2.646027e+2, -726067.56, -532584.75, -45151.88, -0.016872447, 0.54979175, -522566.66, -175620.48, 0.0, 9.997389, 9.999956 
1.9148374e+3, 2.746027e+2, -759974.1, -499968.0, -46776.133, 0.009861965, 0.55415154, -491808.8, -242864.25, 0.0, 9.9964905, 9.999939 
1.9148076e+3, 2.8460228e+2, -726066.0, -378866.5, -33510.566, 0.0184536, 0.5047849, -375661.75, -224714.31, 0.0, 9.995819, 10.000422 
1.9147778e+3, 2.946018e+2, -696513.25, -325161.78, -33790.023, 0.008556087, 0.4125758, -322112.2, -269161.28, 0.0, 9.995398, 10.00032 
1.9147481e+3, 3.046036e+2, -707604.94, -227035.78, 30200.605, -0.08186802, 0.5410112, -225145.31, -225145.31, 0.0, 9.994651, 10.001019 
1.9147204e+3, 3.1460446e+2, -737622.8, -39823.875, -97071.89, -0.044891316, 0.5133765, -26571.729, -26571.729, 0.0, 9.993575, 10.002823 
1.9252886e+3, 1.2465339e+2, -1170437.9, -1703938.8, 46523.25, 0.13524145, 0.45956287, -1166411.3, 552029.75, 0.08567076, 10.0052805, 9.997538 
1.9252566e+3, 1.3465083e+2, -1095367.5, -1605372.0, -25748.635, -0.021170812, 0.42750058, -1094070.8, 526393.9, 0.05985526, 10.004911, 9.997719 
1.9252281e+3, 1.4464861e+2, -1063613.8, -1553064.0, 9808.99, 0.12281967, 0.4457522, -1063417.3, 459069.72, 0.034378633, 10.004368, 9.997659 
1.9251981e+3, 1.5464655e+2, -1061602.0, -1510937.5, 19589.941, 0.07642227, 0.47405604, -1060749.5, 363759.63, 0.014746094, 10.003652, 9.997621 
1.9251683e+3, 1.6464439e+2, -1002451.1, -1367268.4, 10553.606, 0.045442518, 0.47813162, -1002146.06, 324384.88, 0.003976817, 10.00307, 9.998215 
1.9251387e+3, 1.7464237e+2, -968264.4, -1303015.4, 6220.3896, 0.033125304, 0.45046103, -968148.8, 260401.2, 0.00041562846, 10.002634, 9.998193 
1.9251089e+3, 1.846405e+2, -945649.56, -1244014.1, -1177.336, 0.027887493, 0.45679772, -945644.94, 184924.3, 0.0000014320457, 10.002126, 9.998171 
1.925079e+3, 1.9463912e+2, -936073.44, -1193720.6, 5781.7114, 0.030639939, 0.5007615, -935943.75, 96642.31, 0.0, 10.00154, 9.998126 
1.9250488e+3, 2.0463772e+2, -878265.94, -1059254.5, -11001.082, 0.025267228, 0.53493947, -877599.7, 57002.426, 0.0, 10.001023, 9.998625 
1.9250181e+3, 2.1463656e+2, -845222.0, -994726.6, -9853.207, 0.009841865, 0.5546408, -844575.44, -7960.72, 0.0, 10.0005865, 9.998606 
1.9249877e+3, 2.2463529e+2, -806997.9, -885210.75, -12636.161, 0.0050444, 0.5595728, -805007.0, -66379.02, 0.0, 10.000003, 9.998966 
1.924957e+3, 2.3463412e+2, -820236.25, -843603.4, -5268.2437, 0.012818591, 0.543264, -819103.4, -178463.55, 0.0, 9.999251, 9.998941 
1.9249263e+3, 2.4463318e+2, -783801.75, -715052.0, -5493.159, 0.009611707, 0.54010767, -714615.9, -171966.58, 0.0, 9.99857, 9.999478 
1.9248955e+3, 2.546328e+2, -774699.06, -662171.2, -12713.822, -0.007263008, 0.5543037, -660752.6, -216099.5, 0.0, 9.99797, 9.999457 
1.9248646e+3, 2.6463252e+2, -728318.1, -535823.4, -25164.62, -0.014265376, 0.5695646, -532588.0, -185932.7, 0.0, 9.997387, 9.999932 
1.9248338e+3, 2.7463254e+2, -713827.25, -479785.1, -28359.12, -0.0082976855, 0.5722974, -476397.8, -227743.64, 0.0, 9.99682, 9.999917 
1.9248034e+3, 2.8463206e+2, -671604.44, -345581.5, -4708.8696, 0.0059092394, 0.516514, -345513.5, -194856.39, 0.0, 9.996167, 10.000481 
1.9247732e+3, 2.946316e+2, -689262.75, -312559.16, 8159.69, 0.02493337, 0.42021108, -312382.5, -259723.03, 0.0, 9.995413, 10.000398 
1.9247426e+3, 3.0463356e+2, -694919.25, -193735.53, 75089.18, -0.09346935, 0.54848486, -182727.19, -182727.19, 0.0, 9.994625, 10.001258 
1.9247141e+3, 3.1463423e+2, -732283.75, -85809.18, -29990.037, -0.04092671, 0.48360938, -84420.92, -84420.92, 0.0, 9.993824, 10.002385 
1.9352937e+3, 1.24682955e+2, -1176142.8, -1715437.8, 37743.434, 0.1192099, 0.43607008, -1173514.0, 544637.56, 0.08904126, 10.005295, 9.997447 
1.9352616e+3, 1.346808e+2, -1105455.0, -1624384.6, -39343.914, -0.008023846, 0.4559038, -1102489.0, 517683.34, 0.06236463, 10.0049095, 9.997586 
1.9352324e+3, 1.446786e+2, -1056676.3, -1536322.1, -15956.312, 0.13151261, 0.4790885, -1056146.0, 466048.13, 0.035971753, 10.004363, 9.997779 
1.9352017e+3, 1.5467611e+2, -1052218.1, -1492339.0, -6907.899, 0.07505627, 0.4515844, -1052109.8, 372109.78, 0.015545839, 10.003655, 9.997748 
1.9351713e+3, 1.6467398e+2, -1007070.8, -1379128.5, -5990.2676, 0.048641182, 0.4552078, -1006974.4, 319266.88, 0.004254823, 10.003077, 9.998133 
1.9351415e+3, 1.7467245e+2, -973876.56, -1316600.5, -9867.089, 0.05809543, 0.48796633, -973592.7, 254664.16, 0.00046201874, 10.002639, 9.998099 
1.9351111e+3, 1.8467072e+2, -931174.44, -1215855.3, -22603.684, 0.052941438, 0.5010645, -929390.9, 200884.16, 0.0000018185868, 10.0021305, 9.9983635 
1.9350806e+3, 1.9466898e+2, -920661.8, -1163924.8, -15633.685, 0.030151965, 0.49057594, -919661.2, 112632.43, 0.0, 10.001546, 9.998329 
1.9350497e+3, 2.0466757e+2, -872355.25, -1049141.9, -26903.865, 0.018912412, 0.5090252, -868351.6, 65957.88, 0.0, 10.001029, 9.998694 
1.9350189e+3, 2.1466677e+2, -839917.94, -985864.3, -25276.902, 0.020853234, 0.5577212, -835664.2, 655.6098, 0.0, 10.000592, 9.998666 
1.9349876e+3, 2.2466576e+2, -791201.1, -854550.6, -39612.4, 0.01551144, 0.5768641, -772156.7, -33826.168, 0.0, 10.000009, 9.999176 
1.9349562e+3, 2.3466478e+2, -804182.75, -812534.8, -32447.775, 0.001993896, 0.5582825, -775643.4, -135303.78, 0.0, 9.999257, 9.999153 
1.9349249e+3, 2.4466385e+2, -793773.0, -738209.75, -27253.36, 0.002638797, 0.55338424, -727074.0, -184725.05, 0.0, 9.998577, 9.999318 
1.9348937e+3, 2.546633e+2, -785733.94, -687364.4, -34311.383, 0.017933806, 0.56498706, -676579.06, -232223.25, 0.0, 9.997975, 9.999284 
1.9348621e+3, 2.6466292e+2, -730886.7, -543525.4, -45715.355, 0.0011853382, 0.58256173, -532966.1, -186606.47, 0.0, 9.997394, 9.999878 
1.9348302e+3, 2.7466297e+2, -715821.3, -487658.1, -48861.293, -0.048967157, 0.5948674, -477634.75, -229276.27, 0.0, 9.996833, 9.999859 
1.9347993e+3, 2.8466266e+2, -653113.56, -311761.94, -32663.465, -0.026834361, 0.5477056, -308664.5, -158305.19, 0.0, 9.996182, 10.000708 
1.934769e+3, 2.946625e+2, -668104.56, -272367.28, -19998.271, 0.0686775, 0.45990336, -271359.25, -219002.22, 0.0, 9.995424, 10.00067 
1.9347373e+3, 3.0466422e+2, -660832.06, -126076.914, 45418.86, -0.07520444, 0.52380824, -122246.75, -122246.75, 0.0, 9.994635, 10.001719 
1.9347076e+3, 3.1466514e+2, -747944.06, -122414.94, -47274.0, -0.06046711, 0.44017297, -118862.41, -118862.41, 0.0, 9.993839, 10.002129 
1.945299e+3, 1.2471344e+2, -1125780.8, -1692462.6, 64839.926, 0.108696386, 0.4397331, -1118456.4, 599396.75, 0.092365354, 10.005705, 9.99742 
1.9452664e+3, 1.3471118e+2, -1134229.9, -1646896.8, -13265.148, 0.0031955384, 0.458491, -1133886.9, 485988.28, 0.064844094, 10.004748, 9.997507 
1.9452366e+3, 1.4470898e+2, -1093132.1, -1542477.8, 16747.725, 0.13637371, 0.47966102, -1092508.8, 429388.3, 0.03755056, 10.004061, 9.99788 
1.9452055e+3, 1.5470655e+2, -1042540.44, -1475001.3, 24261.959, 0.07861899, 0.44859904, -1041183.56, 382737.63, 0.016341891, 10.003676, 9.997855 
1.9451746e+3, 1.647045e+2, -995473.94, -1376833.0, 26087.9, 0.05249781, 0.4558197, -993697.6, 332244.8, 0.0045336764, 10.003177, 9.998097 
1.9451441e+3, 1.7470303e+2, -989448.94, -1328384.6, 25084.219, 0.06290843, 0.4998944, -987602.56, 240355.77, 0.0005095191, 10.002555, 9.998057 
1.9451132e+3, 1.8470135e+2, -938024.06, -1201184.5, 12791.827, 0.057289183, 0.5148872, -937403.7, 192572.25, 0.0000023367377, 10.002009, 9.998521 
1.9450821e+3, 1.946997e+2, -908652.56, -1139469.6, 15879.684, 0.032315124, 0.49554515, -907565.2, 124427.79, 0.0, 10.001553, 9.998492 
1.9450508e+3, 2.0469837e+2, -872960.75, -1040327.9, 1079.0242, 0.021811038, 0.50981927, -872953.8, 61054.098, 0.0, 10.00099, 9.998771 
1.9450194e+3, 2.1469763e+2, -876296.8, -994944.8, 2675.5212, 0.02769116, 0.55934274, -876236.5, -40218.563, 0.0, 10.00031, 9.998737 
1.9449875e+3, 2.2469677e+2, -817648.75, -853614.94, -15280.232, 0.020064289, 0.58388907, -812033.6, -74006.02, 0.0, 9.999772, 9.999294 
1.9449554e+3, 2.3469602e+2, -776309.9, -785399.9, -16000.462, -0.0027003551, 0.5766201, -764221.44, -124187.125, 0.0, 9.999393, 9.999271 
1.9449234e+3, 2.4469517e+2, -761860.9, -728179.0, -15536.719, -0.0014482379, 0.5767611, -722106.94, -180063.89, 0.0, 9.998823, 9.999266 
1.9448917e+3, 2.5469452e+2, -781187.4, -691395.2, -14350.022, 0.02510522, 0.58538586, -689157.6, -245106.4, 0.0, 9.998037, 9.999224 
1.9448596e+3, 2.6469406e+2, -731356.3, -540899.4, -13272.289, 0.0066215927, 0.5955335, -539978.9, -193922.64, 0.0, 9.997382, 9.9999 
1.9448268e+3, 2.74694e+2, -709631.56, -481955.03, -10972.457, -0.058475737, 0.59712535, -481427.44, -233371.55, 0.0, 9.996868, 9.999879 
1.9447953e+3, 2.846939e+2, -643809.44, -293354.84, -5738.5005, -0.027870523, 0.5635628, -293260.9, -143206.22, 0.0, 9.99619, 10.000828 
1.9447647e+3, 2.9469424e+2, -670444.44, -255962.56, -2798.4866, 0.097332925, 0.512844, -255943.66, -203896.3, 0.0, 9.9953375, 10.000822 
1.9447319e+3, 3.046955e+2, -643539.4, -83819.4, 54579.266, -0.07755267, 0.506794, -78546.945, -78546.945, 0.0, 9.994612, 10.002019 
1.9447015e+3, 3.1469688e+2, -725605.94, -121594.125, -34227.79, -0.064809464, 0.44006795, -119660.71, -119660.71, 0.0, 9.99404, 10.002035 
1.9553046e+3, 1.24744825e+2, -1128017.6, -1691794.6, 35570.563, 0.099994555, 0.46560133, -1125782.3, 591763.8, 0.09565045, 10.005697, 9.997432 
1.9552714e+3, 1.3474207e+2, -1136892.0, -1653793.0, -47460.652, 0.012878377, 0.4379095, -1132570.4, 487002.38, 0.06729525, 10.00476, 9.9974575 
1.9552407e+3, 1.4473978e+2, -1086533.0, -1531142.3, 2035.861, 0.13798332, 0.45162454, -1086523.8, 435071.47, 0.03911447, 10.004076, 9.997952 
1.9552091e+3, 1.5473789e+2, -1037062.06, -1464509.1, 9720.368, 0.08619967, 0.4639574, -1036841.1, 386773.1, 0.017133936, 10.00368, 9.997928 
1.9551778e+3, 1.6473591e+2, -995790.06, -1378335.0, 2991.5405, 0.05618666, 0.4776009, -995766.7, 329868.03, 0.004813505, 10.003177, 9.998089 
1.9551465e+3, 1.747341e+2, -989035.75, -1329696.1, 2026.5214, 0.048227556, 0.48713833, -989023.7, 238630.83, 0.0005582625, 10.00256, 9.998048 
1.955115e+3, 1.8473245e+2, -929453.6, -1185703.3, -4159.8423, 0.041513737, 0.5001045, -929386.1, 200285.95, 0.000003033972, 10.002016, 9.998626 
1.9550836e+3, 1.9473125e+2, -900222.6, -1124082.3, -676.0664, 0.036880076, 0.51572126, -900220.56, 131463.89, 0.0, 10.001557, 9.998597 
1.9550517e+3, 2.0473006e+2, -867136.6, -1030416.94, -23611.125, 0.03336355, 0.5365969, -863790.94, 69906.91, 0.0, 10.000995, 9.998838 
1.9550197e+3, 2.1472915e+2, -870349.3, -984979.1, -21955.945, 0.030216988, 0.55943906, -866287.8, -30578.018, 0.0, 10.000317, 9.998805 
1.9549873e+3, 2.2472829e+2, -815672.2, -851936.06, -28945.379, 0.018691234, 0.58092016, -799648.56, -61928.887, 0.0, 9.999778, 9.999305 
1.9549547e+3, 2.3472778e+2, -774565.44, -784312.1, -29106.697, -0.0014641734, 0.59790176, -749926.94, -110202.14, 0.0, 9.999401, 9.999278 
1.9549222e+3, 2.4472708e+2, -757278.3, -721322.7, -43815.86, -0.003241823, 0.60987276, -691939.8, -150207.45, 0.0, 9.998831, 9.999311 
1.9548896e+3, 2.5472647e+2, -776888.8, -684944.9, -43052.902, 0.012784414, 0.6165371, -667932.94, -224192.81, 0.0, 9.998044, 9.999267 
1.9548568e+3, 2.647259e+2, -724055.8, -528406.6, -32163.094, 0.0013425641, 0.6091503, -523254.94, -177509.08, 0.0, 9.997389, 9.999984 
1.954824e+3, 2.747256e+2, -701940.75, -469242.4, -29747.258, -0.03406545, 0.57706666, -465499.8, -217752.36, 0.0, 9.996878, 9.999964 
1.9547917e+3, 2.8472567e+2, -643380.2, -295324.84, -37545.445, 0.005199941, 0.5621553, -291320.8, -141576.5, 0.0, 9.996199, 10.000813 
1.95476e+3, 2.9472673e+2, -669577.7, -256008.64, -34984.035, 0.10747844, 0.5802234, -253070.2, -201338.61, 0.0, 9.995341, 10.000822 
1.9547261e+3, 3.0472726e+2, -633931.8, -66986.29, 31845.691, -0.10434333, 0.49893445, -65203.105, -65203.105, 0.0, 9.99462, 10.002132 
1.9546957e+3, 3.1472936e+2, -715458.3, -106829.41, -36959.45, -0.053375416, 0.4965668, -104593.23, -104593.23, 0.0, 9.994063, 10.002127 
1.9653101e+3, 1.2477671e+2, -1156636.0, -1702007.4, 60684.063, 0.0977004, 0.47639707, -1149965.3, 567269.06, 0.09893336, 10.005486, 9.997455 
1.9652763e+3, 1.3477388e+2, -1100333.5, -1637105.4, -23875.383, 0.015556605, 0.44495758, -1099273.6, 519988.13, 0.06974504, 10.005056, 9.997425 
1.9652447e+3, 1.4477153e+2, -1037428.94, -1506031.0, 26061.4, 0.12922011, 0.45429173, -1035984.0, 485300.78, 0.040678453, 10.004435, 9.997953 
1.9652128e+3, 1.547697e+2, -1047317.2, -1469049.9, 27993.105, 0.09240029, 0.4743068, -1045467.25, 377835.88, 0.017927475, 10.0036125, 9.997927 
1.965181e+3, 1.6476779e+2, -1018314.7, -1379980.4, 25035.084, 0.06615148, 0.4901552, -1016589.94, 308733.16, 0.005095386, 10.002986, 9.998168 
1.9651489e+3, 1.74766e+2, -981081.2, -1316180.0, 29891.73, 0.04763561, 0.49451238, -978435.6, 248906.92, 0.0006082642, 10.002578, 9.99813 
1.965117e+3, 1.847644e+2, -919859.9, -1175780.6, 22702.316, 0.03906599, 0.5062623, -917861.56, 211498.14, 0.0000039260876, 10.002064, 9.998669 
1.9650851e+3, 1.9476327e+2, -915816.4, -1126763.5, 20498.713, 0.042897582, 0.5261393, -913842.9, 117528.555, 0.0, 10.001434, 9.998636 
1.9650528e+3, 2.0476216e+2, -872519.0, -1022609.3, -4460.048, 0.03845067, 0.54811513, -872386.56, 60997.504, 0.0, 10.000917, 9.998927 
1.9650199e+3, 2.1476129e+2, -833441.8, -956710.3, -1901.2662, 0.023489177, 0.5677299, -833412.44, 1982.8682, 0.0, 10.000529, 9.998894 
1.964987e+3, 2.247605e+2, -787988.94, -836110.56, -9732.885, 0.012374816, 0.5891979, -786094.94, -48689.984, 0.0, 9.999962, 9.999322 
1.9649541e+3, 2.3476003e+2, -803149.75, -796260.7, -10052.851, 0.006355104, 0.6104064, -789078.6, -149668.44, 0.0, 9.999201, 9.99929 
1.9649209e+3, 2.4475943e+2, -784556.2, -723853.94, -24729.836, 0.0053678374, 0.6270789, -715054.6, -173637.52, 0.0, 9.998602, 9.999402 
1.9648875e+3, 2.5475895e+2, -751219.75, -661684.94, -20885.885, 0.006591818, 0.63792175, -657052.5, -213629.28, 0.0, 9.9981785, 9.99936 
1.9648542e+3, 2.6475835e+2, -693373.56, -503689.3, -10596.466, -0.007172453, 0.62275624, -503099.2, -157670.55, 0.0, 9.997561, 10.000068 
1.9648208e+3, 2.7475795e+2, -718534.44, -467993.88, -8995.4795, -0.028535545, 0.5731418, -467671.3, -220240.38, 0.0, 9.996729, 10.000042 
1.964788e+3, 2.847582e+2, -665410.5, -316910.13, -19285.477, 0.013682873, 0.57325625, -315846.13, -166419.34, 0.0, 9.996099, 10.00071 
1.9647554e+3, 2.947595e+2, -624699.0, -245061.7, -23801.32, 0.099907, 0.63251203, -243575.3, -192163.16, 0.0, 9.9957, 10.000722 
1.9647206e+3, 3.0475944e+2, -591144.5, -61304.375, 22401.953, -0.12915048, 0.4979298, -60358.895, -60358.895, 0.0, 9.994982, 10.001995 
1.9646898e+3, 3.1476194e+2, -717640.9, -87773.81, -41551.418, -0.03069323, 0.5504586, -85044.55, -85044.55, 0.0, 9.993966, 10.002302 
1.9753155e+3, 1.24809146e+2, -1155468.4, -1698744.0, 46760.023, 0.10100244, 0.47465026, -1151473.1, 565444.3, 0.102252685, 10.005498, 9.997476 
1.9752811e+3, 1.348066e+2, -1103623.1, -1641913.3, -39567.28, 0.010368726, 0.4769425, -1100730.3, 518211.72, 0.072222054, 10.005054, 9.997396 
1.9752489e+3, 1.4480418e+2, -1044202.5, -1518555.8, -3334.5273, 0.10925619, 0.48417094, -1044179.06, 476786.8, 0.04225848, 10.004432, 9.997868 
1.9752164e+3, 1.5480204e+2, -1052104.4, -1481578.9, -2352.6025, 0.097465836, 0.48010767, -1052091.5, 370896.16, 0.018728292, 10.003622, 9.997838 
1.975184e+3, 1.6480014e+2, -1006119.7, -1357938.9, 9294.204, 0.08219691, 0.4949193, -1005874.3, 319132.97, 0.005380301, 10.002997, 9.998316 
1.9751516e+3, 1.7479873e+2, -969595.1, -1294296.0, 14671.445, 0.059999734, 0.5212108, -968933.56, 258089.16, 0.00065935636, 10.002583, 9.99828 
1.9751191e+3, 1.8479717e+2, -921734.44, -1181225.3, -509.4182, 0.04870431, 0.53213483, -921733.44, 207305.9, 0.000004997438, 10.002067, 9.9986315 
1.9750865e+3, 1.9479574e+2, -917439.44, -1132497.1, -2538.8477, 0.05007233, 0.526716, -917409.44, 113644.79, 0.0, 10.00144, 9.998595 
1.9750535e+3, 2.0479462e+2, -864531.25, -1008620.2, -18571.176, 0.03693907, 0.5447097, -862176.1, 70890.91, 0.0, 10.000925, 9.999022 
1.9750203e+3, 2.1479404e+2, -825521.3, -942652.4, -15436.338, 0.0071605504, 0.5842124, -823521.1, 11553.909, 0.0, 10.000535, 9.99899 
1.9749868e+3, 2.2479333e+2, -786445.56, -835160.56, -37198.27, 0.0007763687, 0.6085497, -766339.56, -29255.639, 0.0, 9.999968, 9.999329 
1.9749534e+3, 2.3479272e+2, -801928.3, -795870.0, -37735.188, 0.02085931, 0.6142985, -761042.56, -121951.33, 0.0, 9.999206, 9.999292 
1.9749197e+3, 2.4479215e+2, -774744.06, -705834.3, -40002.54, 0.024500296, 0.62850845, -687493.94, -146395.95, 0.0, 9.998608, 9.999525 
1.9748858e+3, 2.547919e+2, -740675.1, -642981.5, -35873.418, 0.0064550596, 0.64863455, -631223.75, -188122.17, 0.0, 9.998188, 9.999486 
1.9748515e+3, 2.6479143e+2, -686988.25, -493530.75, -41351.395, -0.019541547, 0.6356971, -485062.6, -139956.98, 0.0, 9.997571, 10.000135 
1.9748172e+3, 2.7479112e+2, -713805.75, -459807.38, -40530.258, -0.044014655, 0.58674866, -453496.78, -206389.56, 0.0, 9.996732, 10.000098 
1.9747838e+3, 2.8479138e+2, -679615.06, -348639.16, -34577.137, -0.0052906466, 0.59836376, -345065.47, -195962.31, 0.0, 9.996104, 10.000491 
1.9747508e+3, 2.947926e+2, -637623.94, -277613.13, -39205.79, 0.07255814, 0.66894513, -273393.0, -222302.52, 0.0, 9.99572, 10.000491 
1.9747154e+3, 3.0479184e+2, -617358.75, -122112.94, -18447.326, -0.1521082, 0.50311154, -121426.74, -121426.74, 0.0, 9.995005, 10.001569 
1.9746841e+3, 3.147943e+2, -697941.25, -49759.117, -56303.27, 0.00074614177, 0.59471333, -44904.78, -44904.78, 0.0, 9.993976, 10.002561 
1.9853212e+3, 1.2484233e+2, -1138919.3, -1692386.5, 69070.625, 0.10414916, 0.4893469, -1130429.8, 586163.44, 0.10562175, 10.005658, 9.997445 
1.9852863e+3, 1.3483976e+2, -1130993.4, -1662524.1, -21164.252, 0.030697424, 0.49373847, -1130152.0, 488466.2, 0.07473484, 10.004896, 9.997329 
1.9852532e+3, 1.4483717e+2, -1067443.9, -1531237.3, 15528.944, 0.110013284, 0.49032333, -1066924.5, 453719.25, 0.04385905, 10.00428, 9.997851 
1.98522e+3, 1.5483502e+2, -1027121.94, -1470862.6, 20698.912, 0.08746447, 0.48914787, -1026158.5, 396507.06, 0.01953811, 10.003812, 9.997818 
1.985187e+3, 1.6483317e+2, -971228.25, -1334953.5, 33028.285, 0.074551366, 0.50783056, -968253.44, 356431.3, 0.0056685642, 10.003219, 9.998364 
1.9851542e+3, 1.7483185e+2, -979659.6, -1293264.5, 30340.56, 0.0670847, 0.53858936, -976751.2, 249947.94, 0.00071145233, 10.002493, 9.998328 
1.985121e+3, 1.8483032e+2, -940189.44, -1182788.6, 16159.113, 0.054809343, 0.5469689, -939117.9, 189597.47, 0.000006217688, 10.001913, 9.998693 
1.9850878e+3, 1.9482885e+2, -905766.7, -1119722.5, 20575.777, 0.038503084, 0.5310603, -903805.94, 126924.71, 0.0, 10.001494, 9.998655 
1.9850543e+3, 2.0482777e+2, -849242.2, -989635.6, 8326.069, 0.023452662, 0.5457728, -848750.1, 83992.81, 0.0, 10.000984, 9.999122 
1.9850206e+3, 2.1482733e+2, -842650.75, -939630.44, 10793.898, 0.008381079, 0.59016174, -841463.94, -6714.472, 0.0, 10.000373, 9.999086 
1.9849867e+3, 2.2482672e+2, -806642.7, -839357.25, -15124.779, 0.0048656277, 0.6180912, -800721.7, -63964.22, 0.0, 9.999809, 9.999373 
1.9849525e+3, 2.3482618e+2, -785939.7, -782674.06, -13141.017, 0.015483071, 0.6260606, -771064.8, -132300.23, 0.0, 9.999296, 9.999337 
1.9849183e+3, 2.4482566e+2, -752462.94, -681699.2, -11173.932, 0.021073094, 0.638754, -679976.75, -139206.06, 0.0, 9.998708, 9.99964 
1.9848838e+3, 2.5482544e+2, -754412.8, -636313.6, -7878.8423, 0.016499434, 0.65306544, -635790.3, -193017.05, 0.0, 9.99804, 9.9996 
1.9848491e+3, 2.6482508e+2, -705153.44, -507907.16, -22903.266, -0.01550209, 0.64282376, -505282.66, -160505.92, 0.0, 9.997475, 10.000081 
1.9848138e+3, 2.748248e+2, -677771.0, -448787.34, -32009.123, -0.06541843, 0.60685235, -444397.03, -197618.81, 0.0, 9.997011, 10.000037 
1.9847798e+3, 2.8482503e+2, -629301.7, -331005.22, -19144.97, -0.027983619, 0.62007904, -329781.5, -181006.53, 0.0, 9.996483, 10.000428 
1.9847465e+3, 2.9482603e+2, -623206.44, -279255.78, -12447.535, 0.07080596, 0.67728984, -278805.9, -228041.58, 0.0, 9.99586, 10.00041 
1.9847104e+3, 3.0482516e+2, -640028.1, -171918.98, -2047.9517, -0.14492248, 0.52130795, -171910.03, -171910.03, 0.0, 9.99502, 10.001218 
1.984678e+3, 3.1482726e+2, -665176.44, -8632.456, -6580.314, 0.0008570969, 0.6099816, -8566.51, -8566.51, 0.0, 9.994095, 10.002784 
1.9953267e+3, 1.2487629e+2, -1146519.3, -1705887.4, 43430.87, 0.103724934, 0.51794255, -1143167.3, 573094.0, 0.10902352, 10.005666, 9.99734 
1.9952916e+3, 1.3487333e+2, -1138288.5, -1680816.0, -47734.836, 0.074197754, 0.49756417, -1134120.5, 484169.5, 0.07727319, 10.004912, 9.997199 
1.9952577e+3, 1.4487053e+2, -1063118.3, -1525055.0, -1296.8735, 0.12972555, 0.4764715, -1063114.6, 457203.13, 0.045476485, 10.004296, 9.997888 
1.9952235e+3, 1.5486866e+2, -1024167.7, -1466280.0, 3376.406, 0.062595226, 0.5011307, -1024141.9, 398194.97, 0.02035661, 10.003818, 9.997849 
1.9951898e+3, 1.6486688e+2, -975208.8, -1344501.8, 6296.095, 0.044025496, 0.5276421, -975101.5, 349254.1, 0.0059604445, 10.0032215, 9.9983 
1.9951566e+3, 1.7486538e+2, -982591.9, -1302323.1, 3602.8154, 0.06927228, 0.54712355, -982551.25, 243820.61, 0.0007647541, 10.0025015, 9.998263 
1.995123e+3, 1.8486385e+2, -928717.7, -1162206.8, 769.7135, 0.057259865, 0.55136573, -928715.1, 199672.8, 0.0000075719613, 10.001923, 9.998832 
1.995089e+3, 1.9486256e+2, -894797.0, -1099362.6, 5650.7744, 0.008384967, 0.53933686, -894641.0, 135759.94, 0.0, 10.0015, 9.998795 
1.9950551e+3, 2.0486155e+2, -842308.25, -977321.4, -13750.214, -0.0018686876, 0.55138975, -840922.1, 91490.12, 0.0, 10.000989, 9.999206 
1.9950211e+3, 2.1486111e+2, -835798.06, -927773.0, -11191.29, 0.027092118, 0.5857512, -834455.9, -36.791183, 0.0, 10.00038, 9.999167 
1.9949867e+3, 2.2486061e+2, -800284.4, -828697.0, -33661.336, 0.024111664, 0.61797196, -777954.4, -41528.18, 0.0, 9.999816, 9.999446 
1.9949515e+3, 2.3486033e+2, -779608.25, -772116.9, -31357.14, -0.010806402, 0.6454997, -744282.5, -105851.67, 0.0, 9.999303, 9.999409 
1.9949166e+3, 2.4485989e+2, -744757.25, -668431.3, -35399.734, -0.0055819643, 0.65763336, -654540.9, -114104.94, 0.0, 9.998715, 9.99973 
1.9948821e+3, 2.5485957e+2, -747006.44, -623195.9, -32240.746, 0.037406348, 0.6514396, -615303.4, -172864.36, 0.0, 9.998046, 9.99969 
1.9948466e+3, 2.6485917e+2, -718122.25, -537415.3, -40024.137, 0.0054348316, 0.6443669, -528947.3, -184504.39, 0.0, 9.997481, 9.999878 
1.9948106e+3, 2.7485892e+2, -690200.25, -479225.2, -49163.348, -0.0944193, 0.6332931, -468331.22, -221886.02, 0.0, 9.997026, 9.999823 
1.994776e+3, 2.84859e+2, -619806.7, -316293.34, -43233.19, -0.055210955, 0.63745594, -310255.22, -161811.63, 0.0, 9.996501, 10.000522 
1.9947426e+3, 2.948597e+2, -616620.2, -268584.84, -38414.13, 0.098307975, 0.6559431, -264395.34, -213960.5, 0.0, 9.99587, 10.000482 
1.9947058e+3, 3.0485925e+2, -658731.9, -213808.06, -39025.89, -0.104675725, 0.5535386, -210410.89, -210410.89, 0.0, 9.995028, 10.000929 
1.9946717e+3, 3.148606e+2, -650749.44, 15391.208, -14682.014, -0.04079479, 0.5933149, 15714.648, 15714.648, 0.0, 9.994116, 10.002941 
2.0053327e+3, 1.2491075e+2, -1105709.1, -1689220.4, 69738.17, 0.10942102, 0.51835304, -1097490.1, 618433.9, 0.11243559, 10.006021, 9.997297 
2.0052966e+3, 1.3490781e+2, -1095945.1, -1661486.4, -13233.5, 0.079304, 0.50375843, -1095635.6, 522316.9, 0.079827085, 10.0052595, 9.99716 
2.005262e+3, 1.4490487e+2, -1035352.8, -1519613.5, 38672.62, 0.116777495, 0.47476774, -1032283.9, 487697.97, 0.047109693, 10.004546, 9.997803 
2.0052274e+3, 1.5490304e+2, -1023884.06, -1475823.5, 34490.094, 0.06254131, 0.51303726, -1021267.06, 400734.06, 0.021185748, 10.003869, 9.997757 
2.005193e+3, 1.6490123e+2, -968492.6, -1338150.6, 34506.363, 0.04714514, 0.54148704, -965299.1, 358721.06, 0.0062571527, 10.00326, 9.9983225 
2.0051591e+3, 1.7489962e+2, -948512.7, -1283150.8, 37117.15, 0.06409316, 0.5493522, -944445.2, 281591.94, 0.0008196164, 10.002728, 9.998283 
2.0051248e+3, 1.8489812e+2, -889560.6, -1132125.1, 38365.62, 0.050272807, 0.55104244, -883637.1, 244415.61, 0.000009033603, 10.002148, 9.998928 
2.0050904e+3, 1.94897e+2, -887656.9, -1084936.9, 39188.215, 0.006787466, 0.54691595, -880157.5, 149906.52, 0.0, 10.001507, 9.998887 
2.0050558e+3, 2.048961e+2, -855220.7, -977072.4, 13196.797, -0.0030422495, 0.5623994, -853807.8, 78266.54, 0.0, 10.000876, 9.99926 
2.0050214e+3, 2.148957e+2, -849564.25, -928240.3, 12743.195, 0.021029137, 0.5947811, -847551.7, -13470.485, 0.0, 10.000262, 9.999218 
2.0049863e+3, 2.2489524e+2, -805745.4, -822633.56, -5975.0615, 0.016134009, 0.6258853, -803845.2, -67757.41, 0.0, 9.999745, 9.999519 
2.0049506e+3, 2.3489502e+2, -771413.0, -759773.1, -4181.876, -0.017916627, 0.65357155, -758426.5, -120334.97, 0.0, 9.999327, 9.999479 
2.0049153e+3, 2.4489461e+2, -732189.56, -661789.1, -18921.701, -0.013288023, 0.66419816, -657025.8, -116929.484, 0.0, 9.998802, 9.999732 
2.00488e+3, 2.5489423e+2, -729430.56, -613806.9, -22943.92, 0.027964765, 0.655057, -609420.4, -167320.83, 0.0, 9.998167, 9.999694 
2.0048441e+3, 2.6489383e+2, -710719.25, -537782.0, -23403.717, 0.0028313186, 0.6505722, -534670.7, -190567.3, 0.0, 9.997554, 9.999838 
2.0048076e+3, 2.748936e+2, -702717.44, -489573.22, -19019.621, -0.08171074, 0.646267, -487889.34, -241783.78, 0.0, 9.9969635, 9.999781 
2.0047724e+3, 2.8489354e+2, -633805.56, -323847.78, -13306.921, -0.047455207, 0.63910824, -323277.53, -175172.14, 0.0, 9.996412, 10.00051 
2.0047382e+3, 2.94894e+2, -618764.44, -271928.7, -19707.336, 0.0808222, 0.6336072, -270812.5, -220713.28, 0.0, 9.99587, 10.000456 
2.0047009e+3, 3.0489415e+2, -651516.8, -212637.33, -25005.762, -0.0937117, 0.5900598, -211217.19, -211217.19, 0.0, 9.995091, 10.000904 
2.0046657e+3, 3.1489486e+2, -636586.7, 24172.633, 41950.277, -0.040698238, 0.5695854, 26825.322, 26825.322, 0.0, 9.994211, 10.002953 
2.0153387e+3, 1.2494578e+2, -1107017.5, -1688406.1, 41102.066, 0.1186093, 0.49746567, -1104126.1, 611454.7, 0.11587495, 10.006022, 9.997305 
2.0153016e+3, 1.3494314e+2, -1093481.5, -1655862.6, -40015.637, 0.04895053, 0.5109711, -1090648.5, 526957.4, 0.08241088, 10.005268, 9.997198 
2.015266e+3, 1.4494011e+2, -1049298.4, -1551442.1, 14893.865, 0.0739389, 0.4822224, -1048857.0, 470779.38, 0.048769914, 10.004556, 9.9975815 
2.0152313e+3, 1.5493813e+2, -1037949.25, -1508281.8, 9848.548, 0.085268915, 0.5253203, -1037743.1, 383915.3, 0.022033043, 10.003879, 9.997531 
2.0151965e+3, 1.6493621e+2, -960792.75, -1325058.4, 14836.843, 0.080621526, 0.55069184, -960189.44, 363489.2, 0.0065621203, 10.003269, 9.99841 
2.0151617e+3, 1.7493457e+2, -941192.4, -1270707.3, 17547.346, 0.051348653, 0.54568684, -940260.56, 285434.63, 0.0008767727, 10.002737, 9.998367 
2.0151268e+3, 1.8493311e+2, -886096.56, -1127064.3, 14847.397, 0.034330383, 0.5462918, -885185.2, 242524.97, 0.000010560831, 10.002152, 9.998962 
2.0150922e+3, 1.9493215e+2, -884231.1, -1080021.6, 15722.758, 0.032922782, 0.5539305, -882976.56, 146743.7, 0.0, 10.001513, 9.99892 
2.0150569e+3, 2.0493135e+2, -853452.9, -975897.6, -9307.281, 0.018650837, 0.5784898, -852749.44, 78980.41, 0.0, 10.000883, 9.999267 
2.0150213e+3, 2.14931e+2, -847924.2, -927274.25, -9319.916, -0.010352718, 0.61705375, -846844.25, -13107.977, 0.0, 10.000269, 9.999224 
2.0149855e+3, 2.2493051e+2, -800547.75, -814312.06, -20883.65, -0.018955005, 0.6418403, -785441.5, -49698.51, 0.0, 9.999751, 9.999576 
2.01495e+3, 2.3493017e+2, -766207.4, -751638.9, -18913.533, -0.0052684406, 0.65031177, -738655.4, -100908.055, 0.0, 9.999334, 9.999535 
2.014914e+3, 2.449297e+2, -738107.8, -676949.0, -42150.766, -0.0022912985, 0.6584355, -655453.6, -115701.086, 0.0, 9.998811, 9.999626 
2.0148776e+3, 2.549294e+2, -735517.44, -629411.6, -46498.484, -0.014076767, 0.6642208, -611918.6, -170162.67, 0.0, 9.998176, 9.999585 
2.0148413e+3, 2.6492903e+2, -700306.94, -519288.44, -45676.21, -0.024275307, 0.6616105, -508416.03, -164656.72, 0.0, 9.997562, 9.999963 
2.0148051e+3, 2.749288e+2, -691996.3, -470236.38, -40630.69, -0.023440378, 0.6445861, -463026.47, -217266.22, 0.0, 9.996971, 9.999911 
2.0147692e+3, 2.849286e+2, -642921.2, -345491.6, -34051.664, -0.0025149554, 0.6235087, -341642.94, -193881.48, 0.0, 9.99642, 10.0003605 
2.0147333e+3, 2.949288e+2, -628117.44, -294655.56, -43166.68, 0.011500163, 0.61026984, -289158.25, -239399.58, 0.0, 9.995879, 10.000297 
2.0146957e+3, 3.0492958e+2, -632493.8, -176799.23, -60682.258, -0.11614932, 0.6323124, -168856.95, -168856.95, 0.0, 9.995103, 10.001147 
2.0146604e+3, 3.1493005e+2, -647890.9, -2583.0237, 24476.203, 0.0065073967, 0.56080467, -1655.9854, -1655.9854, 0.0, 9.994221, 10.002766 
2.0253447e+3, 1.2498161e+2, -1130566.0, -1702410.8, 65805.16, 0.118104726, 0.48871097, -1123091.1, 592138.7, 0.11941343, 10.005879, 9.997263 
2.0253068e+3, 1.3497917e+2, -1062883.4, -1636826.4, -13275.671, 0.05480027, 0.52095896, -1062576.5, 554676.6, 0.08507076, 10.005505, 9.997211 
2.0252705e+3, 1.4497606e+2, -1006065.06, -1537141.5, 39585.207, 0.06389578, 0.48718876, -1003130.7, 516153.9, 0.050482523, 10.004913, 9.997506 
2.0252353e+3, 1.5497401e+2, -1015281.56, -1506272.3, 43626.375, 0.08395611, 0.5336213, -1011435.3, 409872.03, 0.02291119, 10.004086, 9.997443 
2.0251998e+3, 1.6497204e+2, -942393.1, -1320215.6, 57438.016, 0.08167387, 0.55933344, -933854.2, 389474.13, 0.006880918, 10.00342, 9.998368 
2.0251644e+3, 1.7497033e+2, -918351.25, -1263934.1, 50401.21, 0.04669042, 0.5514849, -911150.56, 314195.06, 0.0009376703, 10.002917, 9.998324 
2.0251289e+3, 1.8496886e+2, -868787.06, -1116571.4, 34204.223, 0.031491674, 0.5539121, -864152.2, 263208.56, 0.000012160716, 10.002268, 9.998977 
2.0250936e+3, 1.9496796e+2, -889674.06, -1081099.3, 32384.654, 0.039985772, 0.567937, -884343.75, 145026.7, 0.0, 10.001472, 9.998931 
2.0250578e+3, 2.0496723e+2, -848081.2, -967210.94, 16000.548, 0.025113285, 0.59497195, -845969.56, 85409.914, 0.0, 10.000898, 9.999317 
2.0250216e+3, 2.149669e+2, -804942.6, -900493.0, 18470.25, -0.015559955, 0.6318888, -801496.56, 31888.709, 0.0, 10.000543, 9.999273 
2.0249854e+3, 2.2496638e+2, -765356.3, -798546.25, 2101.4592, -0.027642397, 0.6516048, -765223.8, -29831.729, 0.0, 10.000003, 9.999561 
2.0249492e+3, 2.3496592e+2, -775844.75, -757670.7, -1940.8108, -0.008945186, 0.6513306, -757465.75, -120068.47, 0.0, 9.999278, 9.999517 
2.0249127e+3, 2.4496539e+2, -754303.3, -685946.25, -23395.953, -0.0069520744, 0.65576905, -678705.7, -139302.66, 0.0, 9.998709, 9.999611 
2.0248757e+3, 2.549651e+2, -719826.5, -623249.25, -20910.338, -0.025835026, 0.6641815, -618916.25, -177509.81, 0.0, 9.998293, 9.999569 
2.0248389e+3, 2.6496473e+2, -677408.5, -500905.13, -25142.832, -0.026757589, 0.6622167, -497393.4, -153984.1, 0.0, 9.997692, 10.000025 
2.0248023e+3, 2.7496454e+2, -697145.56, -464960.84, -25245.38, -0.0006019252, 0.6418793, -462247.63, -216838.2, 0.0, 9.996907, 9.999976 
2.0247656e+3, 2.8496426e+2, -665677.75, -363283.28, -11532.925, 0.007983627, 0.6149918, -362844.1, -215432.97, 0.0, 9.996298, 10.000295 
2.0247288e+3, 2.9496437e+2, -635957.2, -303821.44, -15494.377, -0.025478482, 0.597947, -303100.2, -253690.38, 0.0, 9.995853, 10.000244 
2.024691e+3, 3.0496547e+2, -600015.3, -136964.52, -41690.5, -0.10323806, 0.6376953, -133240.88, -133240.88, 0.0, 9.995226, 10.001359 
2.0246547e+3, 3.1496605e+2, -636261.94, -28708.236, 48440.47, 0.017042134, 0.5629759, -24870.305, -24870.305, 0.0, 9.994442, 10.002478 
2.0353502e+3, 1.2501824e+2, -1136908.9, -1716342.5, 48421.098, 0.10844693, 0.48864883, -1132890.4, 581981.0, 0.12313689, 10.0059, 9.997151 
2.0353128e+3, 1.3501592e+2, -1065568.9, -1641367.5, -26236.611, 0.09158765, 0.53473413, -1064375.9, 552518.1, 0.087863654, 10.005509, 9.99718 
2.0352757e+3, 1.450127e+2, -1003494.06, -1531331.5, 10056.361, 0.081348695, 0.4919796, -1003302.56, 515623.63, 0.05227923, 10.004917, 9.997545 
2.035239e+3, 1.5501069e+2, -1011360.1, -1501701.8, 12843.7705, 0.060277674, 0.53747475, -1011023.94, 409924.28, 0.023835419, 10.004101, 9.997469 
2.0352028e+3, 1.6500865e+2, -952721.8, -1345779.9, 38790.754, 0.053225104, 0.5662695, -948930.1, 374039.56, 0.007220058, 10.003433, 9.998188 
2.0351672e+3, 1.7500684e+2, -929602.0, -1289782.4, 31854.318, 0.049413417, 0.5662405, -926806.5, 298182.2, 0.001004269, 10.002924, 9.998146 
2.0351312e+3, 1.8500532e+2, -869523.3, -1120255.0, 4659.182, 0.039925113, 0.57331026, -869436.75, 257568.0, 0.000013938443, 10.002273, 9.998951 
2.035095e+3, 1.950044e+2, -890338.5, -1085286.8, 3117.6086, 0.028177587, 0.5887832, -890288.6, 138726.2, 0.0, 10.001481, 9.9989 
2.0350586e+3, 2.0500366e+2, -841246.56, -955864.8, 3365.923, 0.017098388, 0.61212474, -841147.8, 89875.91, 0.0, 10.000906, 9.999393 
2.0350222e+3, 2.1500331e+2, -798237.5, -889148.9, 6041.213, 0.0053337878, 0.63959605, -797837.8, 35190.9, 0.0, 10.000549, 9.999351 
2.0349854e+3, 2.2500275e+2, -771416.75, -813643.3, -24410.514, -0.010706024, 0.65524226, -760255.5, -25219.764, 0.0, 10.00001, 9.999456 
2.0349482e+3, 2.3500219e+2, -782198.44, -773205.06, -28327.104, -0.029931178, 0.65653175, -749020.0, -111977.78, 0.0, 9.999285, 9.999411 
2.034911e+3, 2.450016e+2, -748370.3, -676342.3, -38387.742, -0.027344514, 0.6561968, -659719.56, -120670.98, 0.0, 9.998716, 9.999676 
2.0348741e+3, 2.5500125e+2, -713434.7, -613368.56, -35903.7, -0.005637654, 0.6543045, -601819.3, -160767.39, 0.0, 9.998303, 9.999634 
2.0348369e+3, 2.650009e+2, -677628.5, -504537.03, -54927.0, -0.004210729, 0.6516014, -488578.44, -145524.03, 0.0, 9.997702, 9.999997 
2.0347989e+3, 2.7500075e+2, -698298.75, -469433.94, -55305.96, -0.017084317, 0.6391615, -456769.84, -211715.78, 0.0, 9.996912, 9.999946 
2.0347616e+3, 2.8500053e+2, -663390.6, -361089.5, -28661.744, -0.018707793, 0.6148385, -358396.03, -211340.58, 0.0, 9.9963045, 10.000309 
2.0347245e+3, 2.9500064e+2, -630029.7, -296346.94, -33323.035, -0.026062118, 0.5955442, -293051.7, -243997.81, 0.0, 9.995869, 10.000291 
2.0346867e+3, 3.0500147e+2, -586203.5, -112780.96, -73132.9, -0.05144576, 0.6022725, -101741.055, -101741.055, 0.0, 9.995241, 10.00152 
2.034649e+3, 3.15003e+2, -664717.0, -90178.44, 15428.038, -0.012908251, 0.6086735, -89764.445, -89764.445, 0.0, 9.994448, 10.002055 
2.0453563e+3, 1.2505564e+2, -1072641.8, -1688585.6, 58334.21, 0.10257163, 0.509623, -1067165.8, 647340.56, 0.12708575, 10.006455, 9.997094 
2.0453182e+3, 1.350533e+2, -1069440.8, -1636795.8, -5345.666, 0.110349916, 0.5530174, -1069390.4, 547138.06, 0.09082153, 10.005474, 9.997226 
2.0452803e+3, 1.4505e+2, -1015352.06, -1538831.8, 36838.418, 0.085959, 0.49706873, -1012772.4, 505789.1, 0.054181468, 10.004851, 9.997524 
2.0452432e+3, 1.550479e+2, -950116.44, -1473795.8, 35068.57, 0.051709097, 0.5382863, -947778.44, 472805.3, 0.02481756, 10.00455, 9.997442 
2.0452064e+3, 1.6504583e+2, -887441.94, -1325668.4, 55610.06, 0.042638253, 0.570056, -880495.25, 442110.47, 0.007584992, 10.003941, 9.99808 
2.0451702e+3, 1.7504399e+2, -921309.94, -1297801.9, 52685.434, 0.04687504, 0.58007604, -914076.25, 310549.25, 0.0010784175, 10.0030365, 9.9980345 
2.0451334e+3, 1.8504243e+2, -863248.5, -1123103.9, 28838.082, 0.038634304, 0.5895621, -860086.6, 266555.84, 0.00001608478, 10.002345, 9.998895 
2.0450965e+3, 1.950414e+2, -839693.7, -1066677.1, 24402.186, 0.021402325, 0.6000734, -837099.94, 191553.66, 0.0, 10.001858, 9.998843 
2.0450595e+3, 2.0504059e+2, -790179.06, -925178.5, 25011.768, 0.012480045, 0.61960346, -785694.06, 144968.53, 0.0, 10.001236, 9.999443 
2.0450227e+3, 2.1504027e+2, -805239.8, -887137.44, 24510.951, 0.010571218, 0.64416325, -798464.5, 34202.402, 0.0, 10.000483, 9.999394 
2.0449853e+3, 2.2503969e+2, -794955.94, -825645.2, -6427.7446, -0.0047471835, 0.6575022, -793664.06, -58990.203, 0.0, 9.999855, 9.999446 
2.0449474e+3, 2.3503911e+2, -774026.9, -770320.1, -3973.8352, -0.032810543, 0.6574167, -767788.7, -131107.89, 0.0, 9.99935, 9.999396 
2.0449097e+3, 2.4503854e+2, -737155.8, -661857.1, -7697.743, -0.031119918, 0.65690804, -661078.25, -122391.445, 0.0, 9.998758, 9.999753 
2.0448723e+3, 2.5503826e+2, -740276.75, -617745.75, -4930.0103, -0.0015463108, 0.6553462, -617547.75, -176858.73, 0.0, 9.998086, 9.999706 
2.0448343e+3, 2.6503786e+2, -698561.06, -521095.66, -26266.938, -0.0019260679, 0.6483235, -517289.47, -174597.61, 0.0, 9.99759, 9.999935 
2.0447958e+3, 2.750376e+2, -652052.75, -453525.72, -29626.791, -0.028157344, 0.62922317, -449198.72, -204505.6, 0.0, 9.997261, 9.999884 
2.0447578e+3, 2.8503746e+2, -614386.8, -325613.44, -5945.543, -0.03547481, 0.6120845, -325491.1, -178797.64, 0.0, 9.996593, 10.000411 
2.04472e+3, 2.950378e+2, -659334.2, -296838.22, -4328.33, -0.035400815, 0.60810804, -296786.56, -248097.94, 0.0, 9.995614, 10.000407 
2.044682e+3, 3.0503815e+2, -611379.5, -130378.484, -42679.78, -0.021650169, 0.56042176, -126620.81, -126620.81, 0.0, 9.995097, 10.001466 
2.0446433e+3, 3.1504023e+2, -605414.94, -82909.58, 22348.684, -0.03362702, 0.6300118, -81955.42, -81955.42, 0.0, 9.994949, 10.001861 
2.0553628e+3, 1.2509385e+2, -1076841.1, -1691500.9, 19483.922, 0.0973658, 0.5523498, -1076224.1, 637909.94, 0.13123396, 10.0064535, 9.997075 
2.0553237e+3, 1.3509138e+2, -1060962.4, -1620574.4, -38528.633, 0.11314473, 0.5727961, -1058322.3, 557834.4, 0.09393271, 10.005501, 9.997328 
2.0552851e+3, 1.4508791e+2, -1018504.7, -1550790.0, 26338.115, 0.079597004, 0.49935147, -1017204.6, 500986.06, 0.056188077, 10.004878, 9.997431 
2.0552479e+3, 1.5508567e+2, -955891.9, -1487350.8, 24120.2, 0.05577447, 0.5367434, -954799.44, 465414.53, 0.025860814, 10.004556, 9.997349 
2.0552105e+3, 1.6508356e+2, -891436.06, -1334773.0, 21970.115, 0.046757933, 0.5721885, -890349.94, 431886.44, 0.007978993, 10.003942, 9.998019 
2.055173e+3, 1.7508177e+2, -924200.25, -1307179.9, 19063.4, 0.039313484, 0.5930589, -923253.7, 301002.63, 0.001161741, 10.003047, 9.997967 
2.0551358e+3, 1.8508011e+2, -868363.56, -1137132.6, 11077.964, 0.028581174, 0.60242695, -867907.75, 258366.44, 0.000018863731, 10.002355, 9.9987955 
2.0550981e+3, 1.9507888e+2, -845519.9, -1080923.5, 6773.9854, 0.019230234, 0.6019226, -845325.1, 182961.9, 0.0, 10.001863, 9.998746 
2.0550609e+3, 2.0507799e+2, -789038.56, -924697.4, -2533.412, 0.010354068, 0.61752564, -788991.25, 141305.33, 0.0, 10.00124, 9.999446 
2.055023e+3, 2.150777e+2, -804319.56, -887398.0, -2924.9631, -0.00007324964, 0.64566725, -804216.75, 28083.639, 0.0, 10.000487, 9.9993925 
2.0549852e+3, 2.2507714e+2, -789200.94, -816172.4, -24491.807, -0.009551412, 0.6585342, -774727.5, -40420.477, 0.0, 9.999861, 9.999511 
2.054947e+3, 2.350766e+2, -768083.44, -760691.56, -22092.777, -0.017126976, 0.65431106, -741987.7, -105673.93, 0.0, 9.999357, 9.999461 
2.0549087e+3, 2.4507612e+2, -730904.2, -651588.4, -32532.219, -0.018409219, 0.65821046, -639952.06, -101633.586, 0.0, 9.998766, 9.999822 
2.0548701e+3, 2.5507602e+2, -735053.75, -608949.0, -29871.521, -0.014986261, 0.6677775, -602231.0, -161912.47, 0.0, 9.998091, 9.999766 
2.0548315e+3, 2.6507553e+2, -705398.7, -538090.75, -38267.74, -0.021005232, 0.65282947, -529753.4, -187430.83, 0.0, 9.997598, 9.999817 
2.054793e+3, 2.7507493e+2, -657016.9, -469101.2, -42378.797, -0.03358455, 0.6113984, -459986.03, -215658.25, 0.0, 9.997279, 9.999771 
2.0547542e+3, 2.8507492e+2, -599393.0, -299108.34, -44386.813, -0.042405233, 0.6062853, -292684.7, -146358.45, 0.0, 9.99661, 10.000587 
2.0547156e+3, 2.950758e+2, -647317.56, -272645.6, -41443.723, -0.05512074, 0.6375194, -268116.13, -219801.14, 0.0, 9.995613, 10.000577 
2.054677e+3, 3.050753e+2, -631357.56, -173344.77, -47929.03, -0.015635587, 0.510748, -168382.95, -168382.95, 0.0, 9.9951, 10.001171 
2.0546381e+3, 3.150776e+2, -596220.8, -72201.195, 739.8183, -0.03870047, 0.6318039, -72200.15, -72200.15, 0.0, 9.99498, 10.001923 
2.0653692e+3, 1.2513247e+2, -1108396.5, -1719097.5, 44468.277, 0.11402986, 0.56319785, -1105175.5, 608580.9, 0.13551329, 10.006294, 9.996941 
2.0653294e+3, 1.3512994e+2, -976043.25, -1578470.0, -12524.327, 0.10728501, 0.5778719, -975783.0, 639996.8, 0.09715203, 10.006168, 9.997319 
2.06529e+3, 1.4512643e+2, -921200.56, -1500593.8, 46321.58, 0.059536524, 0.50322074, -917520.56, 600293.25, 0.05827681, 10.005596, 9.997434 
2.0652522e+3, 1.5512419e+2, -954418.0, -1486885.4, 49585.42, 0.05757057, 0.5410563, -949839.8, 469996.84, 0.026958806, 10.004575, 9.997341 
2.0652144e+3, 1.6512202e+2, -913201.75, -1357633.5, 49117.035, 0.05363438, 0.5771909, -907838.25, 414021.47, 0.008402403, 10.003848, 9.997906 
2.0651762e+3, 1.7512013e+2, -879898.06, -1297447.3, 42432.043, 0.035144627, 0.59974253, -875629.7, 348251.47, 0.0012554458, 10.003406, 9.997859 
2.0651382e+3, 1.851184e+2, -811249.5, -1107271.9, 35671.46, 0.023299117, 0.60814947, -807011.7, 318887.97, 0.000022594933, 10.002742, 9.998812 
2.0651e+3, 1.9511716e+2, -844082.94, -1078256.3, 38631.707, 0.022151677, 0.6041792, -837874.44, 190037.77, 0.0, 10.001868, 9.998759 
2.0650618e+3, 2.0511623e+2, -806673.8, -934458.6, 32245.78, 0.013777963, 0.61655277, -798997.9, 130924.1, 0.0, 10.001128, 9.999431 
2.0650235e+3, 2.1511589e+2, -802105.5, -887886.3, 29533.732, -0.003453917, 0.64139515, -792920.7, 39005.58, 0.0, 10.000514, 9.999373 
2.0649849e+3, 2.2511533e+2, -781570.75, -807901.75, 10353.963, -0.0121689765, 0.6535357, -777987.06, -44054.09, 0.0, 9.999899, 9.999546 
2.0649463e+3, 2.3511483e+2, -776877.6, -760771.3, 9584.487, -0.011721695, 0.65179, -756305.9, -120366.766, 0.0, 9.999284, 9.999494 
2.0649074e+3, 2.4511443e+2, -732456.56, -651508.3, -4820.693, -0.013550635, 0.6604828, -651222.25, -113279.02, 0.0, 9.998756, 9.999825 
2.0648684e+3, 2.5511438e+2, -703267.2, -593117.25, -7680.4697, -0.018994734, 0.67604053, -592584.3, -152641.6, 0.0, 9.998312, 9.999766 
2.0648292e+3, 2.6511386e+2, -681472.9, -518513.63, -9369.321, -0.025376981, 0.65437, -517976.7, -176029.67, 0.0, 9.997732, 9.999885 
2.06479e+3, 2.7511314e+2, -690250.44, -477480.25, -181.25397, -0.030631203, 0.59666526, -477480.1, -233527.1, 0.0, 9.997023, 9.999835 
2.0647508e+3, 2.8511322e+2, -615374.44, -296733.16, -6690.4873, -0.043933824, 0.5955919, -296592.72, -150642.6, 0.0, 9.99646, 10.000673 
2.0647112e+3, 2.9511434e+2, -580065.06, -232565.16, -10162.136, -0.06980738, 0.6436252, -232268.23, -184332.03, 0.0, 9.996046, 10.000641 
2.0646724e+3, 3.051135e+2, -599566.4, -189477.7, -12228.381, -0.018471634, 0.4936046, -189113.39, -189113.39, 0.0, 9.995459, 10.000885 
2.0646328e+3, 3.1511557e+2, -629922.9, -61075.707, 22788.61, -0.041971315, 0.61880285, -60164.234, -60164.234, 0.0, 9.994635, 10.002164 
2.0753758e+3, 1.2517154e+2, -1121942.9, -1752409.3, 33281.566, 0.14871854, 0.5439461, -1120190.8, 593182.56, 0.13985096, 10.006325, 9.996698 
2.0753354e+3, 1.3516901e+2, -984770.3, -1593854.0, -16107.394, 0.09191555, 0.571603, -984344.6, 631052.94, 0.10042805, 10.006173, 9.997202 
2.0752954e+3, 1.4516562e+2, -917821.4, -1492580.5, 10883.746, 0.025591379, 0.51071995, -917615.3, 599815.3, 0.060418915, 10.0056, 9.997494 
2.0752566e+3, 1.5516344e+2, -948113.1, -1478596.4, 12501.39, 0.05739527, 0.5497663, -947818.7, 471633.4, 0.028100062, 10.004598, 9.997389 
2.075218e+3, 1.6516119e+2, -921905.3, -1381140.6, 32785.414, 0.06324948, 0.5830721, -919576.56, 401899.53, 0.008852614, 10.003868, 9.997737 
2.0751795e+3, 1.7515907e+2, -890587.25, -1321041.1, 26161.22, 0.033332452, 0.6000404, -889003.1, 334497.2, 0.001359787, 10.0034075, 9.997699 
2.0751406e+3, 1.8515731e+2, -803749.7, -1092370.3, 3504.2954, 0.021496894, 0.6074545, -803707.1, 321811.97, 0.000027570592, 10.002741, 9.998917 
2.0751017e+3, 1.951562e+2, -835983.2, -1063806.5, 6618.7017, 0.029944923, 0.6073429, -835791.06, 191738.53, 0.0, 10.001874, 9.9988575 
2.075063e+3, 2.0515527e+2, -808734.3, -941285.56, 9874.83, 0.022749588, 0.6166639, -808002.7, 121536.5, 0.0, 10.001135, 9.999383 
2.075024e+3, 2.1515477e+2, -804728.06, -895528.1, 7293.4766, -0.000021203197, 0.6312558, -804145.94, 27399.195, 0.0, 10.00052, 9.999321 
2.0749846e+3, 2.2515418e+2, -781151.6, -809495.75, -11915.354, -0.013248657, 0.64265335, -776808.2, -43255.957, 0.0, 9.999905, 9.999535 
2.0749453e+3, 2.3515375e+2, -776877.5, -763272.56, -12682.427, -0.017245332, 0.64966804, -755683.44, -120125.9, 0.0, 9.9992895, 9.9994755 
2.074906e+3, 2.4515335e+2, -736868.7, -663509.9, -20903.123, -0.016879141, 0.66354436, -657971.75, -120409.9, 0.0, 9.998764, 9.999741 
2.0748667e+3, 2.5515324e+2, -706784.75, -604087.75, -24249.877, -0.013272236, 0.68048495, -598649.56, -159087.05, 0.0, 9.998323, 9.999688 
2.074827e+3, 2.6515272e+2, -662369.75, -482308.22, -36381.582, -0.014349383, 0.6529226, -475235.13, -133668.95, 0.0, 9.997743, 10.000131 
2.0747872e+3, 2.7515212e+2, -672820.7, -443208.16, -27352.734, -0.018410422, 0.58419675, -439994.72, -196425.05, 0.0, 9.997026, 10.000071 
2.0747471e+3, 2.851523e+2, -616563.3, -301699.47, -22473.168, -0.03958182, 0.57927287, -300103.56, -154537.5, 0.0, 9.996467, 10.000639 
2.074707e+3, 2.9515338e+2, -581807.8, -242133.67, -25596.938, -0.08087259, 0.62643766, -240215.6, -192662.17, 0.0, 9.996066, 10.000567 
2.0746675e+3, 3.0515265e+2, -617462.5, -231785.75, -44372.375, -0.032452956, 0.5113344, -226746.52, -226746.52, 0.0, 9.995477, 10.000588 
2.0746274e+3, 3.1515396e+2, -600746.3, -1554.6904, -24468.096, -0.038769428, 0.58312345, -557.1919, -557.1919, 0.0, 9.994635, 10.002575 
2.085382e+3, 1.2521152e+2, -1055117.0, -1728905.3, 62848.184, 0.12749149, 0.5337244, -1049304.9, 663676.3, 0.1441912, 10.006952, 9.99656 
2.0853415e+3, 1.3520898e+2, -990066.2, -1598531.0, 27569.254, 0.09218096, 0.5637403, -988819.6, 626186.4, 0.10372235, 10.006169, 9.997167 
2.0853008e+3, 1.4520566e+2, -923615.8, -1505860.9, 46466.582, 0.02232442, 0.51859236, -919930.9, 597107.7, 0.062590376, 10.005622, 9.997384 
2.0852615e+3, 1.5520339e+2, -861196.5, -1447121.8, 37169.63, 0.044109277, 0.5590821, -858847.94, 560213.4, 0.029271182, 10.005272, 9.997278 
2.0852222e+3, 1.6520102e+2, -835491.5, -1341663.8, 50971.74, 0.052180372, 0.5894802, -830409.7, 490676.66, 0.009323759, 10.004484, 9.997709 
2.0851828e+3, 1.7519882e+2, -909629.56, -1333159.9, 53201.063, 0.035011988, 0.60171825, -903049.06, 320062.06, 0.0014735399, 10.003293, 9.997668 
2.0851433e+3, 1.8519704e+2, -845361.6, -1115731.3, 35658.734, 0.026565172, 0.6100542, -840737.75, 284392.4, 0.000033957902, 10.002472, 9.998884 
2.0851037e+3, 1.9519596e+2, -820874.3, -1059629.6, 28147.69, 0.030238418, 0.61552334, -817600.8, 209539.84, 0.0, 10.001995, 9.998826 
2.0850642e+3, 2.05195e+2, -781276.0, -933440.6, 24216.408, 0.022624865, 0.6276194, -777515.0, 151635.56, 0.0, 10.001351, 9.9993305 
2.0850244e+3, 2.1519445e+2, -803956.06, -900653.4, 20619.613, 0.0031754663, 0.64259714, -799742.75, 31414.578, 0.0, 10.000553, 9.999268 
2.0849846e+3, 2.2519381e+2, -778300.44, -804384.44, 8118.8584, -0.009902292, 0.65360314, -775979.9, -42815.32, 0.0, 9.999913, 9.999564 
2.0849445e+3, 2.351934e+2, -756541.1, -750230.0, 9724.641, -0.016710337, 0.65919745, -743161.75, -107992.48, 0.0, 9.99942, 9.9995 
2.0849048e+3, 2.4519295e+2, -727554.9, -655041.56, 6630.395, -0.017546391, 0.6653062, -654440.25, -117266.414, 0.0, 9.998816, 9.999771 
2.0848647e+3, 2.5519273e+2, -735728.8, -614103.06, 11391.295, -0.013300668, 0.66974074, -613045.4, -173869.92, 0.0, 9.998112, 9.999719 
2.0848244e+3, 2.6519233e+2, -686439.4, -476279.63, -2393.232, -0.014325759, 0.64434665, -476252.38, -135074.63, 0.0, 9.997506, 10.000283 
2.0847839e+3, 2.7519205e+2, -667790.56, -423634.44, -504.33563, -0.018971598, 0.58987707, -423633.4, -180455.45, 0.0, 9.996992, 10.000219 
2.0847434e+3, 2.8519216e+2, -623172.4, -308884.44, 5132.203, -0.038812548, 0.576904, -308800.66, -163625.8, 0.0, 9.996443, 10.000599 
2.0847028e+3, 2.9519296e+2, -620250.1, -267737.16, 1255.3511, -0.07698745, 0.59876907, -267732.7, -220566.72, 0.0, 9.995837, 10.0005 
2.0846629e+3, 3.0519277e+2, -641002.5, -242640.39, -10438.489, -0.03319334, 0.54590654, -242367.05, -242367.05, 0.0, 9.995317, 10.000588 
2.0846221e+3, 3.1519353e+2, -553526.0, 40963.89, 17872.479, -0.040167134, 0.5616761, 41500.72, 41500.72, 0.0, 9.994878, 10.002748 
2.0953882e+3, 1.252524e+2, -1061140.5, -1737413.3, 28607.488, 0.057612553, 0.53046596, -1059932.5, 652647.9, 0.14850299, 10.006959, 9.996495 
2.0953476e+3, 1.352498e+2, -988507.25, -1596085.0, 1014.2752, 0.10637179, 0.5532102, -988505.56, 626099.94, 0.1070137, 10.006191, 9.997177 
2.0953067e+3, 1.452465e+2, -939882.1, -1543566.9, 34052.383, 0.045340095, 0.5249385, -937967.44, 578670.75, 0.06477426, 10.005639, 9.997115 
2.0952664e+3, 1.5524401e+2, -879504.2, -1485309.4, 23891.672, 0.01793803, 0.56921977, -878563.4, 540100.94, 0.030458448, 10.00527, 9.99702 
2.0952263e+3, 1.6524152e+2, -830657.44, -1331166.3, 6660.0986, 0.021559535, 0.59747225, -830568.9, 490121.53, 0.009807781, 10.00448, 9.997786 
2.095186e+3, 1.7523937e+2, -902888.1, -1322989.5, 9228.137, 0.03989241, 0.6048899, -902685.56, 320028.44, 0.0015943085, 10.003305, 9.997735 
2.0951457e+3, 1.8523753e+2, -855079.7, -1140228.5, 18135.42, 0.037858967, 0.6152665, -853930.9, 270802.38, 0.000041748957, 10.002486, 9.998712 
2.0951056e+3, 1.9523634e+2, -832040.8, -1085078.5, 10595.021, 0.022674982, 0.6279496, -831597.94, 195147.75, 0.0, 10.002001, 9.9986515 
2.0950654e+3, 2.0523536e+2, -785535.8, -944170.4, -5006.8125, 0.013080335, 0.6493211, -785377.94, 143378.7, 0.0, 10.001355, 9.999257 
2.0950249e+3, 2.1523485e+2, -807853.4, -911174.44, -8168.1504, 0.00611357, 0.67572576, -807211.6, 23551.76, 0.0, 10.000559, 9.999194 
2.0949844e+3, 2.2523421e+2, -773308.56, -796585.44, -9579.563, -0.0020561132, 0.6863245, -769873.2, -37102.71, 0.0, 9.99992, 9.999617 
2.0949441e+3, 2.3523374e+2, -751590.44, -742756.0, -8165.046, -0.010238987, 0.68053097, -737889.94, -103114.914, 0.0, 9.999428, 9.99955 
2.0949036e+3, 2.4523315e+2, -716893.1, -635781.75, -19517.016, -0.015851097, 0.665891, -631329.94, -94549.92, 0.0, 9.998823, 9.999903 
2.0948628e+3, 2.552328e+2, -725854.0, -595683.94, -14847.162, -0.019968566, 0.64250946, -594011.94, -155229.6, 0.0, 9.9981165, 9.9998455 
2.0948218e+3, 2.6523256e+2, -682952.94, -471079.2, -21869.268, -0.026601847, 0.62800926, -468845.4, -128062.73, 0.0, 9.99751, 10.0003195 
2.0947808e+3, 2.7523276e+2, -663554.8, -417935.63, -19915.52, -0.03386584, 0.61592555, -416331.3, -173552.61, 0.0, 9.997001, 10.000257 
2.0947397e+3, 2.8523272e+2, -626076.4, -317772.13, -18868.967, -0.041899577, 0.5898842, -316621.6, -171844.05, 0.0, 9.99645, 10.000536 
2.0946987e+3, 2.9523292e+2, -624728.3, -278415.97, -23498.854, -0.055852428, 0.55882126, -276828.72, -230053.47, 0.0, 9.995839, 10.000428 
2.0946582e+3, 3.0523384e+2, -619657.2, -200284.23, -27328.531, -0.0194689, 0.59972537, -198510.88, -198510.88, 0.0, 9.995321, 10.000879 
2.0946169e+3, 3.1523457e+2, -558948.0, 23936.455, -7220.6675, -0.04872228, 0.5857644, 24025.889, 24025.889, 0.0, 9.994898, 10.002624 
2.105395e+3, 1.2529391e+2, -1050878.0, -1741951.4, 34613.484, 0.04524676, 0.5437366, -1049148.8, 663025.4, 0.15277338, 10.007126, 9.996383 
2.105354e+3, 1.352912e+2, -931892.6, -1574047.9, 10086.591, 0.09086517, 0.5620754, -931734.25, 682465.8, 0.1102859, 10.006681, 9.997108 
2.1053122e+3, 1.4528792e+2, -906157.0, -1540219.9, 41675.59, 0.03522812, 0.5447901, -903429.5, 612803.44, 0.06695186, 10.005966, 9.996979 
2.1052715e+3, 1.552851e+2, -929442.4, -1524171.8, 38941.324, 0.021861967, 0.5739036, -926903.44, 491358.8, 0.0316454, 10.004986, 9.996888 
2.1052305e+3, 1.6528255e+2, -862636.7, -1344344.5, 18171.205, 0.023359569, 0.5979484, -861952.2, 458337.1, 0.010295013, 10.004253, 9.997803 
2.1051894e+3, 1.7528045e+2, -837007.06, -1288943.6, 16309.184, 0.026290262, 0.61216503, -836419.25, 385892.4, 0.0017189487, 10.003754, 9.99775 
2.1051484e+3, 1.8527862e+2, -783453.75, -1116281.6, 30006.002, 0.024361944, 0.6267731, -780770.2, 343560.8, 0.000050741073, 10.003028, 9.998612 
2.1051076e+3, 1.9527735e+2, -824861.5, -1092341.5, 27065.576, 0.022100093, 0.6413125, -822150.3, 204194.4, 0.0, 10.0021, 9.998551 
2.1050666e+3, 2.052763e+2, -796830.0, -958436.3, 12670.89, 0.015922857, 0.6654143, -795842.56, 132514.14, 0.0, 10.00132, 9.999174 
2.1050254e+3, 2.1527572e+2, -797162.94, -914627.44, 7913.9653, 0.004594092, 0.69511443, -796632.2, 33732.246, 0.0, 10.000673, 9.999113 
2.1049844e+3, 2.2527508e+2, -762314.25, -779149.44, 10496.979, -0.0022378073, 0.7042774, -757276.6, -24905.23, 0.0, 9.999948, 9.999721 
2.1049434e+3, 2.3527466e+2, -785180.94, -747334.7, 15185.484, -0.004223393, 0.69335234, -741995.0, -107620.09, 0.0, 9.999152, 9.999649 
2.1049021e+3, 2.4527408e+2, -747335.0, -638471.5, 7388.886, -0.009334932, 0.66901964, -637972.25, -101592.88, 0.0, 9.998568, 10.000005 
2.1048608e+3, 2.5527367e+2, -711972.8, -577961.06, 9340.17, -0.01825434, 0.6319055, -577313.2, -138931.48, 0.0, 9.998169, 9.99994 
2.1048193e+3, 2.6527357e+2, -669951.75, -465677.34, -2360.5652, -0.026054714, 0.6244058, -465650.1, -125268.945, 0.0, 9.997607, 10.000307 
2.1047775e+3, 2.7527395e+2, -678547.8, -426306.38, -4430.9937, -0.03066568, 0.636452, -426228.56, -183853.0, 0.0, 9.996907, 10.000242 
2.1047363e+3, 2.852739e+2, -647769.7, -329166.97, -2578.786, -0.03414251, 0.60889244, -329146.1, -184771.1, 0.0, 9.99631, 10.000524 
2.1046945e+3, 2.952739e+2, -630584.44, -280608.72, -3447.9175, -0.04221505, 0.5593864, -280574.75, -234200.11, 0.0, 9.9958, 10.00043 
2.1046536e+3, 3.0527502e+2, -587090.8, -153468.05, 3320.7551, -0.016100207, 0.611738, -153442.63, -153442.63, 0.0, 9.995415, 10.001153 
2.1046115e+3, 3.1527594e+2, -550468.06, -6468.925, 11808.943, -0.05618847, 0.5880036, -6212.701, -6212.701, 0.0, 9.99511, 10.00231 
2.1154025e+3, 1.2533605e+2, -1061422.5, -1765336.6, 11941.321, 0.07986702, 0.5676473, -1061220.0, 650542.44, 0.15698782, 10.007145, 9.996213 
2.11536e+3, 1.3533323e+2, -942460.06, -1593395.3, -4966.9385, 0.048297815, 0.5886055, -942422.1, 671367.4, 0.11351122, 10.006688, 9.996959 
2.1153176e+3, 1.4532991e+2, -909397.3, -1546127.3, 7280.8926, -0.004046503, 0.57741016, -909314.1, 606508.4, 0.0690939, 10.005969, 9.996938 
2.1152766e+3, 1.5532672e+2, -931176.25, -1529799.1, 3457.9995, 0.05266783, 0.5732328, -931156.25, 486698.94, 0.032811027, 10.004994, 9.996847 
2.1152349e+3, 1.6532405e+2, -864621.7, -1351127.0, -120.23087, 0.053483237, 0.59085786, -864621.7, 455261.53, 0.010774927, 10.004262, 9.997754 
2.1151926e+3, 1.7532209e+2, -839671.75, -1296032.8, -2264.9827, -0.005204681, 0.62312675, -839660.56, 382243.9, 0.0018440009, 10.003756, 9.997704 
2.1151508e+3, 1.8532029e+2, -786034.6, -1122964.0, -4475.3623, -0.012539066, 0.64463156, -785975.25, 337948.38, 0.000060592425, 10.00303, 9.998569 
2.1151096e+3, 1.9531892e+2, -826882.7, -1099071.5, -6873.1763, 0.02834342, 0.6559629, -826709.2, 199228.72, 0.0, 10.002107, 9.998505 
2.1150678e+3, 2.0531775e+2, -803195.25, -974292.9, -10752.982, 0.03061239, 0.6757242, -802522.06, 125429.24, 0.0, 10.001327, 9.999064 
2.1150258e+3, 2.1531703e+2, -803431.44, -929643.06, -15415.786, -0.0019542763, 0.7003494, -801575.8, 28385.264, 0.0, 10.000677, 9.999011 
2.1149841e+3, 2.2531638e+2, -751840.1, -759615.94, -18626.146, -0.011052803, 0.70767194, -736700.44, -4732.3784, 0.0, 9.999952, 9.999854 
2.1149424e+3, 2.353161e+2, -774900.75, -728220.6, -13671.736, 0.0011298248, 0.6977369, -724511.2, -90541.47, 0.0, 9.999157, 9.99978 
2.1149006e+3, 2.4531563e+2, -742362.5, -630507.9, -7027.3213, 0.0021932693, 0.6745694, -630068.1, -94095.24, 0.0, 9.998573, 10.000059 
2.1148589e+3, 2.553153e+2, -707001.44, -571040.2, -5827.1543, -0.007786677, 0.6389162, -570790.9, -132816.6, 0.0, 9.9981785, 9.999985 
2.1148169e+3, 2.6531518e+2, -674286.0, -478059.22, -29576.818, -0.011893949, 0.63480145, -473698.1, -133724.08, 0.0, 9.997618, 10.000219 
2.1147746e+3, 2.7531552e+2, -683918.94, -439449.2, -31815.178, -0.008489414, 0.651492, -435376.63, -193406.78, 0.0, 9.996911, 10.000153 
2.1147327e+3, 2.8531554e+2, -644719.4, -324998.34, -23036.049, -0.015344332, 0.63431853, -323347.1, -179378.63, 0.0, 9.996315, 10.000552 
2.1146904e+3, 2.9531577e+2, -623714.7, -270251.1, -23520.18, -0.0372717, 0.60272926, -268692.9, -222727.83, 0.0, 9.995812, 10.000498 
2.1146487e+3, 3.0531633e+2, -568846.7, -119675.78, -9676.308, -0.024362614, 0.5791104, -119467.43, -119467.43, 0.0, 9.995428, 10.001381 
2.1146066e+3, 3.1531784e+2, -584520.9, -80924.37, -7732.3228, -0.060904592, 0.59933764, -80805.67, -80805.67, 0.0, 9.995121, 10.001795 
2.1254097e+3, 1.2537853e+2, -1012722.8, -1736022.6, 15520.942, 0.068427585, 0.58077943, -1012389.94, 698956.94, 0.1611085, 10.007576, 9.996204 
2.1253666e+3, 1.353755e+2, -935132.3, -1591189.9, 12288.398, 0.04018607, 0.5855635, -934902.25, 678473.4, 0.11664374, 10.00678, 9.996929 
2.1253234e+3, 1.4537229e+2, -909680.3, -1544190.8, 21389.23, -0.0085438555, 0.58433855, -908960.06, 606447.44, 0.07116158, 10.005976, 9.996946 
2.1252815e+3, 1.5536903e+2, -908484.94, -1516962.9, 21020.166, 0.042723183, 0.57294476, -907759.7, 509680.9, 0.033932224, 10.005159, 9.996854 
2.1252392e+3, 1.6536628e+2, -853650.3, -1355937.4, 26624.986, 0.046607494, 0.5872285, -852242.94, 467226.56, 0.011237275, 10.004389, 9.997657 
2.1251963e+3, 1.7536423e+2, -861082.5, -1316354.1, 19795.816, -0.0011336027, 0.6215168, -860223.4, 361268.5, 0.0019659628, 10.003656, 9.997609 
2.1251538e+3, 1.8536241e+2, -801813.9, -1131387.8, 9556.297, -0.0081818225, 0.6477519, -801537.0, 321974.4, 0.000070876886, 10.002929, 9.998557 
2.1251118e+3, 1.953611e+2, -812632.1, -1093096.8, 8802.267, 0.023895886, 0.6649931, -812356.1, 213169.4, 0.0, 10.002213, 9.998492 
2.1250694e+3, 2.053599e+2, -787397.1, -961149.3, 13436.637, 0.025977427, 0.68234736, -786364.2, 141174.8, 0.0, 10.001415, 9.999109 
2.1250266e+3, 2.1535914e+2, -820036.7, -932549.75, 19306.766, 0.00036761825, 0.6983237, -816815.94, 12732.92, 0.0, 10.000546, 9.999052 
2.1249838e+3, 2.2535852e+2, -762081.7, -760584.1, 20645.559, -0.008660219, 0.70589185, -740673.75, -9118.22, 0.0, 9.999869, 9.999886 
2.1249416e+3, 2.3535834e+2, -743828.5, -709748.94, 17249.12, -0.0019014801, 0.70333284, -702542.4, -68985.664, 0.0, 9.999359, 9.999807 
2.1248995e+3, 2.4535798e+2, -714510.8, -608343.56, 23990.115, 0.0029883184, 0.68699664, -603174.3, -67615.54, 0.0, 9.998731, 10.0001335 
2.1248572e+3, 2.5535777e+2, -728179.25, -573507.1, 25879.498, 0.0045910664, 0.65814656, -569291.9, -131733.22, 0.0, 9.998005, 10.000049 
2.1248144e+3, 2.6535758e+2, -704782.9, -498696.4, 3378.834, 0.0007630778, 0.64641947, -498641.0, -159081.81, 0.0, 9.997438, 10.000162 
2.1247718e+3, 2.7535766e+2, -675449.8, -441760.9, 3180.71, -0.0050516813, 0.6436012, -441717.63, -200159.75, 0.0, 9.997001, 10.000091 
2.124729e+3, 2.8535783e+2, -628121.56, -315314.84, 11627.683, -0.01271208, 0.6419534, -314883.2, -171327.9, 0.0, 9.996426, 10.000564 
2.1246862e+3, 2.9535845e+2, -630341.56, -269142.9, 10184.575, -0.028446794, 0.65306926, -268855.97, -223308.66, 0.0, 9.995753, 10.000531 
2.1246438e+3, 3.0535814e+2, -601927.0, -139580.5, 17801.678, -0.03183208, 0.5434428, -138896.1, -138896.1, 0.0, 9.995224, 10.001341 
2.1246016e+3, 3.1536016e+2, -644984.3, -117723.72, -3081.0032, -0.05703277, 0.6205918, -117705.71, -117705.71, 0.0, 9.994742, 10.001723 
2.1354167e+3, 1.2542139e+2, -1010515.56, -1721895.4, -16228.3125, 0.01774269, 0.5809031, -1010145.56, 700781.7, 0.16507529, 10.007568, 9.996307 
2.1353735e+3, 1.3541812e+2, -934009.56, -1585665.9, -13784.405, 0.061937287, 0.5568785, -933718.1, 679239.8, 0.11963316, 10.006783, 9.996973 
2.1353295e+3, 1.4541507e+2, -907069.25, -1537957.1, -7046.097, 0.015877925, 0.5688306, -906990.56, 607997.25, 0.07312058, 10.005981, 9.996988 
2.1352862e+3, 1.5541202e+2, -905633.1, -1512047.1, -8550.548, -0.0044594053, 0.57341, -905512.56, 511506.0, 0.034990776, 10.005165, 9.996886 
2.1352431e+3, 1.6540919e+2, -864087.5, -1379591.8, -204.85889, 0.0067421165, 0.58710307, -864087.4, 454960.94, 0.01167402, 10.004394, 9.997495 
2.1352002e+3, 1.7540684e+2, -871203.44, -1339280.0, -7150.9785, 0.035946537, 0.6081986, -871094.2, 349980.0, 0.0020817218, 10.00366, 9.997452 
2.1351573e+3, 1.8540499e+2, -800709.5, -1130926.8, -16611.293, 0.03379334, 0.6365998, -799876.0, 323218.7, 0.000081117694, 10.002933, 9.998561 
2.1351138e+3, 1.9540383e+2, -811198.3, -1091793.8, -17304.355, 0.008390829, 0.6683676, -810135.2, 214972.73, 0.0, 10.002215, 9.998503 
2.1350703e+3, 2.0540273e+2, -774407.6, -936061.5, -18312.123, 0.002508296, 0.6856116, -772359.2, 154760.86, 0.0, 10.001419, 9.999282 
2.135027e+3, 2.15402e+2, -807347.2, -908816.06, -11760.334, 0.011600556, 0.68951344, -806001.94, 23126.328, 0.0, 10.000553, 9.999214 
2.1349838e+3, 2.2540143e+2, -767080.94, -773853.9, 2372.616, 0.00480788, 0.698859, -766332.5, -35197.844, 0.0, 9.999878, 9.999793 
2.1349406e+3, 2.3540129e+2, -748360.5, -722195.56, -1339.2258, -0.01411709, 0.7100201, -722127.2, -88990.62, 0.0, 9.999368, 9.999721 
2.134898e+3, 2.4540105e+2, -708135.0, -598116.94, -3141.5818, -0.007834123, 0.7069103, -598027.3, -62889.465, 0.0, 9.998739, 10.000201 
2.1348552e+3, 2.5540105e+2, -722997.2, -564828.6, -1098.0264, 0.018527186, 0.6903349, -564821.0, -127685.47, 0.0, 9.99801, 10.000109 
2.134812e+3, 2.6540068e+2, -706293.56, -504052.53, -13313.634, 0.011405077, 0.6585817, -503179.84, -164042.2, 0.0, 9.997443, 10.000126 
2.1347684e+3, 2.7540028e+2, -676146.5, -447377.78, -14414.028, -0.022051606, 0.61032045, -446473.2, -205332.4, 0.0, 9.997014, 10.000049 
2.1347252e+3, 2.8540057e+2, -628825.0, -320875.44, -15201.054, -0.027997922, 0.630216, -320126.9, -176990.38, 0.0, 9.996439, 10.000522 
2.1346821e+3, 2.9540187e+2, -632180.5, -275133.3, -15208.818, -0.016982378, 0.71132207, -274486.66, -229364.23, 0.0, 9.995758, 10.00049 
2.1346389e+3, 3.0540043e+2, -624352.9, -186710.98, -2151.6118, -0.03928863, 0.504009, -186700.4, -186700.4, 0.0, 9.995222, 10.0010195 
2.1345964e+3, 3.154026e+2, -614765.44, -54997.574, -24246.44, -0.041608438, 0.63051283, -53949.297, -53949.297, 0.0, 9.994738, 10.002159 
2.145424e+3, 1.25465e+2, -1029636.2, -1726223.4, 12326.413, 0.011825604, 0.56604534, -1029418.1, 681081.2, 0.16883019, 10.00742, 9.996347 
2.1453801e+3, 1.3546176e+2, -935744.7, -1588928.3, 16400.613, 0.046907548, 0.5490076, -935333.2, 677197.06, 0.12244356, 10.006807, 9.996934 
2.1453357e+3, 1.4545882e+2, -898718.1, -1536815.8, 14509.991, 0.011009674, 0.575792, -898388.4, 616170.94, 0.074950606, 10.006075, 9.996948 
2.1452913e+3, 1.5545571e+2, -899121.25, -1511449.9, 7594.5967, -0.004207896, 0.578114, -899027.06, 517563.6, 0.035975333, 10.005234, 9.996855 
2.1452473e+3, 1.6545281e+2, -865377.9, -1381470.8, 20596.922, 0.011909012, 0.5875851, -864557.2, 454063.9, 0.012079138, 10.004397, 9.997478 
2.1452038e+3, 1.7545038e+2, -885359.5, -1347860.6, 23270.01, 0.04793449, 0.6030089, -884191.6, 336456.03, 0.002188729, 10.003576, 9.997431 
2.1451598e+3, 1.8544853e+2, -818255.1, -1139695.1, 19821.77, 0.04239986, 0.6354925, -817037.44, 305630.8, 0.00009083706, 10.002818, 9.998553 
2.1451157e+3, 1.9544747e+2, -827249.44, -1099764.6, 16957.125, 0.0040435684, 0.67969036, -826198.3, 198482.61, 0.0, 10.002111, 9.998495 
2.1450715e+3, 2.054464e+2, -767925.9, -923605.56, 9268.185, -0.0052112085, 0.6966838, -767376.06, 159316.56, 0.0, 10.001429, 9.999361 
2.1450275e+3, 2.1544565e+2, -771633.5, -883549.56, 8201.428, 0.009329748, 0.68969554, -771035.7, 57664.863, 0.0, 10.000768, 9.999282 
2.1449837e+3, 2.2544506e+2, -744437.7, -769039.75, 24776.422, 0.0047994494, 0.69862086, -729076.75, 1630.3824, 0.0, 10.000064, 9.999734 
2.1449399e+3, 2.3544495e+2, -759270.0, -733464.56, 22719.928, -0.015216402, 0.71865034, -720239.2, -87529.586, 0.0, 9.999324, 9.999661 
2.1448965e+3, 2.4544476e+2, -712804.4, -599542.94, 19099.426, -0.01061925, 0.72435725, -596408.9, -61698.117, 0.0, 9.998709, 10.000205 
2.144853e+3, 2.5544482e+2, -696336.5, -551418.44, 15938.636, 0.014040219, 0.7157609, -549686.1, -112978.27, 0.0, 9.998194, 10.000111 
2.1448094e+3, 2.654444e+2, -683886.4, -484734.2, 7720.332, 0.006255097, 0.6735918, -484435.34, -145725.03, 0.0, 9.997564, 10.000198 
2.1447651e+3, 2.7544382e+2, -697030.5, -449285.06, 14681.168, -0.026596837, 0.6017962, -448418.1, -207703.8, 0.0, 9.9968405, 10.000116 
2.1447214e+3, 2.8544417e+2, -648162.94, -329055.8, 21356.605, -0.025441796, 0.6239694, -327632.84, -184923.38, 0.0, 9.996305, 10.000527 
2.144678e+3, 2.9544565e+2, -609338.7, -266324.3, 25013.605, -0.003977959, 0.7225186, -264509.84, -219815.61, 0.0, 9.995928, 10.000466 
2.144634e+3, 3.0544406e+2, -640498.4, -223457.53, 32274.385, -0.04958146, 0.5187607, -220974.64, -220974.64, 0.0, 9.99524, 10.000756 
2.1445908e+3, 3.1544593e+2, -643948.2, -6977.3154, 21673.268, -0.02554484, 0.63780975, -6240.723, -6240.723, 0.0, 9.994276, 10.002708 
2.1554317e+3, 1.2550937e+2, -1035515.4, -1732482.6, -12372.404, 0.04152147, 0.53757197, -1035295.8, 674767.5, 0.1723433, 10.007409, 9.996311 
2.1553862e+3, 1.3550639e+2, -946641.6, -1607124.0, -4543.7285, -0.0011662558, 0.55950546, -946610.4, 665482.56, 0.12506066, 10.006801, 9.996797 
2.1553414e+3, 1.4550346e+2, -907952.3, -1555629.1, -14887.288, -0.019372966, 0.60211927, -907610.3, 606512.2, 0.07664395, 10.006072, 9.996822 
2.1552968e+3, 1.5550004e+2, -906395.06, -1527555.3, -22716.572, 0.038681485, 0.5863199, -905565.4, 510591.63, 0.03687943, 10.005235, 9.996746 
2.1552522e+3, 1.6549706e+2, -857908.6, -1367246.5, -9595.035, 0.05660509, 0.58848137, -857727.94, 460459.97, 0.0124482075, 10.0044, 9.997576 
2.1552072e+3, 1.7549476e+2, -877867.44, -1334475.5, -6814.9233, 0.03587082, 0.6054596, -877765.75, 342447.03, 0.0022851874, 10.003582, 9.997523 
2.1551625e+3, 1.8549299e+2, -820122.44, -1146156.1, -6003.8086, 0.020015825, 0.6442639, -820011.94, 302220.6, 0.00009963724, 10.002825, 9.9985075 
2.1551177e+3, 1.95492e+2, -828785.2, -1105786.1, -8850.881, 0.0104416665, 0.6988172, -828502.7, 195742.4, 0.0, 10.002119, 9.998452 
2.155073e+3, 2.0549089e+2, -768782.0, -928117.8, -14775.241, 0.0016565557, 0.71513426, -767423.5, 158833.81, 0.0, 10.001435, 9.999329 
2.1550281e+3, 2.1549e+2, -773063.7, -888674.44, -15605.252, -0.0069868877, 0.69843274, -770994.3, 57271.96, 0.0, 10.000772, 9.999247 
2.1549836e+3, 2.2548936e+2, -746808.1, -776252.5, -2142.7717, -0.008812857, 0.70520115, -746653.06, -16379.483, 0.0, 10.000069, 9.999684 
2.1549392e+3, 2.3548923e+2, -761617.25, -740994.6, -4030.4148, -0.004782638, 0.7293726, -740234.94, -107958.38, 0.0, 9.9993305, 9.999609 
2.154895e+3, 2.4548903e+2, -716865.56, -611010.94, 115.94746, -0.005385799, 0.7390649, -611010.8, -76732.38, 0.0, 9.998716, 10.000125 
2.1548511e+3, 2.5548905e+2, -699370.3, -561691.7, -3831.106, -0.01077393, 0.73406017, -561585.2, -125308.6, 0.0, 9.998206, 10.000036 
2.1548067e+3, 2.6548865e+2, -669781.75, -459157.78, -20425.21, -0.016135516, 0.69198525, -457195.34, -118917.25, 0.0, 9.997576, 10.000371 
2.154762e+3, 2.7548826e+2, -684709.0, -425646.72, -13098.994, -0.017808111, 0.61951876, -424986.1, -184706.81, 0.0, 9.996844, 10.000279 
2.1547177e+3, 2.8548852e+2, -644068.75, -322219.72, 6152.766, -0.003522827, 0.62342197, -322102.13, -179827.08, 0.0, 9.996308, 10.000575 
2.1546738e+3, 2.9548967e+2, -608215.3, -267774.22, 9492.738, 0.010806314, 0.68368936, -267509.72, -223245.88, 0.0, 9.99594, 10.000454 
2.154629e+3, 3.05489e+2, -654468.06, -256034.47, -5680.561, -0.06329563, 0.59093744, -255953.5, -255953.5, 0.0, 9.99525, 10.000531 
2.1545853e+3, 3.1548998e+2, -603360.25, 76681.555, -3237.342, -0.01933196, 0.6367525, 76696.97, 76696.97, 0.0, 9.994273, 10.003287 
2.1654385e+3, 1.2555465e+2, -1072099.9, -1758027.0, 1442.5182, 0.025526147, 0.54687196, -1072096.8, 637522.44, 0.17560998, 10.0071535, 9.996257 
2.1653928e+3, 1.3555148e+2, -980539.7, -1640207.3, 11671.569, -0.006156163, 0.56434745, -980333.2, 631318.3, 0.12748027, 10.006621, 9.996649 
2.1653472e+3, 1.455485e+2, -922895.44, -1556913.8, -718.8139, -0.008389672, 0.6069326, -922894.6, 590787.3, 0.07819569, 10.005948, 9.996871 
2.165302e+3, 1.5554515e+2, -914112.1, -1525430.9, 2191.255, 0.0439156, 0.5934463, -914104.3, 501611.34, 0.037697952, 10.005163, 9.996793 
2.1652563e+3, 1.6554222e+2, -855493.6, -1361971.1, 18985.244, 0.05667262, 0.5973158, -854783.0, 462962.88, 0.012777853, 10.004406, 9.997606 
2.1652107e+3, 1.7553993e+2, -862953.06, -1323562.1, 16466.8, 0.03244222, 0.61500925, -862365.1, 357405.1, 0.0023697712, 10.003674, 9.99755 
2.1651652e+3, 1.8553813e+2, -805571.3, -1143041.0, 16892.658, 0.016239688, 0.6495802, -804727.9, 317062.44, 0.00010718182, 10.002947, 9.998467 
2.16512e+3, 1.9553699e+2, -815855.56, -1103923.0, 13512.455, 0.008492708, 0.6961618, -815223.1, 208580.89, 0.0, 10.002232, 9.998408 
2.1650742e+3, 2.0553583e+2, -762374.3, -930700.0, 6371.719, 0.00019719638, 0.71271414, -762133.44, 163683.44, 0.0, 10.001509, 9.999273 
2.1650288e+3, 2.1553494e+2, -776424.9, -895951.4, 2751.3384, -0.0091349585, 0.70272213, -776361.56, 51464.56, 0.0, 10.000779, 9.999191 
2.1649836e+3, 2.255343e+2, -747052.7, -779194.5, 15336.187, -0.008672945, 0.7145311, -740909.4, -11075.751, 0.0, 10.000085, 9.999654 
2.1649387e+3, 2.3553418e+2, -751452.3, -739528.0, 14754.786, 0.0006339551, 0.7424833, -729576.3, -97739.55, 0.0, 9.99942, 9.999574 
2.1648937e+3, 2.455339e+2, -717393.4, -614033.6, 24619.234, -0.0021841687, 0.7494378, -608469.1, -74629.625, 0.0, 9.998729, 10.000095 
2.1648489e+3, 2.555338e+2, -728441.1, -577715.0, 24052.436, -0.016941553, 0.73719525, -573969.9, -138130.81, 0.0, 9.99802, 10.000013 
2.1648039e+3, 2.6553354e+2, -694144.0, -460314.16, 3366.0383, -0.023146242, 0.7042109, -460265.72, -122426.43, 0.0, 9.997367, 10.000462 
2.1647587e+3, 2.7553344e+2, -692070.1, -419832.9, 4975.945, -0.016677313, 0.65299964, -419741.97, -179904.83, 0.0, 9.996757, 10.0003605 
2.164714e+3, 2.8553355e+2, -657740.2, -327651.56, 27764.371, 0.0029470993, 0.6359231, -325332.53, -183497.98, 0.0, 9.996213, 10.000582 
2.1646696e+3, 2.9553416e+2, -643967.1, -285451.0, 26415.969, 0.016336726, 0.64450216, -283515.06, -239686.45, 0.0, 9.995701, 10.000445 
2.164624e+3, 3.0553454e+2, -678652.4, -249776.61, 11559.343, -0.060616378, 0.64780235, -249465.28, -249465.28, 0.0, 9.99501, 10.000688 
2.1645793e+3, 3.1553486e+2, -602688.5, 84464.21, 55528.61, -0.014836102, 0.6073288, 88922.54, 88922.54, 0.0, 9.994253, 10.003346 
2.1754451e+3, 1.256008e+2, -1079438.4, -1771543.6, -19509.04, -0.03047098, 0.5870804, -1078888.9, 630278.4, 0.17863205, 10.007153, 9.996167 
2.1753997e+3, 1.3559705e+2, -993399.5, -1665936.8, -6503.527, 0.02659968, 0.5636184, -993336.56, 617869.2, 0.1296998, 10.006612, 9.996479 
2.1753535e+3, 1.4559393e+2, -913145.94, -1531928.6, -27701.25, 0.03772926, 0.59304535, -911908.3, 601328.94, 0.07960237, 10.005938, 9.99705 
2.1753067e+3, 1.5559098e+2, -903756.44, -1502367.3, -25859.443, 0.014297634, 0.6000726, -902641.44, 512625.34, 0.038428757, 10.005159, 9.996956 
2.1752602e+3, 1.655882e+2, -858780.44, -1369692.8, -7988.1646, 0.016316269, 0.61359984, -858655.56, 458639.88, 0.01306696, 10.004407, 9.997556 
2.1752143e+3, 1.7558587e+2, -865579.06, -1331104.3, -10620.929, 0.037256308, 0.63096535, -865336.9, 353983.5, 0.002441868, 10.003678, 9.9974985 
2.1751682e+3, 1.8558386e+2, -808050.0, -1150458.5, -9364.241, 0.029145064, 0.65106356, -807794.1, 313547.88, 0.0001132015, 10.002953, 9.998417 
2.1751218e+3, 1.9558242e+2, -819071.06, -1112567.9, -12486.072, -0.0019367514, 0.6724312, -818540.8, 204817.25, 0.0, 10.002235, 9.998349 
2.1750757e+3, 2.0558119e+2, -768463.75, -945541.3, -20091.186, -0.009127942, 0.6904712, -766212.8, 159158.92, 0.0, 10.0015135, 9.999171 
2.1750295e+3, 2.1558043e+2, -782175.3, -910430.06, -23515.273, 0.0026516067, 0.7032631, -777999.75, 49380.89, 0.0, 10.000786, 9.999091 
2.1749836e+3, 2.2557984e+2, -747499.75, -782917.0, -8784.6875, 0.0046080323, 0.7269398, -745440.6, -16052.666, 0.0, 10.000092, 9.999627 
2.174938e+3, 2.3557971e+2, -752168.5, -743741.06, -9651.512, 0.00017860516, 0.75777054, -737423.56, -106032.55, 0.0, 9.999427, 9.999544 
2.1748923e+3, 2.4557933e+2, -715851.4, -613468.25, -2005.7645, -0.0011927835, 0.75504833, -613429.0, -80034.164, 0.0, 9.998735, 10.000098 
2.174847e+3, 2.5557908e+2, -727175.06, -577167.7, -2863.5886, -0.0031432407, 0.7245071, -577113.0, -141716.86, 0.0, 9.998024, 10.000018 
2.1748012e+3, 2.65579e+2, -693790.1, -461565.2, -20040.113, -0.013935811, 0.71005446, -459848.47, -122453.65, 0.0, 9.997371, 10.000453 
2.1747553e+3, 2.7557927e+2, -691633.56, -422080.88, -17872.629, -0.025362369, 0.7027942, -420901.0, -181512.08, 0.0, 9.996765, 10.000343 
2.17471e+3, 2.8557914e+2, -660474.7, -335782.16, 6555.955, -0.008578127, 0.66198564, -335649.8, -194260.77, 0.0, 9.99622, 10.000525 
2.1746653e+3, 2.9557905e+2, -645758.7, -289678.66, 2983.7822, 0.011927, 0.60554314, -289653.66, -246263.97, 0.0, 9.995698, 10.000421 
2.1746191e+3, 3.055805e+2, -640254.3, -171032.28, -19202.426, -0.040172674, 0.68858117, -170247.75, -170247.75, 0.0, 9.995008, 10.001232 
2.1745735e+3, 3.1558102e+2, -637489.56, 8568.467, 44050.59, -0.015750062, 0.6180721, 11558.161, 11558.161, 0.0, 9.994265, 10.002822 
2.1854521e+3, 1.2564708e+2, -1070405.0, -1744569.6, -16999.828, -0.03214821, 0.6009917, -1069976.6, 638737.94, 0.18140605, 10.007161, 9.9963455 
2.185406e+3, 1.356433e+2, -1027954.9, -1672276.6, 14207.155, 0.016822886, 0.5655322, -1027641.75, 583110.94, 0.13171941, 10.006301, 9.996583 
2.1853592e+3, 1.4564016e+2, -954909.0, -1541261.9, -747.4839, 0.038673293, 0.5824563, -954908.0, 557876.1, 0.080866806, 10.005585, 9.997152 
2.1853118e+3, 1.5563738e+2, -921923.56, -1499844.3, -3454.302, 0.010972459, 0.5983094, -921902.9, 492908.9, 0.03907548, 10.004988, 9.997052 
2.1852647e+3, 1.656347e+2, -869509.7, -1373799.0, 13766.145, 0.009069526, 0.6162896, -869134.2, 447705.34, 0.0133179305, 10.004333, 9.9975605 
2.1852177e+3, 1.7563236e+2, -871591.6, -1333283.4, 14134.333, 0.029079506, 0.6332424, -871159.3, 347705.16, 0.0025022817, 10.003638, 9.9975 
2.185171e+3, 1.8563023e+2, -813645.9, -1153814.8, 17288.74, 0.026479445, 0.642802, -812769.44, 308117.44, 0.00011767672, 10.002921, 9.998405 
2.185124e+3, 1.956286e+2, -827205.2, -1117339.0, 16375.308, 0.0050057126, 0.6456646, -826283.9, 196620.47, 0.0000000000000090331685, 10.002189, 9.998337 
2.1850772e+3, 2.0562737e+2, -775588.6, -955177.8, 12714.068, -0.0018146858, 0.66787225, -774693.0, 150225.23, 0.0, 10.001496, 9.999111 
2.1850303e+3, 2.1562676e+2, -778903.4, -915448.6, 11634.552, 0.0032984735, 0.7031879, -777919.1, 49007.195, 0.0, 10.000841, 9.999027 
2.1849836e+3, 2.2562614e+2, -747348.25, -791862.4, 24250.4, 0.005534494, 0.7320992, -736689.4, -7755.117, 0.0, 10.000136, 9.999542 
2.1849373e+3, 2.3562583e+2, -763588.3, -757900.1, 18401.047, 0.0066509643, 0.7540977, -742124.7, -111185.53, 0.0, 9.999391, 9.999462 
2.1848911e+3, 2.4562538e+2, -723464.5, -615615.1, 24383.818, 0.0053295046, 0.7486959, -610358.4, -77414.77, 0.0, 9.998682, 10.000108 
2.1848449e+3, 2.5562516e+2, -731042.9, -578836.75, 23658.805, -0.0004885961, 0.721342, -575244.06, -140299.47, 0.0, 9.998001, 10.000015 
2.1847986e+3, 2.656251e+2, -690453.06, -466053.2, 9158.0625, -0.012880567, 0.71466666, -465680.03, -128736.82, 0.0, 9.997424, 10.000395 
2.184752e+3, 2.7562544e+2, -671842.44, -418518.56, 7112.8896, -0.024392389, 0.71652764, -418319.0, -179381.38, 0.0, 9.996932, 10.000285 
2.184706e+3, 2.8562528e+2, -654834.25, -329419.63, 28069.27, -0.011801927, 0.67635345, -327016.22, -186078.4, 0.0, 9.996247, 10.000553 
2.1846606e+3, 2.956252e+2, -685917.0, -301420.66, 29513.34, 0.00076101394, 0.62135273, -299168.44, -256230.95, 0.0, 9.995395, 10.0004835 
2.1846142e+3, 3.0562648e+2, -645696.2, -138646.63, 7027.6, -0.0196529, 0.66588926, -138549.25, -138549.25, 0.0, 9.994825, 10.001541 
2.1845679e+3, 3.1562757e+2, -631435.25, -36021.72, 62787.766, -0.015347469, 0.62452906, -29472.637, -29472.637, 0.0, 9.994516, 10.002392 
2.1954595e+3, 1.256936e+2, -1054297.6, -1694849.8, -43172.723, 0.008846782, 0.5955165, -1051401.0, 656858.94, 0.18393019, 10.007129, 9.996724 
2.1954116e+3, 1.3569026e+2, -1011982.94, -1628524.3, -12945.518, -0.03116206, 0.57017195, -1011711.25, 598581.06, 0.13354743, 10.006286, 9.996893 
2.1953642e+3, 1.4568715e+2, -954815.3, -1539311.8, -20901.945, -0.00007362509, 0.57488936, -954068.8, 558254.2, 0.08200168, 10.005579, 9.997172 
2.1953167e+3, 1.5568438e+2, -920730.6, -1497330.5, -24696.541, 0.031288736, 0.58854437, -919674.75, 494676.16, 0.039649326, 10.004985, 9.997073 
2.195269e+3, 1.6568172e+2, -866513.56, -1368417.0, -11588.865, 0.030861374, 0.6062766, -866246.1, 450132.2, 0.013537615, 10.0043335, 9.9976 
2.1952212e+3, 1.7567942e+2, -868624.0, -1328554.0, -11447.825, 0.008052681, 0.6233101, -868339.2, 350063.5, 0.002553794, 10.00364, 9.997535 
2.1951737e+3, 1.8567723e+2, -812281.9, -1152886.8, -9523.021, 0.009311813, 0.625953, -812015.8, 308409.44, 0.00012102814, 10.002925, 9.998413 
2.1951263e+3, 1.9567548e+2, -825539.06, -1116335.5, -10276.607, 0.028546162, 0.61632204, -825176.4, 197267.03, 0.00000000000007150772, 10.002194, 9.998343 
2.1950786e+3, 2.056743e+2, -776667.44, -959938.5, -11297.946, 0.020753985, 0.64512205, -775973.56, 148483.3, 0.0, 10.001503, 9.999078 
2.195031e+3, 2.1567388e+2, -780988.4, -922097.44, -12091.669, -0.0076588723, 0.7023004, -779959.7, 46504.094, 0.0, 10.000847, 9.998981 
2.1949837e+3, 2.2567314e+2, -757681.9, -815803.5, -2937.4473, -0.0057656076, 0.7295473, -757533.75, -29060.482, 0.0, 10.000142, 9.999377 
2.1949367e+3, 2.3567246e+2, -773164.8, -780410.44, -8820.442, 0.020200627, 0.7311869, -767252.2, -136770.34, 0.0, 9.999397, 9.999307 
2.19489e+3, 2.4567199e+2, -722670.6, -616615.94, -1134.5338, 0.017088525, 0.73035055, -616603.75, -84117.2, 0.0, 9.998689, 10.0001 
2.1948428e+3, 2.5567198e+2, -731316.06, -582229.0, -1798.258, -0.010438927, 0.7275514, -582207.3, -147722.1, 0.0, 9.998009, 9.99999 
2.1947956e+3, 2.6567182e+2, -698440.94, -485767.72, -10156.041, -0.02095355, 0.7173973, -485283.8, -148798.45, 0.0, 9.997433, 10.0002575 
2.194749e+3, 2.7567175e+2, -678823.25, -436185.6, -13011.805, -0.012646506, 0.6930892, -435489.8, -197005.47, 0.0, 9.996941, 10.000162 
2.1947023e+3, 2.856718e+2, -646231.25, -314387.9, -5667.182, -0.0057974844, 0.6787285, -314291.16, -173809.31, 0.0, 9.996254, 10.000656 
2.1946555e+3, 2.9567254e+2, -674459.0, -280597.88, -3329.758, -0.01916116, 0.69187176, -280569.72, -238096.72, 0.0, 9.995401, 10.000626 
2.1946092e+3, 3.056723e+2, -642421.1, -134168.92, -7276.4243, -0.0005571119, 0.5722493, -134064.77, -134064.77, 0.0, 9.994831, 10.001572 
2.1945623e+3, 3.1567428e+2, -646107.94, -68295.086, 53220.98, -0.0027371866, 0.6269504, -63433.926, -63433.926, 0.0, 9.99452, 10.002171 
2.2054663e+3, 1.2574103e+2, -1125883.3, -1714631.8, 1223.3494, 0.007090495, 0.57307494, -1125880.8, 581913.8, 0.18621373, 10.006462, 9.996887 
2.2054178e+3, 1.357381e+2, -1034604.94, -1623871.5, 22635.787, -0.04022147, 0.57359326, -1033736.7, 576086.2, 0.13519807, 10.006046, 9.997039 
2.2053696e+3, 1.4573498e+2, -969886.06, -1545326.9, 11175.539, 0.0011939117, 0.57126534, -969669.06, 542184.56, 0.08302322, 10.005467, 9.997182 
2.2053215e+3, 1.557322e+2, -950635.3, -1511220.5, 7109.9946, 0.029700652, 0.58285815, -950545.1, 463336.78, 0.04016425, 10.004773, 9.997078 
2.2052729e+3, 1.657295e+2, -895052.44, -1381787.0, 18686.172, 0.02801993, 0.5979471, -894336.1, 421573.53, 0.013734664, 10.004137, 9.997601 
2.2052246e+3, 1.7572713e+2, -881813.94, -1334043.0, 15401.8955, 0.0059030387, 0.6097761, -881290.0, 336644.47, 0.0026000368, 10.003551, 9.997538 
2.2051765e+3, 1.8572497e+2, -815747.75, -1150776.4, 13802.965, 0.006360914, 0.6134507, -815180.0, 304776.72, 0.00012391152, 10.00289, 9.998443 
2.2051284e+3, 1.9572331e+2, -827170.0, -1114299.3, 13848.749, 0.023561526, 0.61073107, -826503.56, 195470.34, 0.00000000000029186663, 10.002175, 9.998364 
2.2050801e+3, 2.0572217e+2, -788634.56, -972016.1, 12567.86, 0.020336375, 0.64605844, -787777.25, 136210.03, 0.0, 10.001452, 9.999017 
2.2050318e+3, 2.1572173e+2, -803903.5, -939667.06, 8745.592, 0.0014015146, 0.70853084, -803342.44, 22652.33, 0.0, 10.000722, 9.998918 
2.2049837e+3, 2.2572087e+2, -773411.4, -828635.06, 21818.07, 0.0018265811, 0.7300006, -765831.7, -37826.39, 0.0, 10.000062, 9.999326 
2.204936e+3, 2.3571998e+2, -768463.0, -783867.2, 24160.12, 0.018022869, 0.71809, -750807.0, -120791.77, 0.0, 9.999459, 9.99925 
2.2048885e+3, 2.4571943e+2, -714114.6, -623253.06, 30460.047, 0.013549554, 0.71930623, -613986.75, -81966.164, 0.0, 9.998799, 9.999999 
2.2048406e+3, 2.5571945e+2, -726243.0, -590168.4, 22717.654, -0.009018907, 0.7299519, -586475.9, -152456.56, 0.0, 9.998094, 9.999893 
2.2047932e+3, 2.6571918e+2, -701628.9, -489719.84, 20251.982, -0.014625423, 0.71391416, -487801.72, -151780.84, 0.0, 9.997427, 10.000231 
2.2047459e+3, 2.757189e+2, -704285.0, -450617.47, 24880.512, -0.0011057344, 0.6716115, -448200.16, -210178.13, 0.0, 9.99678, 10.000137 
2.2046985e+3, 2.8571916e+2, -664014.1, -316005.9, 26464.588, -0.00066654565, 0.6726705, -314004.88, -173987.11, 0.0, 9.996107, 10.000712 
2.204651e+3, 2.9572025e+2, -665238.5, -268971.22, 25640.361, -0.02907722, 0.71937436, -267319.06, -225314.17, 0.0, 9.99544, 10.000685 
2.204604e+3, 3.0571908e+2, -651127.1, -167239.66, 17318.727, 0.01867575, 0.5188462, -166620.6, -166620.6, 0.0, 9.9949, 10.001308 
2.2045569e+3, 3.1572166e+2, -638596.0, -23581.506, 56640.31, 0.0035187912, 0.65882534, -18408.674, -18408.674, 0.0, 9.994398, 10.002535 
2.2154722e+3, 1.2578937e+2, -1130258.1, -1720817.1, -10602.399, -0.032184433, 0.54121727, -1130067.8, 577251.1, 0.18827876, 10.006452, 9.996852 
2.2154239e+3, 1.3578677e+2, -1038217.9, -1626934.6, 8022.8853, -0.016710076, 0.5759386, -1038108.56, 571236.3, 0.13668837, 10.006028, 9.997028 
2.2153755e+3, 1.4578362e+2, -972558.9, -1548727.8, -12871.067, 0.03506103, 0.57058406, -972271.5, 539105.0, 0.083946064, 10.005456, 9.997167 
2.215326e+3, 1.5578079e+2, -952300.4, -1515703.8, -17538.521, 0.0078157885, 0.58149344, -951754.94, 461650.25, 0.04063238, 10.004773, 9.99705 
2.2152768e+3, 1.65778e+2, -897941.5, -1389238.3, -2727.5242, 0.003280386, 0.59177196, -897926.4, 417507.47, 0.013916509, 10.004139, 9.997551 
2.2152282e+3, 1.7577548e+2, -884368.0, -1340410.6, -6497.1533, 0.020997321, 0.59271187, -884275.44, 333184.63, 0.0026440232, 10.003551, 9.997497 
2.2151792e+3, 1.8577342e+2, -812736.44, -1146021.9, -12432.621, 0.015425914, 0.60510504, -812273.25, 307208.34, 0.00012688585, 10.002892, 9.998477 
2.2151302e+3, 1.9577204e+2, -824803.56, -1111533.1, -12239.865, -0.009310134, 0.62796944, -824282.06, 197214.33, 0.0, 10.00218, 9.9983835 
2.2150813e+3, 2.0577091e+2, -795143.9, -987969.2, -14197.279, -0.0017512707, 0.6695804, -794104.2, 129405.74, 0.0, 10.001458, 9.998907 
2.2150324e+3, 2.1577024e+2, -809839.9, -954442.75, -17434.94, 0.03047001, 0.7218852, -807767.44, 17752.346, 0.0, 10.000728, 9.9988165 
2.2149839e+3, 2.2576927e+2, -769068.75, -822210.8, -91.019135, 0.027541306, 0.73408693, -769068.6, -41537.73, 0.0, 10.000069, 9.999369 
2.2149353e+3, 2.3576838e+2, -765312.5, -780244.56, 1910.6438, -0.0009551621, 0.7150031, -765071.94, -135532.05, 0.0, 9.999467, 9.999274 
2.214887e+3, 2.4576771e+2, -727803.56, -654784.56, 3968.2659, -0.0057743704, 0.71550286, -654569.5, -123023.23, 0.0, 9.998808, 9.999781 
2.2148389e+3, 2.5576755e+2, -738576.44, -618915.56, -3829.769, 0.004576224, 0.72851026, -618793.1, -185245.34, 0.0, 9.998102, 9.999694 
2.2147907e+3, 2.6576713e+2, -695197.44, -479124.78, -5054.026, 0.006934959, 0.70381486, -479006.66, -143455.98, 0.0, 9.997435, 10.000302 
2.2147427e+3, 2.757668e+2, -699201.06, -442130.38, -1105.5697, 0.009249189, 0.65027624, -442125.63, -204574.05, 0.0, 9.996785, 10.000196 
2.2146946e+3, 2.8576708e+2, -664688.1, -319295.3, -191.84854, 0.002802551, 0.6560607, -319295.2, -179748.53, 0.0, 9.996111, 10.000691 
2.2146462e+3, 2.957682e+2, -668268.4, -277779.03, 676.84985, -0.027666658, 0.70242333, -277777.88, -236243.5, 0.0, 9.995445, 10.000624 
2.2145991e+3, 3.0576676e+2, -690310.7, -251564.66, -3284.914, 0.038408134, 0.51113564, -251540.08, -251540.08, 0.0, 9.994908, 10.000728 
2.214551e+3, 3.157687e+2, -572687.44, 109063.305, 24998.92, 0.002406821, 0.6374673, 109978.75, 109978.75, 0.0, 9.99441, 10.003444 
2.2254786e+3, 1.2583843e+2, -1139165.6, -1729378.1, 6316.568, -0.037008226, 0.52751684, -1139098.1, 567739.1, 0.19015226, 10.006408, 9.996813 
2.2254294e+3, 1.3583593e+2, -1089635.6, -1651970.9, 25396.809, -0.021002391, 0.5720649, -1088491.0, 520371.56, 0.13803715, 10.005614, 9.997055 
2.2253807e+3, 1.4583275e+2, -1022944.9, -1573485.1, 10327.441, 0.037617277, 0.56184024, -1022751.2, 488143.6, 0.08478345, 10.005079, 9.997176 
2.2253306e+3, 1.5583003e+2, -955516.94, -1515829.4, 7034.92, -0.00043302847, 0.58331156, -955428.6, 457493.84, 0.04106264, 10.00475, 9.997058 
2.2252807e+3, 1.6582726e+2, -898500.75, -1385525.9, 18875.72, -0.0068450607, 0.59386194, -897770.25, 417180.56, 0.014087912, 10.004122, 9.997582 
2.2252314e+3, 1.7582467e+2, -923109.56, -1355955.0, 20695.56, 0.017575532, 0.58698505, -922122.3, 294855.1, 0.0026875457, 10.003274, 9.997521 
2.2251819e+3, 1.8582262e+2, -858919.25, -1174696.8, 15967.59, 0.01495426, 0.60226315, -858113.9, 260885.22, 0.00013034987, 10.002606, 9.998415 
2.2251321e+3, 1.9582127e+2, -844874.06, -1127670.3, 7812.5327, -0.0109282695, 0.6356064, -844658.44, 176355.48, 0.000000000039864764, 10.002074, 9.998322 
2.2250825e+3, 2.0582008e+2, -799359.25, -997012.2, 1718.9229, -0.0049707713, 0.6770013, -799344.3, 123683.95, 0.0, 10.001465, 9.998839 
2.2250332e+3, 2.1581927e+2, -803957.4, -958095.94, 1277.2961, 0.026157925, 0.72108865, -803946.8, 21092.66, 0.0, 10.000802, 9.998753 
2.2249839e+3, 2.258182e+2, -753812.3, -812647.3, 21304.732, 0.024635337, 0.7274852, -746907.9, -19857.082, 0.0, 10.000169, 9.999383 
2.2249345e+3, 2.3581728e+2, -752946.0, -774120.6, 20088.92, -0.0013281143, 0.7051099, -740825.25, -111765.945, 0.0, 9.999557, 9.99927 
2.2248855e+3, 2.458165e+2, -731330.8, -676861.5, 18400.568, -0.0047421735, 0.70519423, -671228.1, -140161.17, 0.0, 9.998877, 9.999593 
2.224837e+3, 2.5581616e+2, -744269.7, -640070.94, 12767.002, 0.007022327, 0.71896994, -638529.44, -205458.36, 0.0, 9.998148, 9.999523 
2.224788e+3, 2.658157e+2, -696169.0, -474300.44, 11725.16, 0.0137065705, 0.7004536, -473682.53, -138608.38, 0.0, 9.997411, 10.000343 
2.2247392e+3, 2.7581555e+2, -714407.1, -444803.75, 13115.035, 0.021431318, 0.6591785, -444167.25, -207094.13, 0.0, 9.996666, 10.000233 
2.2246906e+3, 2.8581572e+2, -663456.8, -317030.94, 19739.27, 0.011811465, 0.64789534, -315909.84, -176840.27, 0.0, 9.996117, 10.000701 
2.2246416e+3, 2.9581633e+2, -634342.06, -264859.4, 22356.043, -0.026056731, 0.65002656, -263511.66, -222450.08, 0.0, 9.995699, 10.000588 
2.224594e+3, 3.0581573e+2, -691811.75, -272909.84, 27804.62, 0.051696435, 0.55432165, -271072.38, -271072.38, 0.0, 9.994993, 10.000538 
2.2245452e+3, 3.158165e+2, -598035.1, 140431.27, 68795.55, 0.00075626123, 0.5807564, 146785.58, 146785.58, 0.0, 9.994055, 10.003827 
2.2354849e+3, 1.2588823e+2, -1147377.9, -1739071.3, -16691.873, -0.01767709, 0.53267974, -1146907.4, 559441.56, 0.19186468, 10.006367, 9.996769 
2.2354345e+3, 1.3588564e+2, -1088574.9, -1646480.1, 35.752903, -0.049422257, 0.56326133, -1088574.9, 519800.66, 0.13927172, 10.005605, 9.997098 
2.2353852e+3, 1.4588241e+2, -1022527.44, -1572114.6, -1274.3, 0.013806037, 0.547033, -1022524.5, 487883.7, 0.08555463, 10.005075, 9.99719 
2.2353353e+3, 1.558799e+2, -956046.56, -1514771.8, -6201.1245, 0.002380847, 0.58777785, -955977.75, 456456.13, 0.04146475, 10.004737, 9.997074 
2.2352846e+3, 1.6587722e+2, -892735.0, -1372260.8, -12222.977, -0.005857744, 0.6032068, -892423.7, 422037.34, 0.014252653, 10.004113, 9.997681 
2.2352344e+3, 1.7587471e+2, -917231.6, -1345771.6, -9754.096, -0.0032422733, 0.59221834, -917009.75, 299477.0, 0.0027319973, 10.003278, 9.997592 
2.2351843e+3, 1.8587255e+2, -869669.25, -1199847.4, -3544.565, 0.0063177487, 0.6046131, -869631.2, 248878.3, 0.00013473061, 10.002613, 9.998241 
2.2351342e+3, 1.95871e+2, -855252.4, -1151517.0, -12067.858, 0.01724604, 0.63418806, -854761.6, 165765.23, 0.0000000005492505, 10.002079, 9.9981575 
2.235084e+3, 2.0586964e+2, -800804.7, -1002447.1, -22544.924, 0.00877984, 0.66934234, -798314.8, 124227.805, 0.0, 10.00147, 9.998802 
2.2350335e+3, 2.1586873e+2, -805319.56, -963650.4, -22374.215, -0.012031674, 0.7062356, -802218.5, 22335.75, 0.0, 10.000809, 9.998714 
2.2349836e+3, 2.258676e+2, -755236.9, -818367.3, -901.1174, -0.006535761, 0.7097352, -755224.0, -28658.238, 0.0, 10.000176, 9.999343 
2.2349343e+3, 2.3586664e+2, -755459.9, -782177.3, -2927.1875, 0.017741406, 0.68823653, -755142.94, -126568.75, 0.0, 9.999564, 9.999213 
2.2348845e+3, 2.4586573e+2, -742211.75, -702221.5, -9208.276, 0.016944597, 0.68842685, -700203.0, -169619.64, 0.0, 9.998884, 9.999417 
2.2348347e+3, 2.558652e+2, -754002.7, -663234.06, -15281.73, -0.0032117327, 0.7013305, -660730.3, -228140.03, 0.0, 9.998157, 9.999363 
2.2347851e+3, 2.658649e+2, -695705.8, -475992.7, -17590.078, 0.004319821, 0.70458585, -474593.34, -140001.1, 0.0, 9.9974165, 10.000332 
2.2347361e+3, 2.758651e+2, -713882.25, -445981.16, -15147.049, 0.035754234, 0.7003425, -445127.47, -208539.83, 0.0, 9.996671, 10.000224 
2.2346868e+3, 2.8586486e+2, -660534.2, -313496.84, 2337.3425, 0.02674229, 0.64922315, -313481.13, -174893.55, 0.0, 9.996123, 10.000725 
2.2346371e+3, 2.958646e+2, -633924.0, -268139.9, 3289.784, -0.025581932, 0.56052035, -268110.3, -227522.44, 0.0, 9.995711, 10.000562 
2.2345889e+3, 3.0586594e+2, -675896.7, -243168.19, -8791.1, 0.056725416, 0.65047735, -242989.67, -242989.67, 0.0, 9.995001, 10.000741 
2.2345391e+3, 3.158659e+2, -621120.2, 90557.01, 11942.722, -0.0024182976, 0.57317847, 90757.37, 90757.37, 0.0, 9.994055, 10.003488 
2.245491e+3, 1.2593843e+2, -1214912.9, -1769497.1, -4219.9067, -0.009893264, 0.54509795, -1214880.8, 490976.75, 0.1934404, 10.005764, 9.996847 
2.2454402e+3, 1.3593605e+2, -1089749.9, -1625578.5, 16196.634, -0.048812296, 0.5784891, -1089260.8, 518620.94, 0.14041945, 10.005512, 9.997285 
2.2453901e+3, 1.4593285e+2, -1030645.7, -1562909.1, 21414.816, 0.014719256, 0.5499393, -1029785.5, 480128.25, 0.08627965, 10.004964, 9.997305 
2.2453393e+3, 1.5593027e+2, -1020459.7, -1535569.6, 23443.904, -0.004575772, 0.5738997, -1019394.94, 392544.75, 0.0418477, 10.004231, 9.997173 
2.2452883e+3, 1.659277e+2, -953485.5, -1398958.8, 14493.667, -0.015070705, 0.59186274, -953014.44, 360951.53, 0.014413366, 10.003681, 9.997704 
2.2452375e+3, 1.7592533e+2, -919473.6, -1345307.6, 10574.394, -0.010680987, 0.59632015, -919211.2, 296779.06, 0.0027784407, 10.003261, 9.9976015 
2.2451867e+3, 1.8592314e+2, -870191.9, -1210279.5, 17057.82, 0.0029068447, 0.6103805, -869338.44, 248675.1, 0.0001404254, 10.002658, 9.998146 
2.2451362e+3, 1.959214e+2, -884095.1, -1175627.3, 13928.371, 0.019778036, 0.6323915, -883431.2, 136601.63, 0.0000000024737916, 10.00193, 9.998062 
2.2450852e+3, 2.0591986e+2, -819049.2, -1018715.3, 6671.607, 0.010714464, 0.65823877, -818826.5, 103223.586, 0.0, 10.001382, 9.99873 
2.2450341e+3, 2.1591875e+2, -788367.3, -963106.2, 2847.7546, -0.0160751, 0.68404907, -788320.94, 35742.188, 0.0, 10.000962, 9.998641 
2.2449836e+3, 2.259176e+2, -735294.75, -814923.44, 16601.127, -0.009385387, 0.6914036, -731972.3, -5897.4395, 0.0, 10.000345, 9.999283 
2.2449335e+3, 2.359167e+2, -756368.8, -789027.2, 12956.515, 0.021934597, 0.6846569, -751853.0, -123770.234, 0.0, 9.999591, 9.999151 
2.2448833e+3, 2.4591576e+2, -743436.06, -706980.3, 11316.21, 0.02160965, 0.684165, -703753.3, -173660.64, 0.0, 9.998899, 9.999374 
2.2448328e+3, 2.5591505e+2, -744303.94, -662893.1, 14955.468, -0.0030546042, 0.6862783, -660232.7, -228131.67, 0.0, 9.998247, 9.999318 
2.2447827e+3, 2.6591477e+2, -677421.6, -474618.94, 12891.21, 0.0023105016, 0.69694185, -473802.78, -139699.72, 0.0, 9.997581, 10.000259 
2.2447327e+3, 2.7591506e+2, -684980.0, -438595.75, 11005.375, 0.033248592, 0.71062154, -438105.13, -202007.38, 0.0, 9.996903, 10.00016 
2.2446829e+3, 2.8591466e+2, -653296.8, -310834.0, 28413.678, 0.027660424, 0.6492807, -308492.56, -170393.47, 0.0, 9.996182, 10.000711 
2.2446328e+3, 2.9591417e+2, -677362.3, -288918.78, 25531.47, -0.017092435, 0.5383113, -287247.84, -247146.25, 0.0, 9.995419, 10.000558 
2.2445837e+3, 3.0591604e+2, -676454.25, -204313.64, 17458.506, 0.05376776, 0.6650543, -203668.95, -203668.95, 0.0, 9.994835, 10.001084 
2.2445332e+3, 3.1591582e+2, -614454.06, 38175.54, 27818.59, -0.000010822935, 0.53729194, 39359.17, 39359.17, 0.0, 9.994348, 10.002983 
2.2554965e+3, 1.2598911e+2, -1206196.0, -1745395.0, -8403.292, -0.013421743, 0.5637854, -1206065.0, 499297.06, 0.19487683, 10.005762, 9.997016 
2.2554459e+3, 1.3598718e+2, -1077319.5, -1589985.6, 5729.483, -0.025704833, 0.61447674, -1077255.5, 530125.5, 0.14148414, 10.005479, 9.997566 
2.2553952e+3, 1.4598404e+2, -1022393.75, -1537963.8, -5062.954, 0.03381885, 0.5679393, -1022344.0, 487067.75, 0.08696398, 10.004935, 9.997492 
2.2553432e+3, 1.5598117e+2, -1009689.25, -1512681.4, -2770.1653, -0.020318365, 0.5442098, -1009674.0, 401765.7, 0.042214584, 10.00423, 9.997334 
2.2552918e+3, 1.6597863e+2, -957396.75, -1409543.5, -1484.5272, -0.0324078, 0.56257796, -957391.9, 356073.8, 0.014570759, 10.003687, 9.99763 
2.2552407e+3, 1.7597651e+2, -923766.94, -1355701.3, -6331.6475, -0.0065348796, 0.5995533, -923674.2, 291814.0, 0.002827079, 10.003262, 9.997532 
2.2551893e+3, 1.8597433e+2, -871748.0, -1215265.5, -10184.562, 0.002744841, 0.61950105, -871446.3, 246065.22, 0.00014756004, 10.002661, 9.998114 
2.2551377e+3, 1.9597246e+2, -885471.3, -1181673.1, -11948.115, -0.002519299, 0.6301539, -884990.1, 134541.97, 0.0000000066937957, 10.001939, 9.998019 
2.2550865e+3, 2.0597069e+2, -826640.25, -1037765.8, -8297.025, 0.001991967, 0.64325714, -826314.7, 95236.53, 0.0, 10.001391, 9.998597 
2.2550353e+3, 2.159693e+2, -796063.06, -981689.3, -13154.994, 0.013980022, 0.6548663, -795135.4, 28431.09, 0.0, 10.000969, 9.998513 
2.2549841e+3, 2.2596814e+2, -741113.44, -829416.25, -10994.824, 0.015397555, 0.6732873, -739765.0, -14186.365, 0.0, 10.000351, 9.999183 
2.2549331e+3, 2.3596744e+2, -761065.5, -801561.3, -14689.97, 0.009922016, 0.69483715, -756297.94, -128712.2, 0.0, 9.999598, 9.999064 
2.254882e+3, 2.4596646e+2, -736748.94, -696040.1, -13276.561, 0.008514581, 0.6923921, -692092.94, -162497.36, 0.0, 9.998907, 9.999448 
2.254831e+3, 2.5596562e+2, -739137.7, -655416.25, -10146.708, 0.008173884, 0.6730512, -654204.06, -222599.88, 0.0, 9.998257, 9.999368 
2.2547801e+3, 2.6596522e+2, -686751.1, -497235.16, -13527.028, 0.007814066, 0.67642325, -496274.5, -162667.05, 0.0, 9.997589, 10.000102 
2.2547293e+3, 2.7596533e+2, -693728.9, -460351.1, -15604.542, 0.011573534, 0.6884387, -459312.34, -223707.77, 0.0, 9.996914, 10.000008 
2.2546788e+3, 2.8596506e+2, -656721.44, -320797.1, -2344.6287, 0.0126438625, 0.6481729, -320780.72, -183175.53, 0.0, 9.99619, 10.000643 
2.2546282e+3, 2.95965e+2, -677214.44, -289826.63, -4668.1616, -0.00051237043, 0.58717656, -289770.4, -250166.89, 0.0, 9.995419, 10.000554 
2.2545783e+3, 3.0596587e+2, -644537.56, -139116.55, -1365.5076, 0.041770983, 0.59041923, -139112.86, -139112.86, 0.0, 9.994835, 10.001534 
2.2545277e+3, 3.159668e+2, -647327.4, -34655.69, -123.368286, 0.0137061775, 0.54201704, -34655.668, -34655.668, 0.0, 9.994361, 10.00248 
2.2655022e+3, 1.2604016e+2, -1196055.3, -1730912.5, 13509.194, -0.006332164, 0.55964684, -1195714.3, 509147.06, 0.19613145, 10.005823, 9.997084 
2.2654507e+3, 1.3603827e+2, -1147950.8, -1606580.8, 17991.656, -0.02439986, 0.59564716, -1147246.0, 459633.75, 0.14243153, 10.004834, 9.997743 
2.2653997e+3, 1.4603537e+2, -1100133.3, -1564172.3, 9540.645, 0.037255395, 0.5586173, -1099937.1, 408971.0, 0.087587036, 10.004294, 9.997619 
2.2653474e+3, 1.5603268e+2, -1021722.7, -1505620.1, 7028.874, -0.0143542625, 0.5422674, -1021620.6, 389313.72, 0.042556968, 10.004093, 9.997445 
2.2652954e+3, 1.6603017e+2, -960448.2, -1406202.9, 8014.071, -0.029071648, 0.5575645, -960304.1, 352655.84, 0.014721967, 10.003651, 9.997668 
2.2652437e+3, 1.7602801e+2, -953521.2, -1366408.9, 9775.367, -0.009284086, 0.58681893, -953289.9, 261692.88, 0.0028766852, 10.003047, 9.99756 
2.2651917e+3, 1.8602586e+2, -893908.44, -1232139.4, 5089.638, -0.0026652135, 0.6116974, -893831.9, 223174.27, 0.0001558526, 10.002541, 9.998053 
2.2651397e+3, 1.9602403e+2, -866141.5, -1178108.6, 40.81089, -0.008708968, 0.63409424, -866141.5, 152885.22, 0.000000012732063, 10.002102, 9.997962 
2.2650877e+3, 2.0602223e+2, -807776.06, -1028494.8, 8779.882, -0.00070923567, 0.6466517, -807427.4, 113618.7, 0.0, 10.001525, 9.998594 
2.2650361e+3, 2.1602075e+2, -813504.44, -991294.3, 12088.398, 0.018509379, 0.65035963, -812686.25, 10375.418, 0.0, 10.00086, 9.998497 
2.2649844e+3, 2.2601953e+2, -765225.2, -854257.1, 12291.345, 0.01804497, 0.6702852, -763559.44, -38484.676, 0.0, 10.000248, 9.99906 
2.2649324e+3, 2.3601876e+2, -758542.75, -811650.94, 6278.968, 0.0036364296, 0.6992866, -757810.5, -130727.27, 0.0, 9.999669, 9.998958 
2.2648808e+3, 2.4601778e+2, -718073.6, -677049.9, 6506.2734, 0.004390522, 0.6957056, -676042.7, -146949.8, 0.0, 9.998998, 9.999532 
2.2648293e+3, 2.5601694e+2, -734056.6, -645430.2, 10102.203, 0.014250875, 0.66987705, -644293.25, -213192.9, 0.0, 9.998264, 9.99943 
2.2647776e+3, 2.660164e+2, -690560.7, -508383.94, 11432.57, 0.011328284, 0.6630942, -507669.28, -174564.58, 0.0, 9.997609, 10.000013 
2.264726e+3, 2.760163e+2, -688236.2, -466825.4, 13520.415, 0.00396282, 0.66192424, -466002.84, -230898.36, 0.0, 9.996997, 9.999921 
2.2646748e+3, 2.8601614e+2, -643725.6, -315431.94, 26244.299, 0.011068547, 0.6414221, -313347.2, -176243.14, 0.0, 9.996288, 10.000628 
2.2646238e+3, 2.960165e+2, -659829.44, -277978.94, 28475.975, 0.01489357, 0.62496954, -275867.06, -236768.66, 0.0, 9.995529, 10.000578 
2.2645727e+3, 3.060165e+2, -643049.7, -134366.8, 21636.12, 0.024062721, 0.5369639, -133448.2, -133448.2, 0.0, 9.994833, 10.001565 
2.264522e+3, 3.1601864e+2, -665889.6, -20582.758, 3266.2944, 0.035370916, 0.6055206, -20566.225, -20566.225, 0.0, 9.994137, 10.002684 
2.275508e+3, 1.2609164e+2, -1202449.9, -1736788.0, -13428.394, 0.0049832016, 0.5361449, -1202112.6, 502242.3, 0.19714211, 10.00578, 9.9970665 
2.2754553e+3, 1.3608941e+2, -1142203.5, -1596462.5, -12039.276, -0.04222024, 0.53096294, -1141884.6, 464492.28, 0.14320761, 10.004844, 9.997819 
2.2754037e+3, 1.460869e+2, -1094571.4, -1556356.3, 1857.8097, 0.027831802, 0.52658725, -1094563.9, 413838.22, 0.08811192, 10.004312, 9.997666 
2.2753516e+3, 1.560848e+2, -1019233.1, -1499773.9, -2343.444, 0.009666004, 0.56514484, -1019221.7, 391201.84, 0.042856887, 10.004087, 9.997491 
2.2752991e+3, 1.6608232e+2, -952832.8, -1389166.6, -14698.966, -0.009369533, 0.5740097, -952338.25, 360110.66, 0.014860653, 10.003642, 9.997792 
2.2752465e+3, 1.7607985e+2, -945878.4, -1352435.5, -12174.325, -0.018668635, 0.55926394, -945514.1, 268959.8, 0.0029250842, 10.00305, 9.997657 
2.2751941e+3, 1.8607771e+2, -900480.06, -1248433.8, -11101.8, -0.012252679, 0.5881858, -900126.25, 216371.25, 0.0001647627, 10.002547, 9.99794 
2.2751416e+3, 1.9607611e+2, -871864.06, -1191873.3, -16794.52, 0.00019516703, 0.64447486, -870985.1, 147531.84, 0.00000001851255, 10.002105, 9.997869 
2.2750892e+3, 2.0607445e+2, -799354.8, -1012970.7, -15618.919, 0.0014043655, 0.6684554, -798218.9, 122316.18, 0.0, 10.001529, 9.998701 
2.2750366e+3, 2.1607305e+2, -806987.9, -980395.44, -11545.161, -0.0029721225, 0.6698257, -806222.6, 16326.619, 0.0, 10.000866, 9.998571 
2.2749844e+3, 2.2607167e+2, -775929.2, -879141.06, -8676.266, -0.0014733489, 0.6815257, -775204.94, -50641.06, 0.0, 10.000254, 9.998888 
2.2749321e+3, 2.3607062e+2, -767218.44, -832501.3, -15667.1455, 0.0035323666, 0.6978293, -763653.2, -137077.31, 0.0, 9.999677, 9.998814 
2.2748797e+3, 2.4606961e+2, -711474.8, -666307.4, -21437.799, 0.0094104335, 0.69452375, -657752.6, -129167.234, 0.0, 9.999005, 9.999604 
2.2748274e+3, 2.5606894e+2, -728346.6, -636607.2, -17436.81, 0.0141036725, 0.67733705, -633404.8, -202814.53, 0.0, 9.998272, 9.999489 
2.2747752e+3, 2.6606825e+2, -692150.5, -514586.56, -12724.223, 0.012611197, 0.6571735, -513679.38, -181083.8, 0.0, 9.997617, 9.9999695 
2.2747229e+3, 2.7606785e+2, -689656.44, -472875.34, -11737.991, 0.011963058, 0.6306907, -472241.6, -237643.14, 0.0, 9.997005, 9.999878 
2.2746712e+3, 2.8606787e+2, -641129.4, -312858.7, -4136.114, 0.023991233, 0.628161, -312806.56, -176209.88, 0.0, 9.996295, 10.000646 
2.2746192e+3, 2.9606864e+2, -656341.4, -273868.78, -468.9562, 0.027747173, 0.649, -273868.2, -235280.55, 0.0, 9.995538, 10.000606 
2.2745673e+3, 3.0606794e+2, -671290.06, -195459.17, -7055.382, 0.0002867706, 0.5109514, -195354.58, -195354.58, 0.0, 9.994839, 10.001146 
2.274516e+3, 3.1606975e+2, -598396.9, 119282.17, 4205.1514, 0.033357088, 0.5900492, 119306.805, 119306.805, 0.0, 9.994135, 10.003647 
2.2855134e+3, 1.2614378e+2, -1273752.1, -1780244.9, 17167.824, 0.010364773, 0.51176524, -1273170.9, 430671.72, 0.1978496, 10.005179, 9.997056 
2.28546e+3, 1.361416e+2, -1106708.5, -1574538.3, 12937.569, -0.04584605, 0.50803244, -1106351.0, 499513.44, 0.14376055, 10.005111, 9.997864 
2.285408e+3, 1.4613934e+2, -1061130.6, -1540612.0, 23494.662, 0.022433423, 0.52892786, -1059982.1, 447905.6, 0.088498935, 10.00458, 9.9976425 
2.2853555e+3, 1.5613727e+2, -1061155.9, -1521098.9, 15567.168, 0.01000595, 0.57292724, -1060629.6, 349280.22, 0.043090593, 10.003794, 9.997482 
2.2853024e+3, 1.661348e+2, -995607.75, -1394534.6, 3422.1934, -0.0060430095, 0.5778651, -995578.44, 316356.47, 0.014976649, 10.0032835, 9.997925 
2.2852492e+3, 1.7613238e+2, -953726.0, -1343107.5, 5062.047, -0.014684901, 0.5554045, -953660.25, 260298.67, 0.0029691097, 10.002946, 9.997768 
2.2851963e+3, 1.861303e+2, -915382.8, -1255388.8, 8139.6494, -0.009696345, 0.58404666, -915188.06, 200793.94, 0.00017362126, 10.00245, 9.997936 
2.2851436e+3, 1.9612873e+2, -908385.75, -1209276.8, 9002.155, 0.00013692965, 0.6444849, -908116.7, 109884.9, 0.000000023014687, 10.00186, 9.997865 
2.2850904e+3, 2.0612709e+2, -828127.94, -1026532.56, 5881.0376, -0.0009035794, 0.673707, -827953.75, 92065.62, 0.0, 10.001336, 9.998698 
2.2850373e+3, 2.1612574e+2, -809849.94, -982416.0, 562.91016, -0.0077767284, 0.68092823, -809848.06, 12185.012, 0.0, 10.0008545, 9.99856 
2.2849844e+3, 2.2612433e+2, -777708.9, -882031.25, 4566.941, -0.00417953, 0.69089746, -777509.3, -53461.17, 0.0, 10.000256, 9.998864 
2.2849317e+3, 2.3612319e+2, -782815.4, -841785.56, 8082.3013, 0.0067225075, 0.7005926, -781727.7, -155666.52, 0.0, 9.999582, 9.998792 
2.2848786e+3, 2.4612215e+2, -718382.7, -667643.7, 2140.7422, 0.012526818, 0.6957438, -667553.5, -139482.81, 0.0, 9.998955, 9.999617 
2.2848254e+3, 2.561215e+2, -716504.1, -629671.06, 1390.8231, 0.012484219, 0.68016464, -629648.75, -199573.84, 0.0, 9.998354, 9.999495 
2.2847727e+3, 2.6612073e+2, -691140.0, -520256.06, 2665.8276, 0.013364911, 0.6574403, -520214.5, -188133.69, 0.0, 9.997655, 9.999909 
2.2847198e+3, 2.7612025e+2, -710543.44, -487862.9, 1933.374, 0.021946529, 0.6278386, -487846.13, -253761.28, 0.0, 9.996888, 9.999828 
2.2846672e+3, 2.8612024e+2, -644510.0, -308808.03, 11725.308, 0.034707256, 0.6222086, -308399.0, -172315.48, 0.0, 9.996253, 10.000691 
2.2846147e+3, 2.9612094e+2, -631986.75, -260398.31, 16833.07, 0.027200272, 0.633077, -259637.33, -221562.17, 0.0, 9.995702, 10.000616 
2.2845623e+3, 3.0612063e+2, -671038.0, -230524.31, 7090.0586, 0.013223075, 0.5519951, -230410.23, -230410.23, 0.0, 9.994995, 10.000828 
2.2845098e+3, 3.1612134e+2, -562391.06, 176549.11, 51411.566, 0.024043238, 0.54652, 180108.9, 180108.9, 0.0, 9.994218, 10.003996 
2.2955184e+3, 1.261965e+2, -1270571.4, -1780118.0, 17555.393, 0.0078056473, 0.48121598, -1269967.3, 433357.38, 0.19819854, 10.005212, 9.997043 
2.295465e+3, 1.3619478e+2, -1108445.1, -1576003.0, 6552.708, -0.038399845, 0.5211882, -1108353.3, 496989.16, 0.14404595, 10.005097, 9.99786 
2.2954124e+3, 1.4619265e+2, -1069603.1, -1557186.4, -5098.2188, 0.018954417, 0.5606809, -1069549.9, 437815.44, 0.08871334, 10.004563, 9.997539 
2.295359e+3, 1.5619011e+2, -1065103.0, -1531895.3, -11464.441, -0.0109368665, 0.5670455, -1064821.6, 344571.06, 0.04323403, 10.0037985, 9.997409 
2.2953054e+3, 1.6618767e+2, -986054.6, -1377425.3, -8763.924, -0.016939623, 0.5706064, -985858.5, 325559.16, 0.015057526, 10.003291, 9.998041 
2.2952524e+3, 1.7618561e+2, -945909.25, -1328028.9, -8471.891, 0.0012979369, 0.5735639, -945721.5, 267716.22, 0.0030045675, 10.002946, 9.997874 
2.2951987e+3, 1.8618356e+2, -909688.75, -1244785.1, -13992.231, 0.003085643, 0.59788126, -909105.5, 206354.63, 0.00018165498, 10.00245, 9.998012 
2.295145e+3, 1.9618182e+2, -903182.7, -1201061.0, -12225.936, -0.008978806, 0.63388884, -902681.75, 114799.21, 0.00000002796664, 10.001865, 9.99792 
2.2950916e+3, 2.0618014e+2, -836049.94, -1045788.7, -11307.311, -0.007279924, 0.6624532, -835442.06, 84057.41, 0.0, 10.001343, 9.998565 
2.2950381e+3, 2.161788e+2, -816121.6, -997947.2, -17342.676, 0.004058269, 0.6843913, -814482.25, 7031.4385, 0.0, 10.00086, 9.998453 
2.2949846e+3, 2.2617744e+2, -769402.06, -867282.8, -19993.451, 0.00970127, 0.6989891, -765475.7, -41947.516, 0.0, 10.000261, 9.998965 
2.2949311e+3, 2.3617637e+2, -775677.7, -829664.0, -16686.035, 0.012413352, 0.70709276, -770936.75, -145396.86, 0.0, 9.999589, 9.998875 
2.2948775e+3, 2.461753e+2, -722056.1, -678029.7, -20659.809, 0.013150591, 0.69896966, -669853.4, -142303.73, 0.0, 9.998961, 9.999545 
2.2948237e+3, 2.5617453e+2, -720163.8, -640291.06, -22652.719, 0.009135852, 0.6787791, -634313.8, -204758.63, 0.0, 9.998362, 9.99942 
2.29477e+3, 2.661738e+2, -696245.5, -533548.0, -27634.043, 0.013360274, 0.6648754, -528982.5, -197421.3, 0.0, 9.997662, 9.999817 
2.2947168e+3, 2.761734e+2, -714148.1, -497811.9, -27491.574, 0.032995373, 0.6540645, -494373.0, -260808.44, 0.0, 9.996893, 9.999761 
2.2946636e+3, 2.8617316e+2, -639689.1, -300664.0, -10829.449, 0.042675707, 0.6241281, -300318.4, -164752.97, 0.0, 9.996256, 10.000748 
2.2946101e+3, 2.9617333e+2, -633373.0, -265065.38, -6645.7114, 0.013199415, 0.57869357, -264945.5, -227383.66, 0.0, 9.995705, 10.000586 
2.2945577e+3, 3.0617452e+2, -685028.2, -263362.88, -25400.889, 0.06610132, 0.6634708, -261838.25, -261838.25, 0.0, 9.995005, 10.000602 
2.2945036e+3, 3.1617403e+2, -601989.4, 88961.44, 32756.734, -0.006102698, 0.5587442, 90510.91, 90510.91, 0.0, 9.994238, 10.0033865 
2.3055238e+3, 1.2625019e+2, -1202286.3, -1743662.8, 31344.873, 0.0000045026572, 0.5021939, -1200477.4, 502321.2, 0.19812088, 10.005817, 9.997001 
2.30547e+3, 1.3624813e+2, -1149549.8, -1599785.6, 13016.822, -0.036240287, 0.5138405, -1149173.8, 455646.13, 0.14401427, 10.004791, 9.997813 
2.3054168e+3, 1.4624615e+2, -1117338.0, -1572688.5, 8464.857, 0.017459363, 0.5673127, -1117180.8, 389660.5, 0.088720664, 10.004168, 9.99762 
2.3053625e+3, 1.5624367e+2, -1055712.6, -1517936.1, 13790.924, -0.015266057, 0.57187724, -1055301.5, 353566.78, 0.043264158, 10.003832, 9.997485 
2.3053086e+3, 1.6624129e+2, -976567.4, -1364354.1, 20573.33, -0.019610872, 0.57645446, -975478.94, 335413.66, 0.015090436, 10.003327, 9.99811 
2.3052551e+3, 1.7623937e+2, -974350.2, -1333855.3, 16692.145, 0.002167184, 0.58578026, -973576.9, 239334.73, 0.0030266359, 10.002723, 9.997938 
2.3052011e+3, 1.8623734e+2, -937293.2, -1250261.9, 8173.479, 0.0045059305, 0.6068873, -937079.9, 177853.64, 0.00018800807, 10.0022335, 9.998075 
2.3051468e+3, 1.9623554e+2, -907367.06, -1196829.9, 7287.595, -0.008672664, 0.6319491, -907183.7, 109770.74, 0.000000034904282, 10.001816, 9.997971 
2.3050928e+3, 2.0623384e+2, -844702.0, -1050884.4, 10791.985, -0.00502835, 0.657317, -844138.7, 74834.38, 0.0, 10.001293, 9.998551 
2.3050389e+3, 2.1623251e+2, -840002.8, -1011064.6, 12082.509, 0.010169405, 0.6818153, -839153.6, -18166.346, 0.0, 10.00071, 9.998433 
2.304985e+3, 2.2623113e+2, -790494.1, -880112.4, 3177.4988, 0.017304134, 0.6962958, -790381.6, -67379.52, 0.0, 10.0001335, 9.998937 
2.3049307e+3, 2.3623e+2, -781977.2, -835375.3, -3461.0535, 0.019989375, 0.7023982, -781753.75, -156739.44, 0.0, 9.999562, 9.998846 
2.3048761e+3, 2.4622892e+2, -719751.06, -677400.9, -7548.1177, 0.01972438, 0.69603074, -676095.8, -149071.53, 0.0, 9.998984, 9.999536 
2.304822e+3, 2.5622818e+2, -716007.8, -639221.06, -5579.084, 0.013949371, 0.6807505, -638817.8, -209788.08, 0.0, 9.998399, 9.999407 
2.3047678e+3, 2.6622745e+2, -680467.06, -526718.75, -9055.774, 0.019599369, 0.67104286, -526187.2, -195151.45, 0.0, 9.997778, 9.999805 
2.3047136e+3, 2.7622706e+2, -679079.6, -481394.25, -2758.3948, 0.043749787, 0.66189396, -481355.78, -248316.55, 0.0, 9.997141, 9.999751 
2.3046596e+3, 2.8622678e+2, -619447.2, -293195.66, 11547.705, 0.042301793, 0.6315494, -292787.44, -157747.02, 0.0, 9.996409, 10.000723 
2.3046054e+3, 2.9622698e+2, -654553.2, -278870.7, 8943.509, -0.010590188, 0.59165645, -278657.9, -241621.25, 0.0, 9.99558, 10.000548 
2.304553e+3, 3.0622825e+2, -684729.0, -253852.2, 7079.784, 0.110911824, 0.68046945, -253735.9, -253735.9, 0.0, 9.994971, 10.00068 
2.3044975e+3, 3.162272e+2, -595752.0, 31691.334, 69664.98, -0.035861183, 0.51527673, 39333.156, 39333.156, 0.0, 9.994549, 10.002839 
2.3155293e+3, 1.263047e+2, -1209259.6, -1756243.0, 1128.2179, -0.014408387, 0.55656, -1209257.4, 493008.3, 0.1975332, 10.005786, 9.996929 
2.3154746e+3, 1.3630171e+2, -1154171.9, -1612713.1, -18043.781, -0.039891135, 0.48864862, -1153463.0, 450832.63, 0.14360462, 10.004794, 9.997721 
2.3154207e+3, 1.4629991e+2, -1102105.0, -1541823.0, -3345.6567, 0.016813336, 0.55266595, -1102079.6, 404235.22, 0.08848238, 10.004177, 9.997829 
2.3153663e+3, 1.5629792e+2, -1043788.56, -1492242.1, 281.5544, -0.005268264, 0.5866039, -1043788.4, 364548.2, 0.043159604, 10.003827, 9.997666 
2.3153117e+3, 1.6629566e+2, -976409.8, -1364041.9, -2120.6216, -0.015744722, 0.59412026, -976398.2, 333961.78, 0.015065033, 10.003323, 9.998117 
2.3152576e+3, 1.7629364e+2, -973071.25, -1333046.6, -5134.728, -0.011420391, 0.59205544, -972998.06, 239382.52, 0.0030315944, 10.002726, 9.997945 
2.3152031e+3, 1.862916e+2, -934482.9, -1246772.8, -7103.3564, -0.0046419236, 0.61108965, -934321.4, 180080.98, 0.00019204567, 10.002238, 9.998099 
2.3151487e+3, 1.9628985e+2, -904717.06, -1193405.4, -8625.674, 0.000714577, 0.638827, -904459.56, 111962.71, 0.000000043907978, 10.00182, 9.997994 
2.315094e+3, 2.0628814e+2, -837987.1, -1039171.6, -10414.6045, 0.0052044555, 0.6584417, -837449.44, 80990.98, 0.0, 10.001298, 9.9986315 
2.3150393e+3, 2.162868e+2, -835434.94, -1004182.7, -8963.215, 0.009874986, 0.67246723, -834960.2, -14505.687, 0.0, 10.000715, 9.99848 
2.3149848e+3, 2.2628528e+2, -802290.94, -907250.4, -17497.479, 0.01828775, 0.6822161, -799450.9, -76980.18, 0.0, 10.00014, 9.99875 
2.3149301e+3, 2.3628393e+2, -791694.56, -858291.94, -24915.963, 0.029515114, 0.6867665, -783404.7, -158919.36, 0.0, 9.99957, 9.998688 
2.3148753e+3, 2.4628288e+2, -715762.9, -672058.3, -29866.227, 0.0325867, 0.68710625, -656903.7, -130408.25, 0.0, 9.998993, 9.999571 
2.3148203e+3, 2.5628233e+2, -711963.4, -633936.94, -28807.318, 0.027162625, 0.68544304, -624453.8, -195954.31, 0.0, 9.998407, 9.999442 
2.3147656e+3, 2.6628163e+2, -675301.06, -519064.9, -34432.965, 0.03207252, 0.67534864, -511812.84, -181307.63, 0.0, 9.9977865, 9.999857 
2.3147108e+3, 2.7628112e+2, -675292.9, -476819.06, -28080.604, 0.05308223, 0.65122604, -472922.66, -240413.0, 0.0, 9.99715, 9.999781 
2.3146558e+3, 2.8628108e+2, -626897.44, -311439.94, -21095.309, 0.032173354, 0.64629024, -310035.5, -175526.3, 0.0, 9.996417, 10.000597 
2.3146006e+3, 2.9628184e+2, -657501.0, -287922.66, -23465.21, -0.045173224, 0.675903, -286438.78, -249938.5, 0.0, 9.995586, 10.000486 
2.314548e+3, 3.0628154e+2, -657077.1, -198802.19, -10700.171, 0.1441519, 0.5887249, -198552.48, -198552.48, 0.0, 9.994976, 10.001059 
2.3144925e+3, 3.1628186e+2, -607981.7, 4716.273, 5400.5493, 0.0012920345, 0.5277716, 4763.8716, 4763.8716, 0.0, 9.994548, 10.002658 
2.3255347e+3, 1.2635922e+2, -1258581.0, -1761245.4, 13486.847, -0.0028455427, 0.5690338, -1258219.4, 443512.78, 0.19634466, 10.005254, 9.997149 
2.3254792e+3, 1.3635622e+2, -1133280.5, -1590073.8, 5960.776, -0.040930256, 0.4860611, -1133202.6, 470558.94, 0.14274828, 10.004905, 9.997835 
2.3254248e+3, 1.463546e+2, -1081297.6, -1519602.1, 26648.19, 0.009777897, 0.55813336, -1079683.4, 426095.4, 0.087955184, 10.004289, 9.997927 
2.3253699e+3, 1.563526e+2, -1078164.9, -1499552.1, 23868.338, -0.0014981625, 0.5825921, -1076817.3, 330983.25, 0.04289911, 10.003543, 9.99775 
2.3253149e+3, 1.6635041e+2, -1021803.2, -1387322.9, 19357.22, -0.011055535, 0.59340703, -1020780.94, 289042.88, 0.014973568, 10.003016, 9.998101 
2.32526e+3, 1.7634846e+2, -988702.9, -1340279.8, 13973.242, -0.013012343, 0.6043699, -988148.4, 223695.63, 0.0030175485, 10.002623, 9.997942 
2.325205e+3, 1.8634649e+2, -939806.44, -1236492.8, 15240.852, -0.0066813417, 0.6224737, -939025.56, 174839.6, 0.00019354452, 10.002152, 9.998208 
2.32515e+3, 1.9634473e+2, -924494.75, -1192324.4, 18407.56, 0.0022148734, 0.64008445, -923235.56, 92648.8, 0.000000051889515, 10.001644, 9.998083 
2.3250952e+3, 2.06343e+2, -860124.44, -1053212.3, 11164.943, 0.008119613, 0.65553194, -859481.0, 58421.61, 0.0, 10.001166, 9.998596 
2.3250401e+3, 2.163416e+2, -839665.2, -1009205.75, 2873.3298, 0.0126858475, 0.66923535, -839616.5, -19699.273, 0.0, 10.000705, 9.998447 
2.3249848e+3, 2.2634004e+2, -796628.9, -901662.4, -1505.114, 0.017863834, 0.67688197, -796607.3, -74673.734, 0.0, 10.000172, 9.99877 
2.3249294e+3, 2.363387e+2, -787552.2, -854464.75, 6048.7246, 0.024241015, 0.6782853, -787009.75, -163061.53, 0.0, 9.999596, 9.998699 
2.324874e+3, 2.4633768e+2, -717121.9, -673765.3, 3174.4414, 0.030939193, 0.6832182, -673534.1, -147575.9, 0.0, 9.998993, 9.999557 
2.3248187e+3, 2.563372e+2, -718149.0, -637443.25, -136.80513, 0.034672346, 0.69162995, -637443.0, -209480.88, 0.0, 9.998373, 9.999432 
2.3247632e+3, 2.663365e+2, -677442.25, -511193.34, -7978.7764, 0.037918717, 0.6781602, -510811.28, -180843.33, 0.0, 9.997739, 9.99993 
2.3247078e+3, 2.763359e+2, -680013.1, -470159.34, -1194.8855, 0.049246054, 0.6407503, -470152.56, -238179.63, 0.0, 9.997086, 9.999855 
2.3246521e+3, 2.8633612e+2, -625895.06, -297452.9, 12486.71, 0.0284322, 0.6516253, -296978.88, -163008.83, 0.0, 9.996371, 10.000711 
2.3245959e+3, 2.9633737e+2, -642829.9, -269112.63, 28811.1, -0.037587985, 0.7212509, -266904.53, -230948.22, 0.0, 9.995644, 10.000584 
2.324543e+3, 3.0633605e+2, -646062.0, -194511.81, 38630.87, 0.1439369, 0.53015536, -191230.72, -191230.72, 0.0, 9.995063, 10.001042 
2.3244868e+3, 3.1633803e+2, -605555.5, 35129.066, -11773.468, 0.024554137, 0.63668674, 35345.348, 35345.348, 0.0, 9.99444, 10.002918 
2.33554e+3, 1.2641385e+2, -1231028.1, -1698082.0, 4995.553, 0.026164318, 0.53950167, -1230974.8, 470222.9, 0.19447652, 10.005269, 9.9975815 
2.3354839e+3, 1.3641162e+2, -1117363.4, -1557701.4, -7638.8354, -0.04053987, 0.5033488, -1117231.0, 485987.4, 0.14138487, 10.004895, 9.9981 
2.3354287e+3, 1.4641015e+2, -1082700.6, -1523682.3, -4.675081, -0.0031647952, 0.5806416, -1082700.6, 422533.25, 0.08710072, 10.004283, 9.997904 
2.3353733e+3, 1.5640771e+2, -1078444.4, -1503027.0, -1814.3073, -0.003864934, 0.5618325, -1078436.6, 328823.44, 0.042464346, 10.003549, 9.997726 
2.3353179e+3, 1.664055e+2, -1024190.8, -1395476.5, 5099.3096, -0.006048911, 0.57658386, -1024120.75, 285163.1, 0.014810446, 10.003025, 9.998044 
2.3352624e+3, 1.7640387e+2, -989822.1, -1345106.5, -804.2625, -0.0036626037, 0.622773, -989820.3, 221481.72, 0.002983775, 10.002628, 9.997909 
2.335207e+3, 1.8640196e+2, -926937.6, -1212253.9, -3424.6653, -0.0024973557, 0.64059925, -926896.5, 186425.64, 0.0001924848, 10.002158, 9.998374 
2.3351516e+3, 1.9640015e+2, -914520.75, -1174389.1, 82.58404, -0.004491631, 0.6352782, -914520.7, 100820.3, 0.000000054038466, 10.001652, 9.998206 
2.3350962e+3, 2.0639835e+2, -870617.25, -1077696.0, -5455.7827, 0.0036847612, 0.64840955, -870473.6, 46886.39, 0.0, 10.001173, 9.998427 
2.3350406e+3, 2.1639688e+2, -846806.4, -1026698.5, -13906.587, 0.018535957, 0.67274576, -845737.7, -26361.652, 0.0, 10.000711, 9.998327 
2.3349848e+3, 2.263954e+2, -780910.3, -871868.94, -22504.45, 0.01574425, 0.68085104, -775646.94, -54255.54, 0.0, 10.000179, 9.998973 
2.3349287e+3, 2.363942e+2, -774597.06, -830479.94, -15577.314, 0.00317862, 0.6767292, -770548.25, -147144.58, 0.0, 9.999603, 9.998862 
2.3348728e+3, 2.4639322e+2, -721964.56, -686630.94, -20536.607, 0.013766105, 0.6843102, -677207.75, -151794.39, 0.0, 9.999, 9.999467 
2.3348169e+3, 2.563927e+2, -722143.5, -648311.94, -24311.633, 0.035402406, 0.6995691, -641025.56, -213607.27, 0.0, 9.998379, 9.999356 
2.3347607e+3, 2.6639196e+2, -671412.5, -500621.44, -33804.43, 0.036275033, 0.6796379, -494173.97, -164749.14, 0.0, 9.997743, 10.000004 
2.3347044e+3, 2.7639133e+2, -671769.4, -455125.6, -27990.67, 0.031447664, 0.6296314, -451567.6, -220137.63, 0.0, 9.997089, 9.999959 
2.3346484e+3, 2.8639182e+2, -600209.1, -246658.69, -16394.36, 0.03181378, 0.64458114, -245900.1, -112476.125, 0.0, 9.996377, 10.0010605 
2.334592e+3, 2.9639348e+2, -624426.25, -233937.61, 2919.6, 0.014721117, 0.721825, -233915.78, -198509.98, 0.0, 9.995651, 10.000825 
2.3345374e+3, 3.0639184e+2, -678038.9, -261860.03, 15827.408, 0.10722663, 0.51534545, -261258.98, -261258.98, 0.0, 9.995063, 10.000582 
2.3344812e+3, 3.1639385e+2, -564607.8, 118513.09, -54684.355, 0.022097128, 0.665268, 122862.92, 122862.92, 0.0, 9.994438, 10.003496 
2.3455454e+3, 1.2646961e+2, -1191452.3, -1672147.9, 41230.37, 0.023352334, 0.5274413, -1187941.5, 512709.47, 0.19189107, 10.005554, 9.997662 
2.3454888e+3, 1.3646743e+2, -1154221.5, -1580208.0, 9378.919, -0.026585463, 0.5013474, -1154015.1, 448656.3, 0.1394858, 10.00462, 9.99805 
2.3454326e+3, 1.4646606e+2, -1114159.9, -1531484.5, 16092.198, 0.0011001197, 0.5884877, -1113540.3, 391145.72, 0.08590069, 10.004009, 9.997978 
2.3453768e+3, 1.5646364e+2, -1067160.0, -1489401.4, 20357.068, -0.00899239, 0.5650221, -1066180.9, 340531.28, 0.04184572, 10.003598, 9.997793 
2.3453207e+3, 1.6646142e+2, -1008445.06, -1381514.6, 37070.723, -0.008765695, 0.5744529, -1004797.1, 303938.78, 0.014571963, 10.003113, 9.998095 
2.3452652e+3, 1.7645979e+2, -993052.56, -1341605.6, 37581.945, 0.0013963082, 0.6164442, -989046.44, 221707.53, 0.0029293413, 10.00259, 9.997948 
2.3452093e+3, 1.8645793e+2, -932135.4, -1212828.0, 30041.938, 0.0035205483, 0.63750285, -928956.06, 183817.6, 0.00018867207, 10.00212, 9.998385 
2.3451531e+3, 1.9645618e+2, -910136.2, -1170880.1, 21050.133, -0.0011946833, 0.6389422, -908447.75, 106344.19, 0.00000004796778, 10.001681, 9.998213 
2.3450972e+3, 2.064544e+2, -872718.9, -1076037.4, 17360.88, 0.0024468051, 0.651571, -871247.1, 45563.78, 0.0, 10.001152, 9.9984455 
2.345041e+3, 2.1645288e+2, -865265.3, -1032134.5, 21068.781, 0.011908014, 0.67167854, -862646.25, -43819.0, 0.0, 10.000575, 9.998352 
2.3449846e+3, 2.2645144e+2, -795517.25, -867048.4, 11396.877, 0.009528292, 0.6772683, -793745.3, -72903.23, 0.0, 10.000033, 9.999074 
2.344928e+3, 2.364503e+2, -782414.56, -824125.6, 10296.039, 0.0005869806, 0.67172664, -780011.56, -157158.33, 0.0, 9.999511, 9.998947 
2.3448716e+3, 2.464494e+2, -727281.94, -688782.94, 5078.145, 0.011310177, 0.6832195, -688124.4, -163262.03, 0.0, 9.998967, 9.999465 
2.3448151e+3, 2.5644895e+2, -717763.3, -644349.6, 7236.7524, 0.031504136, 0.7047291, -643643.06, -216775.8, 0.0, 9.998406, 9.999368 
2.3447584e+3, 2.664482e+2, -662053.2, -483016.8, -959.5265, 0.030203877, 0.67936146, -483011.7, -154138.14, 0.0, 9.997756, 10.000115 
2.3447011e+3, 2.7644756e+2, -672184.94, -443570.8, 6794.7905, 0.022332845, 0.6198578, -443369.06, -212490.95, 0.0, 9.997041, 10.000058 
2.3446445e+3, 2.8644812e+2, -591036.6, -239769.56, 4961.574, 0.034056235, 0.6364909, -239699.5, -106827.92, 0.0, 9.996434, 10.001078 
2.3445879e+3, 2.9644984e+2, -589376.7, -218348.9, -842.5846, 0.038435645, 0.7152343, -218347.0, -183493.34, 0.0, 9.995903, 10.000809 
2.3445322e+3, 3.064485e+2, -653413.8, -234995.42, 23400.95, 0.082996204, 0.5345613, -233690.75, -233690.75, 0.0, 9.995173, 10.0007105 
2.3444758e+3, 3.164502e+2, -584126.25, 113500.84, 4941.975, 0.06505092, 0.63860494, 113535.85, 113535.85, 0.0, 9.994293, 10.003528 
2.3555505e+3, 1.2652633e+2, -1200704.9, -1697296.4, 12239.72, -0.0073431088, 0.5205793, -1200403.4, 499690.8, 0.18862586, 10.00556, 9.997447 
2.3554935e+3, 1.3652366e+2, -1170290.0, -1621174.3, -17722.096, -0.0016244153, 0.48311338, -1169594.5, 432525.94, 0.13707879, 10.004626, 9.997744 
2.3554368e+3, 1.4652237e+2, -1103919.1, -1513321.3, 2869.0562, 0.019404348, 0.5844226, -1103899.0, 400235.84, 0.084371336, 10.004019, 9.998101 
2.3553799e+3, 1.5652035e+2, -1057575.8, -1471696.1, 5331.19, -0.017113712, 0.58929867, -1057507.1, 348649.84, 0.041049205, 10.003604, 9.997914 
2.3553234e+3, 1.6651812e+2, -998775.8, -1363374.3, 17943.854, -0.018751858, 0.5847435, -997894.9, 310285.47, 0.014258232, 10.003116, 9.99822 
2.3552676e+3, 1.7651622e+2, -986292.25, -1329701.3, 18688.363, 0.0021714554, 0.5871885, -985278.25, 224921.84, 0.002853129, 10.002594, 9.99803 
2.3552112e+3, 1.8651438e+2, -942124.8, -1235801.5, 14057.746, 0.011017691, 0.6154101, -941453.44, 170766.45, 0.0001817398, 10.002125, 9.998228 
2.3551548e+3, 1.9651282e+2, -917264.6, -1187949.5, 4488.7026, 0.011450114, 0.6516124, -917190.25, 97047.125, 0.000000035210917, 10.001686, 9.9980955 
2.3550981e+3, 2.0651108e+2, -859151.56, -1050307.1, -3390.7795, 0.003860511, 0.6647543, -859091.44, 57164.324, 0.0, 10.001158, 9.998622 
2.3550412e+3, 2.1650955e+2, -853886.75, -1011059.8, 469.15634, -0.007624765, 0.6654898, -853885.3, -35613.715, 0.0, 10.000581, 9.998497 
2.3549844e+3, 2.265081e+2, -795730.4, -870266.2, -7507.9487, -0.00076445966, 0.6658443, -794981.6, -74695.36, 0.0, 10.00004, 9.999051 
2.3549275e+3, 2.3650698e+2, -781897.1, -825821.2, -9589.195, 0.016821222, 0.6634288, -779894.94, -157597.56, 0.0, 9.999518, 9.998935 
2.3548706e+3, 2.4650617e+2, -721023.06, -678526.06, -16217.716, 0.023623925, 0.68033046, -673044.2, -148738.4, 0.0, 9.998974, 9.999536 
2.3548132e+3, 2.5650582e+2, -710587.5, -632331.2, -15196.1, 0.021996146, 0.70730424, -629483.94, -203174.31, 0.0, 9.998414, 9.99945 
2.3547558e+3, 2.6650515e+2, -651407.4, -463511.78, -29012.195, 0.019346336, 0.67672205, -459134.13, -130819.36, 0.0, 9.997762, 10.00025 
2.3546982e+3, 2.7650458e+2, -666534.06, -434001.75, -20537.395, 0.022886079, 0.60922796, -432201.8, -201883.78, 0.0, 9.9970455, 10.000125 
2.3546408e+3, 2.8650495e+2, -616339.8, -294517.6, -16518.318, 0.03402577, 0.62858385, -293671.97, -161358.31, 0.0, 9.996439, 10.000702 
2.3545834e+3, 2.965063e+2, -609716.56, -264601.63, -24065.467, 0.027390296, 0.7079374, -262931.56, -228630.75, 0.0, 9.995915, 10.000487 
2.3545271e+3, 3.0650574e+2, -596379.44, -120062.28, -12743.0, 0.07475092, 0.57882595, -119721.61, -119721.61, 0.0, 9.995183, 10.001498 
2.3544702e+3, 3.1650788e+2, -647132.0, -18222.771, 5377.6724, 0.093242146, 0.64416575, -18176.793, -18176.793, 0.0, 9.994294, 10.002624 
2.3655556e+3, 1.2658392e+2, -1189632.6, -1687828.0, 31982.451, -0.019847406, 0.52484554, -1187587.8, 511941.94, 0.18478943, 10.0056095, 9.9974985 
2.3654981e+3, 1.3658115e+2, -1154592.8, -1622597.4, 20109.729, 0.0037027223, 0.48616463, -1153730.3, 447826.94, 0.13424015, 10.004784, 9.997657 
2.3654407e+3, 1.4657974e+2, -1093486.4, -1513774.3, 53511.895, 0.022113867, 0.5836351, -1086780.1, 416792.7, 0.08255552, 10.004118, 9.998052 
2.3653834e+3, 1.5657768e+2, -1068030.6, -1480585.0, 46433.78, -0.014218169, 0.58990455, -1062869.0, 342726.5, 0.040092092, 10.003547, 9.997879 
2.3653264e+3, 1.6657548e+2, -1007181.44, -1361426.1, 51763.22, -0.013859077, 0.58631, -999772.6, 307845.88, 0.0138728665, 10.0030365, 9.998269 
2.36527e+3, 1.7657359e+2, -988723.7, -1325964.4, 46823.184, 0.008673429, 0.58844286, -982343.4, 227294.2, 0.0027546706, 10.002562, 9.998069 
2.3652132e+3, 1.8657175e+2, -950735.7, -1238424.8, 47787.46, 0.014825591, 0.61486673, -943005.5, 168651.88, 0.00017147174, 10.002065, 9.998237 
2.3651563e+3, 1.9657016e+2, -935503.75, -1194959.4, 48301.273, 0.011135628, 0.6492865, -926803.56, 86871.59, 0.000000020158883, 10.001559, 9.998106 
2.3650992e+3, 2.0656843e+2, -872521.8, -1052456.4, 35322.094, 0.002981679, 0.66213226, -865836.3, 49857.17, 0.0, 10.001053, 9.998655 
2.3650418e+3, 2.1656694e+2, -856275.25, -1007133.75, 28372.557, -0.007726103, 0.6628312, -851115.56, -33406.55, 0.0, 10.000548, 9.998537 
2.3649843e+3, 2.2656554e+2, -793640.25, -860797.6, 21142.68, -0.000884339, 0.6621819, -787538.44, -67815.445, 0.0, 10.000024, 9.999122 
2.364927e+3, 2.3656446e+2, -782311.94, -818500.6, 25646.0, 0.016927019, 0.65872276, -769019.6, -147286.23, 0.0, 9.999488, 9.998997 
2.3648694e+3, 2.4656364e+2, -725990.1, -677153.25, 17686.016, 0.022519821, 0.67250246, -671421.2, -147679.55, 0.0, 9.998929, 9.999563 
2.3648115e+3, 2.5656328e+2, -717760.25, -631555.56, 14977.084, 0.01810444, 0.6951952, -629027.56, -203281.89, 0.0, 9.998352, 9.999482 
2.3647535e+3, 2.6656264e+2, -646004.5, -456145.97, -7493.1777, 0.018034695, 0.66471577, -455850.7, -128100.21, 0.0, 9.997785, 10.000287 
2.364695e+3, 2.7656212e+2, -640080.75, -419266.38, -6594.1807, 0.029273544, 0.6003779, -419069.63, -189316.55, 0.0, 9.997225, 10.000136 
2.3646373e+3, 2.865625e+2, -606222.5, -302700.13, 6482.7104, 0.03473093, 0.62736905, -302561.72, -170812.9, 0.0, 9.996571, 10.00058 
2.3645791e+3, 2.9656377e+2, -632751.06, -287841.25, 16962.234, 0.009400911, 0.7149877, -287009.06, -253272.2, 0.0, 9.995814, 10.000375 
2.3645222e+3, 3.065629e+2, -565450.0, -76698.0, 14488.031, 0.088486366, 0.5461358, -76268.91, -76268.91, 0.0, 9.995276, 10.001749 
2.3644648e+3, 3.1656575e+2, -601678.1, -87698.34, 6673.077, 0.0959936, 0.6631796, -87611.73, -87611.73, 0.0, 9.995007, 10.001801 
2.3755613e+3, 1.2664229e+2, -1173566.3, -1661070.0, 6004.7095, -0.020462675, 0.52986413, -1173492.3, 525466.1, 0.18051884, 10.005611, 9.997723 
2.3755024e+3, 1.3663979e+2, -1147990.8, -1614090.0, -6047.4004, -0.009686587, 0.50692844, -1147912.4, 453070.28, 0.13106178, 10.004793, 9.997711 
2.3754446e+3, 1.466381e+2, -1103455.9, -1543399.6, 33227.605, 0.010326803, 0.5859848, -1100960.5, 402040.38, 0.08050331, 10.004135, 9.99784 
2.375387e+3, 1.5663561e+2, -1077193.0, -1506707.8, 26512.047, -0.0014555131, 0.5701772, -1075562.8, 329464.97, 0.03899559, 10.003566, 9.997693 
2.3753296e+3, 1.6663344e+2, -1007303.5, -1366372.0, 34552.676, 0.0042733103, 0.58094084, -1004008.75, 303041.7, 0.013422833, 10.003051, 9.998231 
2.3752725e+3, 1.7663187e+2, -988616.2, -1328748.1, 29192.18, 0.019699154, 0.61760265, -986128.94, 222937.92, 0.0026356177, 10.002569, 9.998049 
2.3752151e+3, 1.8662998e+2, -939756.4, -1218123.8, 29174.908, 0.014605034, 0.6333767, -936731.5, 174355.16, 0.00015821184, 10.00207, 9.998375 
2.3751575e+3, 1.9662817e+2, -927663.94, -1181128.8, 29523.734, -0.001694383, 0.63207614, -924270.44, 88835.37, 0.0000000080542115, 10.001564, 9.9982 
2.3750998e+3, 2.0662642e+2, -879334.44, -1069373.1, 16905.256, 0.000055903136, 0.64467573, -877842.3, 37282.168, 0.0, 10.00106, 9.998538 
2.3750423e+3, 2.16625e+2, -860421.3, -1018585.7, 10094.178, 0.010997765, 0.66449994, -859779.7, -42639.805, 0.0, 10.000556, 9.998458 
2.3749842e+3, 2.2662367e+2, -782183.7, -839789.3, 1639.975, 0.008372445, 0.6668111, -782137.0, -62984.17, 0.0, 10.0000305, 9.999265 
2.374926e+3, 2.3662266e+2, -773101.8, -802086.6, 5378.639, -0.00006611657, 0.65757585, -772135.9, -150974.16, 0.0, 9.999495, 9.999109 
2.374868e+3, 2.4662176e+2, -727007.94, -681983.1, -4457.6294, 0.007638912, 0.6590092, -681546.06, -158375.5, 0.0, 9.998936, 9.99953 
2.3748095e+3, 2.566212e+2, -719561.0, -637650.5, -7754.1836, 0.020239854, 0.66642565, -636922.9, -211746.56, 0.0, 9.998357, 9.99944 
2.374751e+3, 2.6662058e+2, -651382.75, -469636.44, -29861.672, 0.026446642, 0.6430165, -464855.78, -137674.33, 0.0, 9.997789, 10.000195 
2.3746924e+3, 2.7662015e+2, -642572.4, -427842.03, -29155.984, 0.04008316, 0.5956886, -423953.66, -194769.66, 0.0, 9.997234, 10.000076 
2.3746336e+3, 2.8662068e+2, -594293.6, -280672.34, -23678.031, 0.03604581, 0.63221395, -278894.75, -147716.89, 0.0, 9.996577, 10.0007305 
2.3745744e+3, 2.966222e+2, -625589.2, -273498.16, -12941.178, -0.012527806, 0.72964126, -273023.16, -239860.53, 0.0, 9.9958105, 10.000477 
2.3745178e+3, 3.066199e+2, -591882.2, -134043.1, 3140.2498, 0.12361817, 0.43517384, -134021.55, -134021.55, 0.0, 9.995282, 10.001354 
2.3744595e+3, 3.1662312e+2, -617462.8, -127602.02, -16735.795, 0.09077191, 0.63005406, -127030.92, -127030.92, 0.0, 9.995035, 10.0015135 
2.3855668e+3, 1.2670153e+2, -1174129.9, -1670230.1, 31503.75, -0.0064916564, 0.5377592, -1172137.3, 526240.7, 0.17593923, 10.005625, 9.997636 
2.3855071e+3, 1.3669895e+2, -1138170.1, -1628765.9, 7566.537, -0.008927523, 0.5253205, -1138053.4, 462350.25, 0.1276255, 10.004943, 9.997536 
2.3854487e+3, 1.4669698e+2, -1070431.0, -1529115.1, 53889.492, 0.0075001973, 0.58979833, -1064184.8, 438239.34, 0.07826013, 10.00439, 9.997814 
2.3853907e+3, 1.566944e+2, -1034349.3, -1488935.1, 57934.246, 0.0100610135, 0.56643397, -1027082.06, 377369.25, 0.03778199, 10.003888, 9.997658 
2.3853327e+3, 1.6669217e+2, -977423.44, -1358438.3, 68225.305, 0.013752827, 0.57719076, -965575.3, 340899.25, 0.0129186185, 10.003291, 9.998167 
2.3852749e+3, 1.7669055e+2, -980554.3, -1330131.8, 60966.77, 0.017383803, 0.6164063, -970226.75, 238264.88, 0.0025001972, 10.002653, 9.997995 
2.3852171e+3, 1.8668863e+2, -935418.25, -1214047.4, 56033.16, 0.013374671, 0.63084185, -924572.06, 185939.61, 0.00014292392, 10.002097, 9.998387 
2.385159e+3, 1.966868e+2, -923899.2, -1177286.0, 46836.637, 0.0049749296, 0.6262965, -915518.94, 97011.9, 0.0000000017673162, 10.001587, 9.998213 
2.3851009e+3, 2.0668505e+2, -869104.44, -1059326.6, 38702.68, 0.0041145724, 0.6380362, -861531.5, 53017.77, 0.0, 10.001114, 9.998579 
2.3850428e+3, 2.1668367e+2, -843054.7, -1005501.6, 41199.434, 0.007417354, 0.65849054, -833203.2, -16639.002, 0.0, 10.00066, 9.998494 
2.3849842e+3, 2.2668236e+2, -768631.4, -829264.56, 28145.37, 0.006236304, 0.6601913, -757580.6, -39003.902, 0.0, 10.000112, 9.999295 
2.3849255e+3, 2.3668139e+2, -769041.3, -796836.44, 23840.395, 0.0036756354, 0.65009314, -755343.44, -134758.2, 0.0, 9.999515, 9.999133 
2.3848666e+3, 2.4668041e+2, -718283.25, -675946.1, 14320.24, 0.0111862235, 0.6439759, -671557.4, -148962.92, 0.0, 9.998994, 9.99954 
2.3848079e+3, 2.566797e+2, -696471.06, -624198.6, 13198.1875, 0.020519435, 0.6390709, -621863.8, -197262.67, 0.0, 9.998511, 9.999455 
2.3847488e+3, 2.6667917e+2, -636539.0, -457020.44, -4984.1357, 0.028644504, 0.62031853, -456882.16, -130276.42, 0.0, 9.997874, 10.0002365 
2.3846895e+3, 2.7667895e+2, -654203.9, -430006.16, 5886.1724, 0.0477229, 0.59134567, -429851.75, -201245.14, 0.0, 9.997146, 10.000101 
2.3846301e+3, 2.8667948e+2, -598084.94, -281642.78, 5196.365, 0.039210815, 0.62737286, -281557.47, -150956.83, 0.0, 9.996553, 10.000732 
2.3845701e+3, 2.9668075e+2, -592379.9, -251940.81, 3180.949, -0.021916738, 0.70022476, -251911.1, -219323.34, 0.0, 9.996023, 10.000519 
2.3845132e+3, 3.0667877e+2, -562501.4, -127702.93, 44812.168, 0.14258355, 0.43828797, -123132.44, -123132.44, 0.0, 9.9955225, 10.00128 
2.3844543e+3, 3.1668225e+2, -606567.5, -109017.49, 15854.612, 0.08295805, 0.67304194, -108512.79, -108512.79, 0.0, 9.995055, 10.00163 
2.3955725e+3, 1.2676154e+2, -1190157.0, -1714680.0, 6974.1665, 0.014995453, 0.54334617, -1190064.3, 507725.34, 0.17115939, 10.005631, 9.997289 
2.395512e+3, 1.3675863e+2, -1155178.0, -1679594.6, -12752.648, 0.0039023948, 0.5406914, -1154868.0, 444951.94, 0.12400298, 10.004964, 9.99718 
2.3954529e+3, 1.4675647e+2, -1059723.1, -1513436.6, 37291.586, 0.012231951, 0.5934297, -1056678.5, 445163.6, 0.07586999, 10.00441, 9.997913 
2.3953943e+3, 1.5675403e+2, -1027950.75, -1479647.9, 38827.586, 0.018849675, 0.57613593, -1024637.5, 379229.3, 0.03647789, 10.003898, 9.997719 
2.3953357e+3, 1.6675164e+2, -982664.5, -1372795.8, 44403.04, 0.014458382, 0.5745373, -977674.56, 328216.63, 0.012374733, 10.003299, 9.998067 
2.3952773e+3, 1.7674966e+2, -986104.5, -1345443.3, 37947.83, 0.0030067267, 0.5879626, -982140.75, 225771.14, 0.002354465, 10.002665, 9.997888 
2.395219e+3, 1.867477e+2, -941940.9, -1231117.1, 37147.074, 0.0115012275, 0.6099672, -937245.3, 172687.16, 0.00012687426, 10.002108, 9.998268 
2.3951606e+3, 1.9674602e+2, -927845.56, -1188363.6, 28585.848, 0.029655712, 0.6318698, -924745.8, 87204.66, 0.000000000116293294, 10.001595, 9.9981365 
2.3951018e+3, 2.0674431e+2, -856043.94, -1034993.1, 22462.299, 0.013997152, 0.6414784, -853267.5, 60700.563, 0.0, 10.001121, 9.998745 
2.395043e+3, 2.167429e+2, -833356.75, -988015.94, 23967.867, -0.01842805, 0.6443512, -829727.56, -13745.188, 0.0, 10.000667, 9.998613 
2.3949839e+3, 2.2674157e+2, -774262.1, -843674.06, 6111.614, -0.0068312185, 0.6422783, -773728.06, -55732.832, 0.0, 10.000118, 9.999196 
2.394925e+3, 2.3674053e+2, -773377.8, -808509.56, 1832.6555, 0.028431712, 0.63653195, -773282.44, -153277.92, 0.0, 9.99952, 9.999052 
2.3948658e+3, 2.467395e+2, -714397.2, -670835.6, -4308.7173, 0.033151858, 0.627706, -670413.56, -148399.55, 0.0, 9.9990015, 9.999575 
2.3948061e+3, 2.5673878e+2, -690873.25, -615956.0, -7373.1646, 0.018227402, 0.61309767, -615237.25, -191216.25, 0.0, 9.998521, 9.99951 
2.3947464e+3, 2.6673836e+2, -623541.3, -432665.97, -34006.21, 0.02400906, 0.5966459, -426788.44, -100764.38, 0.0, 9.99788, 10.000403 
2.3946865e+3, 2.7673846e+2, -647206.56, -416675.16, -21294.893, 0.05209572, 0.58731455, -414724.6, -186703.14, 0.0, 9.997146, 10.000195 
2.3946264e+3, 2.867388e+2, -612983.9, -313570.4, -16267.202, 0.044696424, 0.61037004, -312689.2, -182670.92, 0.0, 9.996553, 10.000516 
2.394566e+3, 2.9673922e+2, -594516.75, -259343.2, -19610.092, -0.018875556, 0.61835134, -258199.78, -226185.16, 0.0, 9.996031, 10.000467 
2.3945086e+3, 3.0673972e+2, -535443.8, -75600.914, 27314.324, 0.13931711, 0.5824872, -73984.15, -73984.15, 0.0, 9.995535, 10.001635 
2.3944494e+3, 3.1674173e+2, -582585.9, -63313.133, -54479.246, 0.110370114, 0.64416826, -57659.035, -57659.035, 0.0, 9.995065, 10.001944 
2.4055782e+3, 1.2682204e+2, -1174500.1, -1709561.3, 20603.982, 0.030789983, 0.5456718, -1173707.9, 523488.47, 0.166268, 10.005748, 9.997268 
2.4055171e+3, 1.3681896e+2, -1129476.0, -1674102.4, 24511.477, 0.015978629, 0.5332272, -1128375.0, 470853.28, 0.120257355, 10.005185, 9.997109 
2.4054573e+3, 1.4681661e+2, -1035021.75, -1509677.4, 77707.87, 0.014070419, 0.575113, -1022623.7, 478628.63, 0.07337694, 10.004622, 9.997839 
2.4053982e+3, 1.568142e+2, -1012989.44, -1481678.8, 69178.766, 0.016384672, 0.57181925, -1002991.9, 400284.5, 0.03511279, 10.0040455, 9.997632 
2.4053392e+3, 1.6681178e+2, -966306.44, -1378510.8, 68452.125, 0.016264994, 0.5779177, -955236.3, 350065.13, 0.0118072, 10.003475, 9.99794 
2.40528e+3, 1.768097e+2, -957388.9, -1342916.3, 59658.66, 0.012093598, 0.59284407, -948368.06, 258955.66, 0.0022045295, 10.002915, 9.997781 
2.405221e+3, 1.8680763e+2, -908475.0, -1213188.8, 64785.367, 0.021866694, 0.60912627, -895272.94, 214072.06, 0.00011121557, 10.002336, 9.998279 
2.4051623e+3, 1.9680586e+2, -905284.3, -1176204.3, 64658.664, 0.038977068, 0.623334, -890643.9, 120719.34, 0.000000000004061441, 10.00175, 9.998142 
2.405103e+3, 2.0680413e+2, -839744.1, -1027160.8, 55824.92, 0.020995062, 0.6293702, -824376.0, 89004.9, 0.0, 10.001239, 9.998739 
2.4050434e+3, 2.1680267e+2, -819453.7, -981013.1, 43486.71, -0.0147951385, 0.63007945, -808492.2, 6903.3647, 0.0, 10.000767, 9.9986105 
2.404984e+3, 2.2680135e+2, -751625.8, -829470.9, 23873.354, -0.0058147055, 0.6284975, -744887.6, -27479.398, 0.0, 10.000265, 9.99922 
2.4049246e+3, 2.3680034e+2, -738669.06, -787510.2, 28424.328, 0.027778298, 0.62495446, -725615.56, -106198.36, 0.0, 9.999746, 9.999085 
2.4048647e+3, 2.4679933e+2, -691247.75, -647653.7, 27677.465, 0.035684682, 0.60981745, -634220.75, -112794.35, 0.0, 9.999114, 9.999677 
2.4048047e+3, 2.567986e+2, -699378.3, -610036.75, 28977.791, 0.025998442, 0.5847072, -601461.0, -178027.86, 0.0, 9.9984255, 9.999594 
2.4047442e+3, 2.6679832e+2, -621209.6, -427993.94, -4429.5044, 0.026845165, 0.5806715, -427892.44, -102457.695, 0.0, 9.997887, 10.00043 
2.4046834e+3, 2.767987e+2, -605900.44, -393344.0, -2884.699, 0.045126833, 0.5966662, -393304.84, -165874.92, 0.0, 9.997421, 10.000219 
2.404623e+3, 2.867988e+2, -583954.1, -299587.06, 8495.656, 0.048019033, 0.59488523, -299333.5, -169904.36, 0.0, 9.996758, 10.00051 
2.4045621e+3, 2.9679865e+2, -596026.25, -253135.63, 21601.365, 0.0057451157, 0.54720515, -251780.14, -220349.31, 0.0, 9.995995, 10.0005245 
2.4045037e+3, 3.0680063e+2, -518101.34, -42828.176, 70251.55, 0.11563144, 0.64347076, -32661.559, -32661.559, 0.0, 9.995556, 10.001846 
2.4044445e+3, 3.1680033e+2, -571014.2, -81111.69, -58256.543, 0.12105153, 0.4601017, -74279.42, -74279.42, 0.0, 9.995255, 10.001723 
2.4155837e+3, 1.26883e+2, -1157885.0, -1682069.9, 360.44705, 0.03804554, 0.53650975, -1157884.8, 538713.75, 0.16132069, 10.005758, 9.99747 
2.4155222e+3, 1.3687994e+2, -1117397.9, -1655693.3, 5649.4487, 0.025755497, 0.5082763, -1117338.6, 481290.38, 0.116441466, 10.005203, 9.997229 
2.4154617e+3, 1.4687741e+2, -1045700.7, -1541453.6, 57024.31, 0.012470093, 0.54075974, -1039225.94, 461428.8, 0.07082512, 10.004641, 9.997611 
2.4154018e+3, 1.5687497e+2, -1024897.8, -1513155.9, 48065.2, 0.003913341, 0.55535084, -1020211.1, 382468.97, 0.033716638, 10.004061, 9.99741 
2.4153423e+3, 1.668726e+2, -976140.2, -1403179.4, 47737.797, 0.018881133, 0.58607805, -970868.75, 333836.7, 0.011231195, 10.003486, 9.997767 
2.415283e+3, 1.7687058e+2, -964755.2, -1360758.3, 38759.945, 0.041745838, 0.6272004, -960997.1, 245730.39, 0.0020556925, 10.002921, 9.997659 
2.4152234e+3, 1.8686838e+2, -899671.4, -1197512.9, 43015.656, 0.042585414, 0.6258698, -893583.3, 215166.4, 0.00009683322, 10.002341, 9.998385 
2.4151638e+3, 1.9686632e+2, -900006.2, -1168399.9, 43597.43, 0.033472273, 0.60148925, -893101.9, 117667.47, 0.000000000003904099, 10.001759, 9.998194 
2.415104e+3, 2.0686445e+2, -851295.4, -1054260.4, 38516.58, 0.0255718, 0.60297406, -844231.94, 68556.31, 0.0, 10.001247, 9.998551 
2.4150445e+3, 2.1686295e+2, -827549.2, -1000458.44, 26103.035, 0.017416788, 0.6162262, -823694.5, -8890.572, 0.0, 10.000772, 9.998477 
2.4149841e+3, 2.2686167e+2, -741584.44, -811311.1, 5145.171, 0.008058673, 0.619094, -741206.8, -24390.744, 0.0, 10.000272, 9.999344 
2.4149238e+3, 2.3686078e+2, -728238.2, -768992.94, 7825.1553, 0.00043982622, 0.6149516, -726787.4, -107963.62, 0.0, 9.999755, 9.999211 
2.4148636e+3, 2.4685982e+2, -679063.56, -625255.4, 944.5079, 0.018268943, 0.590052, -625238.8, -104406.67, 0.0, 9.999122, 9.999829 
2.4148029e+3, 2.568591e+2, -692120.44, -596775.8, 3402.263, 0.044306904, 0.5538252, -596654.56, -173816.33, 0.0, 9.998428, 9.999686 
2.414742e+3, 2.66859e+2, -630799.8, -450365.4, -22640.965, 0.03719957, 0.5731431, -447567.8, -122729.28, 0.0, 9.997892, 10.000277 
2.4146804e+3, 2.7685958e+2, -608295.25, -402992.75, -23491.516, 0.024651488, 0.62057734, -400339.06, -173506.11, 0.0, 9.997436, 10.000149 
2.4146196e+3, 2.868594e+2, -566161.56, -265645.75, -22440.135, 0.048122086, 0.58181256, -263979.34, -135145.55, 0.0, 9.996767, 10.000741 
2.4145584e+3, 2.9685903e+2, -585590.6, -231345.19, -4232.584, 0.05455659, 0.48879585, -231294.61, -200458.45, 0.0, 9.99599, 10.00068 
2.4144985e+3, 3.068611e+2, -525546.44, -60029.91, 57854.574, 0.07158765, 0.59802747, -52947.473, -52947.473, 0.0, 9.995557, 10.001731 
2.4144395e+3, 3.1686193e+2, -600148.56, -150858.38, -72813.53, 0.09107138, 0.54319006, -139352.61, -139352.61, 0.0, 9.995287, 10.001234 
2.4255894e+3, 1.2694457e+2, -1146393.0, -1680624.3, 28233.361, 0.02729454, 0.51693857, -1144905.0, 551089.06, 0.15633117, 10.005841, 9.997439 
2.4255273e+3, 1.3694154e+2, -1082589.0, -1644382.5, 24628.63, 0.027874805, 0.497663, -1081511.4, 516512.5, 0.11258941, 10.005487, 9.997168 
2.4254663e+3, 1.4693889e+2, -1014606.25, -1541453.3, 69170.53, 0.017342038, 0.5291875, -1005676.1, 494375.1, 0.068250746, 10.004932, 9.997469 
2.425406e+3, 1.5693645e+2, -1003818.06, -1517907.5, 64319.94, 0.010605315, 0.5575122, -995892.9, 406184.3, 0.032314062, 10.004275, 9.997272 
2.4253456e+3, 1.6693392e+2, -960887.5, -1406707.3, 69713.89, 0.023948358, 0.5862843, -950240.44, 353863.56, 0.010658566, 10.003641, 9.997666 
2.4252859e+3, 1.7693171e+2, -955499.8, -1365502.4, 65383.883, 0.04362128, 0.61684585, -945325.4, 260802.7, 0.0019119421, 10.003029, 9.997571 
2.4252255e+3, 1.8692942e+2, -875097.9, -1187812.6, 66825.74, 0.041210484, 0.6142138, -861416.1, 246734.66, 0.00008427863, 10.002525, 9.998361 
2.4251655e+3, 1.9692735e+2, -855580.75, -1148040.5, 57247.676, 0.028796338, 0.5928581, -844774.06, 165396.17, 0.0000000000084542815, 10.002073, 9.998179 
2.4251053e+3, 2.0692547e+2, -811969.8, -1029984.44, 58296.305, 0.026944097, 0.59043324, -797360.56, 114828.43, 0.0, 10.001499, 9.998593 
2.4250452e+3, 2.1692392e+2, -811771.4, -988862.4, 61098.35, 0.029484147, 0.5971901, -792737.5, 21467.06, 0.0, 10.000869, 9.9985075 
2.4249844e+3, 2.2692269e+2, -737668.3, -809581.06, 39688.58, 0.017207714, 0.60240245, -720070.56, -3853.8545, 0.0, 10.000305, 9.999337 
2.4249233e+3, 2.3692183e+2, -725088.8, -765725.7, 31700.693, -0.00045195207, 0.60401464, -707753.94, -89529.39, 0.0, 9.999774, 9.999221 
2.4248622e+3, 2.4692096e+2, -660641.2, -606389.1, 14470.544, 0.017187735, 0.5834471, -602770.75, -82538.55, 0.0, 9.99921, 9.999913 
2.4248016e+3, 2.5692037e+2, -657620.8, -570834.4, 12714.25, 0.048518196, 0.5527365, -569010.06, -146773.11, 0.0, 9.998631, 9.9997635 
2.4247397e+3, 2.6692033e+2, -597151.25, -426476.78, 641.9848, 0.041076615, 0.56926805, -426474.38, -102237.72, 0.0, 9.9980955, 10.0003395 
2.4246778e+3, 2.769208e+2, -586033.25, -385876.97, 13251.186, 0.02495712, 0.6040468, -385003.5, -158771.98, 0.0, 9.997566, 10.0002 
2.4246162e+3, 2.8692058e+2, -528489.06, -240963.25, 2874.503, 0.055175737, 0.55387896, -240934.52, -112701.71, 0.0, 9.997003, 10.000794 
2.4245547e+3, 2.9692036e+2, -516632.7, -196299.69, 10143.812, 0.07363078, 0.47276697, -195978.8, -165745.45, 0.0, 9.996462, 10.000689 
2.4244939e+3, 3.069222e+2, -506976.7, -94391.266, 60402.113, 0.04377418, 0.5806581, -85730.266, -85730.266, 0.0, 9.995876, 10.001339 
2.4244346e+3, 3.1692353e+2, -592849.5, -112397.72, -70771.1, 0.10086306, 0.6099158, -102189.93, -102189.93, 0.0, 9.995191, 10.001542 
2.4355948e+3, 1.2700677e+2, -1153535.0, -1709835.4, 13011.147, 0.00087034295, 0.49248672, -1153230.9, 542152.1, 0.15128498, 10.005865, 9.9972105 
2.4355327e+3, 1.3700375e+2, -1091424.5, -1673637.0, 10449.649, 0.021669643, 0.4955343, -1091237.0, 506176.34, 0.1087118, 10.005498, 9.9969635 
2.4354711e+3, 1.4700103e+2, -1018651.2, -1556474.8, 45525.168, 0.025489608, 0.5329873, -1014824.9, 484617.0, 0.06567332, 10.00494, 9.997362 
2.4354105e+3, 1.569986e+2, -1007793.3, -1531192.4, 39911.133, 0.03318317, 0.5760583, -1004767.44, 396700.25, 0.03092012, 10.004286, 9.997178 
2.4353494e+3, 1.669958e+2, -962104.8, -1413926.4, 46333.938, 0.030648509, 0.5802212, -957402.25, 346094.84, 0.010097044, 10.003655, 9.997613 
2.4352883e+3, 1.7699306e+2, -958075.94, -1375800.6, 43445.94, 0.019773027, 0.5667527, -953605.1, 251920.13, 0.0017756827, 10.003045, 9.997496 
2.4352278e+3, 1.8699077e+2, -884462.0, -1211289.9, 50106.363, 0.019305935, 0.5772985, -876952.7, 230595.55, 0.0000737132, 10.002538, 9.998196 
2.4351673e+3, 1.9698897e+2, -860432.1, -1160822.3, 39413.957, 0.024767667, 0.5965439, -855346.75, 154219.36, 0.00000000002968512, 10.00208, 9.998091 
2.4351066e+3, 2.0698714e+2, -794104.25, -995136.75, 35046.82, 0.024748826, 0.59058225, -788169.56, 123413.89, 0.0, 10.001504, 9.998833 
2.4350457e+3, 2.1698558e+2, -799372.5, -965442.6, 38582.76, 0.021558166, 0.5728548, -790846.4, 22751.504, 0.0, 10.0008745, 9.998668 
2.4349846e+3, 2.269843e+2, -747484.25, -832634.9, 20230.393, 0.022144543, 0.5785439, -742922.25, -27311.525, 0.0, 10.000312, 9.999178 
2.434923e+3, 2.3698345e+2, -732827.56, -784364.56, 11077.365, 0.025770001, 0.5926717, -730547.44, -112927.27, 0.0, 9.999781, 9.999092 
2.4348615e+3, 2.469827e+2, -659876.3, -607586.6, -8147.8706, 0.032176703, 0.59141326, -606346.4, -86719.25, 0.0, 9.999218, 9.999904 
2.4347998e+3, 2.5698233e+2, -652572.94, -563790.94, -9697.933, 0.03657055, 0.5834217, -562743.94, -141113.9, 0.0, 9.99864, 9.99981 
2.4347375e+3, 2.6698217e+2, -575841.4, -385516.63, -20598.02, 0.038292382, 0.5685865, -383312.9, -59682.992, 0.0, 9.998105, 10.000619 
2.4346755e+3, 2.769823e+2, -573348.44, -362257.3, -8734.431, 0.049705744, 0.54209054, -361896.53, -136270.0, 0.0, 9.997573, 10.000362 
2.4346133e+3, 2.8698218e+2, -539217.5, -267762.8, -18601.21, 0.06930666, 0.50920415, -266494.13, -138867.02, 0.0, 9.997017, 10.000607 
2.4345508e+3, 2.9698256e+2, -525478.2, -223135.06, -10195.079, 0.05418688, 0.50387007, -222791.67, -193168.27, 0.0, 9.996493, 10.000492 
2.4344894e+3, 3.0698383e+2, -555898.44, -200428.81, 28221.695, 0.03746318, 0.6020909, -198202.16, -198202.16, 0.0, 9.995891, 10.000606 
2.4344294e+3, 3.1698313e+2, -512240.28, 60411.46, -70430.91, 0.09976733, 0.49521065, 68946.6, 68946.6, 0.0, 9.995165, 10.002743 
2.4456003e+3, 1.2706934e+2, -1120165.9, -1696200.5, 7741.6978, -0.012982841, 0.49521884, -1120061.9, 574707.7, 0.1461567, 10.0061245, 9.997177 
2.4455379e+3, 1.3706633e+2, -1079776.9, -1671635.9, 16440.732, 0.01937823, 0.5016341, -1079320.5, 517478.94, 0.104799695, 10.005587, 9.996933 
2.445476e+3, 1.4706342e+2, -1015304.0, -1566645.3, 50812.7, 0.028903842, 0.52775866, -1010660.1, 488169.7, 0.06309443, 10.005009, 9.997257 
2.4454145e+3, 1.5706079e+2, -993168.8, -1533346.1, 45280.613, 0.04075472, 0.5608308, -989399.5, 411458.13, 0.029539367, 10.004429, 9.997091 
2.445353e+3, 1.6705792e+2, -920500.06, -1393581.4, 56356.668, 0.036517967, 0.5652588, -913879.1, 389008.0, 0.009549767, 10.003946, 9.99761 
2.4452914e+3, 1.7705522e+2, -893099.9, -1346675.0, 55722.777, 0.020629985, 0.5553957, -886354.5, 318560.25, 0.0016475271, 10.003507, 9.997471 
2.4452302e+3, 1.870529e+2, -839301.7, -1201427.1, 63857.746, 0.019279713, 0.5697275, -828370.9, 278567.6, 0.00006496568, 10.002904, 9.998085 
2.4451692e+3, 1.9705102e+2, -843412.6, -1159125.5, 55147.93, 0.026421472, 0.59375757, -834056.75, 174900.8, 0.00000000008671795, 10.00223, 9.998028 
2.4451078e+3, 2.070492e+2, -772887.1, -970658.06, 43919.625, 0.026663858, 0.5848038, -763572.44, 147402.05, 0.0, 10.001594, 9.998956 
2.4450465e+3, 2.170477e+2, -778028.06, -943893.2, 39051.29, 0.02296094, 0.5598458, -769293.75, 43694.063, 0.0, 10.0009775, 9.998764 
2.4449846e+3, 2.2704646e+2, -737057.4, -827762.7, 27331.516, 0.025498882, 0.5653624, -729458.44, -14457.925, 0.0, 10.00039, 9.999171 
2.4449229e+3, 2.3704562e+2, -727761.7, -780847.25, 29027.535, 0.03259255, 0.58359736, -714971.06, -97960.78, 0.0, 9.999816, 9.999097 
2.4448606e+3, 2.4704495e+2, -652826.6, -598213.75, 15432.76, 0.038515788, 0.58762264, -594154.4, -75137.77, 0.0, 9.999246, 9.999952 
2.4447984e+3, 2.5704467e+2, -644557.1, -554441.75, 18105.254, 0.03970263, 0.5852063, -550940.25, -129921.64, 0.0, 9.998677, 9.999854 
2.4447356e+3, 2.6704445e+2, -564427.1, -378941.88, -3769.579, 0.03928405, 0.56338, -378865.3, -55846.39, 0.0, 9.998184, 10.000623 
2.4446729e+3, 2.7704448e+2, -550484.06, -350436.06, -12996.122, 0.051198687, 0.5234248, -349595.3, -124578.59, 0.0, 9.997732, 10.000363 
2.4446103e+3, 2.8704444e+2, -500711.3, -249671.58, -18960.207, 0.072315425, 0.50105363, -248247.66, -121231.28, 0.0, 9.997288, 10.000597 
2.4445471e+3, 2.97045e+2, -488933.28, -215927.94, 845.6508, 0.053903736, 0.51937586, -215925.31, -186914.52, 0.0, 9.996794, 10.000395 
2.4444851e+3, 3.0704576e+2, -557884.9, -229824.05, 50966.926, 0.03573002, 0.58377373, -222088.33, -222088.33, 0.0, 9.996003, 10.000347 
2.444424e+3, 3.170448e+2, -453842.28, 168418.69, 3664.2988, 0.06591917, 0.46971318, 168440.27, 168440.27, 0.0, 9.995225, 10.003454 
2.4556062e+3, 1.2713225e+2, -1108867.3, -1679019.1, -10173.039, -0.020967573, 0.513825, -1108685.8, 585467.8, 0.14092545, 10.006117, 9.997316 
2.4555434e+3, 1.3712937e+2, -1069380.8, -1657746.9, -3010.2114, 0.019592794, 0.51842093, -1069365.4, 526816.2, 0.10083999, 10.005603, 9.997022 
2.4554807e+3, 1.4712614e+2, -1018221.44, -1582981.5, 29206.668, 0.027876122, 0.51819664, -1016715.06, 481499.25, 0.060508005, 10.005033, 9.997135 
2.4554187e+3, 1.5712304e+2, -995739.75, -1545395.5, 24792.795, 0.034179132, 0.51544774, -994623.7, 405622.66, 0.028169869, 10.004447, 9.997003 
2.4553569e+3, 1.6712038e+2, -917044.75, -1390095.1, 40145.656, 0.040815108, 0.5415313, -913661.94, 388612.0, 0.009015982, 10.003955, 9.997632 
2.4552952e+3, 1.7711817e+2, -892126.8, -1346576.8, 37499.93, 0.043403674, 0.57855284, -889053.2, 315243.8, 0.0015266156, 10.0035095, 9.997473 
2.4552332e+3, 1.8711576e+2, -844482.7, -1213880.8, 38541.766, 0.03895671, 0.58862823, -840504.25, 265817.63, 0.00005768095, 10.002906, 9.998001 
2.4551713e+3, 1.9711351e+2, -847008.25, -1168504.9, 30488.693, 0.032794308, 0.58539563, -844142.44, 164202.38, 0.00000000016280782, 10.002233, 9.997965 
2.4551094e+3, 2.0711164e+2, -772357.2, -971686.7, 21222.05, 0.032193348, 0.573957, -770122.75, 140239.52, 0.0, 10.001598, 9.998949 
2.4550474e+3, 2.1711023e+2, -775421.25, -940749.7, 16856.781, 0.033173457, 0.5577301, -773720.06, 38654.67, 0.0, 10.000982, 9.998786 
2.454985e+3, 2.2710906e+2, -727436.06, -810351.75, 6400.947, 0.026516652, 0.5626488, -726944.8, -12558.325, 0.0, 10.000396, 9.99929 
2.4549223e+3, 2.3710828e+2, -718394.94, -764229.06, 7185.8745, 0.018861346, 0.5761926, -717294.75, -100899.375, 0.0, 9.999824, 9.999209 
2.4548596e+3, 2.4710764e+2, -645258.1, -585108.3, -6850.921, 0.03620534, 0.5709214, -584337.9, -65936.58, 0.0, 9.999252, 10.000042 
2.4547969e+3, 2.571073e+2, -642444.3, -552416.56, -3625.966, 0.05938254, 0.5566112, -552270.75, -131867.42, 0.0, 9.998682, 9.999868 
2.4547337e+3, 2.6710713e+2, -585867.94, -426109.56, -22426.27, 0.04321604, 0.55357933, -423021.16, -100616.58, 0.0, 9.998191, 10.0002985 
2.4546702e+3, 2.7710718e+2, -562583.9, -378721.13, -31608.455, 0.02377896, 0.55027777, -373438.97, -149035.55, 0.0, 9.997741, 10.000168 
2.4546072e+3, 2.8710726e+2, -485805.13, -222947.95, -39614.746, 0.06336177, 0.5363445, -217107.45, -90705.95, 0.0, 9.997301, 10.000777 
2.454544e+3, 2.9710776e+2, -483605.2, -210599.5, -24335.07, 0.08158793, 0.53052604, -208447.3, -180051.78, 0.0, 9.996813, 10.000424 
2.454481e+3, 3.071076e+2, -532490.0, -179465.45, 18039.836, 0.031050373, 0.49317443, -178546.0, -178546.0, 0.0, 9.996009, 10.000693 
2.4544191e+3, 3.1710815e+2, -517906.8, 37522.793, -47715.125, 0.06122635, 0.48460904, 41592.027, 41592.027, 0.0, 9.995212, 10.002563 
2.465612e+3, 1.2719539e+2, -1118669.3, -1690315.1, 10636.304, -0.018747631, 0.50609756, -1118471.5, 575062.56, 0.1355793, 10.006037, 9.997263 
2.4655488e+3, 1.3719241e+2, -1043953.7, -1648779.9, 5418.082, 0.018706512, 0.50773054, -1043905.2, 551657.8, 0.09682074, 10.005796, 9.996988 
2.4654858e+3, 1.4718917e+2, -976443.1, -1558839.9, 33858.992, 0.026140846, 0.50532323, -974481.25, 523114.5, 0.057902753, 10.005318, 9.997161 
2.465423e+3, 1.5718605e+2, -951688.56, -1521444.0, 38118.805, 0.032938935, 0.4990818, -949149.56, 450478.13, 0.026802748, 10.004748, 9.997019 
2.4653606e+3, 1.671834e+2, -895680.25, -1382266.3, 54627.27, 0.044836164, 0.5274109, -889622.9, 412032.25, 0.008490341, 10.004117, 9.997605 
2.4652986e+3, 1.7718121e+2, -900207.25, -1352347.8, 47345.438, 0.054787144, 0.57026607, -895302.7, 308375.25, 0.0014106233, 10.003467, 9.997452 
2.465236e+3, 1.8717878e+2, -850059.7, -1217942.3, 48251.03, 0.047285505, 0.5810173, -843836.4, 261866.84, 0.00005134986, 10.002878, 9.997984 
2.4651736e+3, 1.971765e+2, -834776.56, -1161979.1, 43808.0, 0.033392984, 0.57567006, -829012.8, 178714.13, 0.00000000021615258, 10.002319, 9.997966 
2.4651109e+3, 2.071747e+2, -762552.44, -962075.94, 36007.223, 0.03443481, 0.5673626, -756253.25, 153490.84, 0.0, 10.00165, 9.998987 
2.4650481e+3, 2.1717335e+2, -778963.0, -936434.1, 34516.64, 0.041271154, 0.55712014, -771729.44, 40026.313, 0.0, 10.000937, 9.998834 
2.4649851e+3, 2.2717221e+2, -723220.8, -799725.5, 26580.498, 0.03498251, 0.55895096, -714892.44, -1125.113, 0.0, 10.000393, 9.999362 
2.464922e+3, 2.3717143e+2, -699441.6, -746223.06, 23888.951, 0.0249334, 0.5650852, -689398.75, -73622.57, 0.0, 9.999921, 9.999285 
2.4648589e+3, 2.4717088e+2, -616424.0, -563970.6, 6775.2505, 0.03754741, 0.5640499, -563109.6, -45328.57, 0.0, 9.999424, 10.000101 
2.4647954e+3, 2.571707e+2, -606943.2, -530905.9, 7493.083, 0.055562418, 0.5584006, -530174.5, -110392.766, 0.0, 9.998912, 9.999903 
2.4647316e+3, 2.671704e+2, -574134.94, -427292.75, 687.0517, 0.035445593, 0.5508756, -427289.53, -105505.53, 0.0, 9.998305, 10.000233 
2.4646674e+3, 2.7717036e+2, -576619.1, -388955.13, 11884.431, 0.012175031, 0.54101646, -388205.5, -164420.95, 0.0, 9.9976635, 10.000132 
2.4646042e+3, 2.8717062e+2, -494371.72, -219397.38, 3902.8667, 0.06589004, 0.5459514, -219341.98, -93561.3, 0.0, 9.997213, 10.000841 
2.464541e+3, 2.9717135e+2, -479456.38, -198254.94, 5399.8896, 0.10763126, 0.55793595, -198151.28, -170378.95, 0.0, 9.9968, 10.000513 
2.4644765e+3, 3.071707e+2, -497033.44, -128655.66, 43486.24, 0.00072948495, 0.44604853, -123591.805, -123591.805, 0.0, 9.996113, 10.000988 
2.4644142e+3, 3.1717294e+2, -540915.3, -74334.96, -43911.426, 0.06765965, 0.58480763, -70238.28, -70238.28, 0.0, 9.995495, 10.001656 
2.475618e+3, 1.2725884e+2, -1124571.1, -1720057.4, 2253.4482, -0.010055456, 0.47982067, -1124562.6, 568347.56, 0.13010791, 10.006066, 9.997043 
2.4755545e+3, 1.3725555e+2, -1049319.9, -1669537.6, -5620.9907, 0.0149675105, 0.472118, -1049268.9, 545674.06, 0.092723824, 10.005804, 9.996843 
2.475491e+3, 1.4725251e+2, -964964.5, -1539924.1, 13117.612, 0.022664478, 0.48785943, -964665.4, 532308.5, 0.05525838, 10.005325, 9.99729 
2.4754277e+3, 1.5724981e+2, -943592.0, -1508752.3, 16103.581, 0.035725284, 0.50908536, -943133.5, 455868.2, 0.025421703, 10.004757, 9.997105 
2.4753648e+3, 1.6724698e+2, -900283.56, -1395170.5, 30012.88, 0.048042886, 0.52297586, -898470.06, 402560.53, 0.007963446, 10.004125, 9.997516 
2.4753018e+3, 1.7724438e+2, -903134.94, -1360834.8, 23627.145, 0.05526856, 0.53430146, -901918.5, 301138.78, 0.0012961519, 10.003471, 9.997394 
2.4752387e+3, 1.87242e+2, -847037.75, -1213635.5, 27669.43, 0.04470104, 0.54925245, -844961.1, 260121.36, 0.000045391018, 10.002882, 9.998014 
2.4751756e+3, 1.9723997e+2, -831019.56, -1155924.8, 21980.383, 0.028367477, 0.56378603, -829539.3, 177564.98, 0.00000000023303823, 10.002321, 9.998009 
2.4751124e+3, 2.072383e+2, -757749.8, -953939.8, 9529.419, 0.033445083, 0.5645989, -757288.06, 151832.3, 0.0, 10.001653, 9.999044 
2.475049e+3, 2.1723704e+2, -774752.94, -929791.5, 10253.38, 0.046957806, 0.5585868, -774077.75, 37053.582, 0.0, 10.000942, 9.99888 
2.4749856e+3, 2.2723587e+2, -721203.25, -798129.7, 9402.247, 0.05096899, 0.5543285, -720070.75, -6927.373, 0.0, 10.000399, 9.9993725 
2.4749221e+3, 2.3723498e+2, -696864.06, -743789.75, 5521.014, 0.051435374, 0.5500462, -696223.2, -81070.02, 0.0, 9.999928, 9.9993 
2.4748582e+3, 2.4723464e+2, -614416.5, -562899.0, -13092.507, 0.041839115, 0.56772035, -559762.7, -42606.184, 0.0, 9.999433, 10.000107 
2.474794e+3, 2.5723478e+2, -602344.06, -525001.3, -14195.783, 0.025131905, 0.59201056, -522478.06, -103323.47, 0.0, 9.998922, 9.99994 
2.4747294e+3, 2.6723436e+2, -558821.75, -398165.28, -25375.621, 0.0152558, 0.5559771, -394252.53, -73094.76, 0.0, 9.998311, 10.000433 
2.474665e+3, 2.7723396e+2, -567774.7, -372106.3, -10464.175, 0.01937951, 0.495112, -371548.28, -148387.83, 0.0, 9.997665, 10.00025 
2.4746016e+3, 2.8723443e+2, -500981.13, -233939.72, -12121.725, 0.08067517, 0.5234237, -233390.61, -108235.57, 0.0, 9.997212, 10.000744 
2.4745376e+3, 2.972356e+2, -471842.13, -181920.98, -16414.488, 0.12824291, 0.5866909, -180994.61, -153851.02, 0.0, 9.996793, 10.000631 
2.474472e+3, 3.072353e+2, -482086.56, -97504.32, 15049.984, -0.057358783, 0.48483896, -96916.266, -96916.266, 0.0, 9.996108, 10.001207 
2.4744096e+3, 3.172374e+2, -509957.78, -20599.914, -39818.42, 0.07309146, 0.6078923, -17381.111, -17381.111, 0.0, 9.99553, 10.002012 
2.4856238e+3, 1.2732275e+2, -1076999.1, -1703130.1, 17465.74, -0.028916115, 0.46241972, -1076512.3, 615770.25, 0.12448596, 10.006443, 9.996977 
2.48556e+3, 1.373193e+2, -1028401.94, -1664824.8, 16302.658, 0.012306846, 0.44296288, -1027984.6, 566332.5, 0.08851602, 10.005968, 9.996796 
2.4854961e+3, 1.4731637e+2, -955818.75, -1533479.6, 27409.896, 0.025789699, 0.47226587, -954521.06, 541826.06, 0.052544538, 10.005375, 9.997307 
2.4854323e+3, 1.573139e+2, -940564.5, -1504773.8, 22102.78, 0.040226415, 0.5180817, -939699.94, 458672.97, 0.02400625, 10.004766, 9.997125 
2.4853687e+3, 1.6731098e+2, -892599.06, -1388989.6, 37323.46, 0.049504075, 0.52186847, -889808.44, 410594.03, 0.007424941, 10.004169, 9.997534 
2.4853049e+3, 1.7730817e+2, -885759.2, -1348163.4, 37433.375, 0.05200339, 0.5085664, -882748.44, 319682.6, 0.0011798906, 10.003577, 9.997427 
2.4852414e+3, 1.8730587e+2, -840859.44, -1202507.0, 44356.742, 0.04343028, 0.5269919, -835498.5, 268956.9, 0.000039335002, 10.002894, 9.998082 
2.4851777e+3, 1.9730404e+2, -847129.7, -1156044.0, 40088.406, 0.032159176, 0.55734235, -842012.1, 164463.25, 0.00000000017417703, 10.002184, 9.998072 
2.4851137e+3, 2.0730248e+2, -764380.56, -954674.94, 26390.947, 0.036286853, 0.5653152, -760788.3, 147702.56, 0.0, 10.001601, 9.999062 
2.4850498e+3, 2.1730128e+2, -754002.75, -915544.2, 24074.197, 0.04636538, 0.5626268, -750491.3, 60010.746, 0.0, 10.001071, 9.998913 
2.4849859e+3, 2.2730018e+2, -713208.06, -784905.3, 26367.47, 0.053390387, 0.5605652, -704555.4, 7958.086, 0.0, 10.000419, 9.999451 
2.4849218e+3, 2.372994e+2, -722335.6, -747636.25, 27964.61, 0.05955764, 0.55824244, -704293.1, -89770.84, 0.0, 9.9997225, 9.99937 
2.4848571e+3, 2.4729909e+2, -647626.06, -575669.2, 14650.84, 0.046598043, 0.57579523, -572800.56, -56275.168, 0.0, 9.999195, 10.000132 
2.4847925e+3, 2.572992e+2, -626875.6, -532117.3, 13895.565, 0.023001302, 0.5987972, -530121.7, -111597.99, 0.0, 9.998739, 9.999977 
2.4847275e+3, 2.6729882e+2, -554382.25, -385546.3, -4967.5254, 0.01110393, 0.5615767, -385400.28, -64873.934, 0.0, 9.9983015, 10.000522 
2.4846625e+3, 2.772985e+2, -536720.56, -350297.6, 1932.2771, 0.0147664985, 0.50135, -350277.56, -127749.57, 0.0, 9.997853, 10.000307 
2.4845986e+3, 2.87299e+2, -491225.78, -235276.13, 2990.4043, 0.07883603, 0.5312014, -235241.2, -110718.47, 0.0, 9.99731, 10.000686 
2.4845344e+3, 2.9730007e+2, -471633.72, -174883.69, -658.27606, 0.13330097, 0.5892404, -174882.22, -148369.64, 0.0, 9.99677, 10.000688 
2.4844675e+3, 3.0730012e+2, -440538.72, -54453.734, 17307.281, -0.08163679, 0.5079011, -53679.44, -53679.44, 0.0, 9.996299, 10.001408 
2.4844058e+3, 3.1730103e+2, -475445.88, 9402.342, 769.6225, 0.14326102, 0.50233954, 9403.563, 9403.563, 0.0, 9.995714, 10.002127 
2.4956296e+3, 1.2738715e+2, -1069678.5, -1695307.5, 955.7983, -0.06923806, 0.4519201, -1069677.1, 621973.6, 0.118674554, 10.006439, 9.997033 
2.4955657e+3, 1.3738364e+2, -1022834.06, -1661774.9, -2295.9568, 0.008524918, 0.42186904, -1022825.8, 570859.2, 0.084158905, 10.005979, 9.996813 
2.4955012e+3, 1.4738075e+2, -959121.75, -1548664.4, 5152.974, 0.032451298, 0.4608165, -959076.7, 536638.5, 0.049732875, 10.005389, 9.997199 
2.495437e+3, 1.5737838e+2, -942711.1, -1512779.6, -325.78482, 0.046027116, 0.525927, -942710.94, 455030.1, 0.022541367, 10.004769, 9.997071 
2.4953726e+3, 1.6737545e+2, -884800.1, -1374626.4, 15313.973, 0.04929842, 0.52276814, -884321.8, 415448.8, 0.006869171, 10.004171, 9.997634 
2.4953084e+3, 1.7737255e+2, -878114.25, -1334126.4, 14298.599, 0.044653025, 0.4914293, -877666.4, 324132.97, 0.0010604773, 10.00358, 9.997524 
2.4952441e+3, 1.8737036e+2, -834826.44, -1191441.9, 17743.652, 0.04303963, 0.51391155, -833945.8, 269876.47, 0.000032980974, 10.002896, 9.99816 
2.4951796e+3, 1.9736874e+2, -842625.3, -1147812.9, 15103.284, 0.043905485, 0.55706286, -841879.75, 163960.58, 0.00000000005180779, 10.002184, 9.998131 
2.4951153e+3, 2.0736723e+2, -766183.06, -960144.25, 7091.8247, 0.042351846, 0.56938535, -765924.1, 141931.97, 0.0, 10.001604, 9.999025 
2.4950506e+3, 2.1736601e+2, -752557.25, -914953.75, 3472.7163, 0.039220497, 0.56798744, -752483.06, 57385.375, 0.0, 10.001077, 9.998917 
2.4949859e+3, 2.273651e+2, -703563.4, -767249.56, 385.3926, 0.041841757, 0.57779527, -703561.0, 8316.921, 0.0, 10.000424, 9.999572 
2.4949211e+3, 2.3736459e+2, -714266.4, -733028.3, 3309.634, 0.047980778, 0.59084994, -713699.6, -99815.836, 0.0, 9.999727, 9.999471 
2.4948563e+3, 2.4736413e+2, -644951.1, -571853.44, -3312.1726, 0.052129336, 0.5880073, -571703.7, -55815.375, 0.0, 9.999198, 10.000159 
2.4947913e+3, 2.5736395e+2, -625377.06, -530475.75, -3882.3342, 0.05154639, 0.57644373, -530317.2, -112427.32, 0.0, 9.998741, 9.99999 
2.4947259e+3, 2.6736382e+2, -557059.25, -393253.7, -22599.957, 0.023953257, 0.568133, -390192.8, -70302.375, 0.0, 9.998306, 10.000469 
2.4946599e+3, 2.7736405e+2, -536808.3, -354104.63, -18196.459, -0.0034495015, 0.56478524, -352309.97, -130422.28, 0.0, 9.997864, 10.000278 
2.4945955e+3, 2.873643e+2, -492808.88, -240478.98, -20112.53, 0.057022844, 0.5748912, -238885.92, -115001.71, 0.0, 9.997313, 10.000651 
2.4945308e+3, 2.973647e+2, -474548.16, -180690.78, -19161.102, 0.11656563, 0.57079, -179446.64, -153566.95, 0.0, 9.996764, 10.000653 
2.4944639e+3, 3.0736485e+2, -430244.4, -36549.703, -6528.938, -0.058168836, 0.49392444, -36441.457, -36441.457, 0.0, 9.996308, 10.001529 
2.4944012e+3, 3.173672e+2, -552439.75, -157589.64, 10422.412, 0.1310346, 0.6283547, -157314.73, -157314.73, 0.0, 9.995741, 10.00097 
2.505636e+3, 1.2745214e+2, -1070723.9, -1684472.4, 17924.738, -0.06062506, 0.46234474, -1070200.9, 620813.4, 0.11264604, 10.006337, 9.99716 
2.5055715e+3, 1.3744867e+2, -995893.75, -1639360.8, 14732.179, 0.0026722073, 0.42478117, -995556.6, 597490.5, 0.07963237, 10.00612, 9.996897 
2.5055063e+3, 1.4744571e+2, -947638.0, -1550970.4, 15675.777, 0.025050266, 0.4582824, -947231.0, 547847.06, 0.04681316, 10.005497, 9.9971285 
2.5054413e+3, 1.5744323e+2, -949786.9, -1517937.3, 13231.16, 0.044007726, 0.51862866, -949478.94, 447626.6, 0.021025384, 10.004726, 9.997053 
2.5053763e+3, 1.674404e+2, -887213.6, -1359033.1, 34414.97, 0.047533076, 0.5194567, -884716.6, 414417.25, 0.0062979967, 10.0040865, 9.997779 
2.5053117e+3, 1.7743771e+2, -880447.25, -1320185.8, 33883.063, 0.040657505, 0.49548817, -877851.8, 323308.25, 0.00093912566, 10.003504, 9.997654 
2.5052467e+3, 1.8743554e+2, -844634.3, -1188399.8, 32690.264, 0.04096382, 0.5098129, -841553.25, 261629.47, 0.000026457765, 10.0028, 9.998224 
2.5051817e+3, 1.9743384e+2, -857760.5, -1148156.8, 30530.365, 0.0455769, 0.5393513, -854585.44, 150615.97, 0.0000000000010010511, 10.002054, 9.998188 
2.5051165e+3, 2.074324e+2, -784692.7, -967892.6, 29971.283, 0.04229669, 0.55820715, -779914.06, 127302.69, 0.0, 10.001477, 9.99903 
2.5050512e+3, 2.1743134e+2, -766959.9, -918653.25, 26599.014, 0.035378933, 0.57151693, -762431.0, 46797.28, 0.0, 10.00097, 9.99894 
2.5049862e+3, 2.2743052e+2, -703409.25, -759529.9, 16843.697, 0.0343685, 0.5865209, -698742.06, 12495.068, 0.0, 10.000398, 9.999636 
2.5049207e+3, 2.3743008e+2, -699880.25, -718203.7, 17067.115, 0.037473783, 0.6006351, -689671.3, -76428.89, 0.0, 9.999797, 9.999536 
2.504855e+3, 2.4742962e+2, -640226.44, -563659.06, 14050.213, 0.05113345, 0.5937573, -561162.25, -45915.395, 0.0, 9.99921, 10.000207 
2.5047898e+3, 2.5742945e+2, -638318.4, -530805.2, 15517.121, 0.064731374, 0.57714945, -528610.44, -111361.88, 0.0, 9.9986315, 10.000038 
2.504724e+3, 2.6742944e+2, -570577.2, -395815.28, 4974.6265, 0.032773852, 0.5778688, -395673.8, -76425.766, 0.0, 9.998201, 10.0005 
2.5046578e+3, 2.774298e+2, -538656.75, -350130.5, 13833.303, -0.0057802377, 0.5863375, -349120.88, -127876.79, 0.0, 9.997835, 10.000317 
2.5045925e+3, 2.874299e+2, -472396.1, -225684.53, 13963.897, 0.04466626, 0.57555234, -224896.69, -101654.39, 0.0, 9.997437, 10.00069 
2.504527e+3, 2.974301e+2, -443790.63, -171343.4, 20918.12, 0.093597524, 0.54940826, -169746.7, -144507.03, 0.0, 9.997003, 10.000601 
2.5044605e+3, 3.0743083e+2, -425884.56, -58842.676, 10862.171, -0.02848521, 0.55231225, -58521.504, -58521.504, 0.0, 9.996448, 10.001307 
2.504396e+3, 3.174322e+2, -548593.2, -172228.3, 29755.63, 0.069404855, 0.60250723, -169890.33, -169890.33, 0.0, 9.995845, 10.000815 
2.5156426e+3, 1.2751773e+2, -1053870.4, -1662225.1, 10763.694, -0.01685209, 0.49009842, -1053680.0, 636692.75, 0.10641121, 10.006353, 9.997323 
2.5155774e+3, 1.3751435e+2, -986651.75, -1623550.9, 1913.7035, -0.005097609, 0.4467473, -986646.0, 605757.4, 0.074953474, 10.006107, 9.997013 
2.5155115e+3, 1.4751123e+2, -949832.9, -1559572.4, -12676.631, 0.006314298, 0.46231762, -949569.44, 544866.25, 0.043802798, 10.005491, 9.997074 
2.515446e+3, 1.5750845e+2, -947850.56, -1517819.3, -13473.952, 0.034232933, 0.4986994, -947532.2, 448933.9, 0.01947186, 10.004732, 9.997054 
2.5153804e+3, 1.6750589e+2, -875346.7, -1335938.1, 13195.037, 0.04356505, 0.5138951, -874969.0, 423522.94, 0.0057195784, 10.0040865, 9.997939 
2.5153148e+3, 1.7750365e+2, -871722.56, -1301370.1, 10799.284, 0.039652348, 0.5192519, -871451.25, 329062.28, 0.0008186864, 10.003496, 9.997789 
2.5152493e+3, 1.8750134e+2, -842017.44, -1183512.8, 4715.142, 0.037140265, 0.51318717, -841952.3, 260584.86, 0.000020140478, 10.002798, 9.998261 
2.5151834e+3, 1.974993e+2, -853958.0, -1142636.5, 4967.484, 0.037089054, 0.5039062, -853872.5, 150686.44, 0.0, 10.00206, 9.998225 
2.5151178e+3, 2.07498e+2, -782256.9, -965045.9, 11446.42, 0.036243666, 0.53281814, -781542.9, 125030.26, 0.0, 10.001482, 9.999049 
2.515052e+3, 2.1749723e+2, -765069.56, -916364.75, 7244.4644, 0.034341577, 0.57436836, -764723.5, 43858.52, 0.0, 10.000972, 9.998958 
2.514986e+3, 2.274964e+2, -703041.56, -761049.94, -5283.3696, 0.030715568, 0.5864248, -702564.25, 8027.2075, 0.0, 10.000403, 9.999625 
2.5149202e+3, 2.374958e+2, -697649.8, -716524.75, -5496.4956, 0.027932588, 0.5856978, -696165.9, -83567.164, 0.0, 9.999805, 9.999546 
2.5148544e+3, 2.4749552e+2, -635905.1, -557050.56, -8809.962, 0.04292533, 0.5931152, -556078.3, -41476.78, 0.0, 9.999216, 10.000252 
2.5147882e+3, 2.5749564e+2, -633072.6, -521521.4, -5872.7603, 0.060508452, 0.60361236, -521213.1, -104613.016, 0.0, 9.998633, 10.000104 
2.514722e+3, 2.674956e+2, -563059.4, -381147.38, -10058.965, 0.037206694, 0.5901813, -380592.88, -61993.137, 0.0, 9.9982, 10.000603 
2.5146556e+3, 2.7749562e+2, -531791.75, -336414.84, -1076.6351, 0.009162637, 0.5593424, -336408.9, -115810.695, 0.0, 9.997832, 10.000415 
2.5145897e+3, 2.8749564e+2, -463129.78, -208998.4, -2427.375, 0.043250415, 0.52689195, -208975.23, -86377.29, 0.0, 9.997441, 10.000806 
2.5145236e+3, 2.974962e+2, -447439.63, -184499.98, 3085.6252, 0.066221245, 0.5256342, -184463.78, -159871.11, 0.0, 9.997021, 10.0005045 
2.514457e+3, 3.0749813e+2, -473217.34, -158848.03, -14871.945, 0.0022529035, 0.69762427, -158146.05, -158146.05, 0.0, 9.996451, 10.00062 
2.5143918e+3, 3.174957e+2, -441815.2, 53292.59, -8747.115, 0.07221668, 0.40755108, 53447.074, 53447.074, 0.0, 9.995824, 10.0023775 
2.5256488e+3, 1.2758368e+2, -1015563.9, -1638007.0, 31103.33, -0.01644385, 0.4982994, -1014013.5, 675713.44, 0.10001896, 10.006576, 9.997397 
2.5255832e+3, 1.3758029e+2, -1018254.56, -1631693.6, 16755.469, -0.0016187505, 0.44617712, -1017797.2, 573959.9, 0.070169695, 10.005812, 9.997097 
2.5255167e+3, 1.4757723e+2, -976068.8, -1561246.8, 4845.3667, 0.0013408049, 0.45840067, -976028.7, 517759.9, 0.040738128, 10.005243, 9.997179 
2.5254503e+3, 1.575745e+2, -937775.5, -1499765.6, 11955.981, 0.018165207, 0.49244452, -937521.3, 458296.94, 0.017902609, 10.004745, 9.997169 
2.525384e+3, 1.6757204e+2, -882416.2, -1324838.4, 36764.23, 0.03304806, 0.5051034, -879382.0, 418461.0, 0.0051442254, 10.003978, 9.998065 
2.525318e+3, 1.775699e+2, -918094.4, -1311255.8, 32803.418, 0.04066252, 0.50933015, -915376.25, 284487.22, 0.0007022553, 10.003128, 9.997895 
2.5252518e+3, 1.875677e+2, -872854.2, -1193813.3, 29300.947, 0.03572346, 0.50816774, -870201.2, 231684.95, 0.000014471007, 10.002572, 9.998297 
2.5251853e+3, 1.9756573e+2, -842085.2, -1132166.4, 27959.736, 0.028025838, 0.5047542, -839414.8, 164492.42, 0.0, 10.002127, 9.998262 
2.525119e+3, 2.075644e+2, -783846.75, -962949.5, 32522.377, 0.028307138, 0.5271225, -778124.0, 127797.71, 0.0, 10.001465, 9.99907 
2.5250527e+3, 2.1756354e+2, -800472.6, -930939.75, 28476.498, 0.031079957, 0.5584264, -794528.06, 13403.215, 0.0, 10.000724, 9.998974 
2.524986e+3, 2.2756273e+2, -739298.25, -779779.6, 17548.459, 0.02937811, 0.5738142, -732750.25, -22809.453, 0.0, 10.000165, 9.999608 
2.5249198e+3, 2.3756218e+2, -715648.56, -723696.7, 16593.623, 0.027159268, 0.581687, -702598.06, -90650.25, 0.0, 9.9996805, 9.999554 
2.524853e+3, 2.4756196e+2, -633295.44, -548828.1, 13822.497, 0.03437804, 0.59137636, -546623.7, -32673.621, 0.0, 9.999209, 10.000309 
2.5247866e+3, 2.5756213e+2, -613136.3, -503863.2, 18046.057, 0.042318102, 0.601317, -500960.06, -85011.914, 0.0, 9.998741, 10.00017 
2.5247198e+3, 2.6756212e+2, -551721.2, -366623.0, 14367.975, 0.032689855, 0.58559567, -365514.34, -47566.867, 0.0, 9.998244, 10.000679 
2.524653e+3, 2.7756226e+2, -541414.7, -332437.8, 21599.479, 0.025364302, 0.5538209, -330228.7, -110283.12, 0.0, 9.997735, 10.000486 
2.524587e+3, 2.8756243e+2, -464268.63, -201945.95, 18817.861, 0.047820024, 0.5335161, -200602.92, -78659.34, 0.0, 9.997407, 10.000868 
2.5245202e+3, 2.975631e+2, -432942.9, -176832.88, 16619.148, 0.052735105, 0.54081005, -175758.95, -151821.98, 0.0, 9.997126, 10.000503 
2.524453e+3, 3.0756462e+2, -493688.5, -182499.56, 17168.828, 0.014574666, 0.6755631, -181555.2, -181555.2, 0.0, 9.996377, 10.00049 
2.5243875e+3, 3.175637e+2, -436766.53, 142244.83, 54361.48, 0.09055602, 0.54430085, 147304.42, 147304.42, 0.0, 9.995486, 10.003151 
2.535655e+3, 1.2765004e+2, -1009788.25, -1637416.4, 5826.397, -0.050813172, 0.49087542, -1009734.2, 679342.2, 0.09353794, 10.006581, 9.997397 
2.5355887e+3, 1.3764654e+2, -1011269.56, -1624374.4, -6730.7417, 0.010631437, 0.42836744, -1011195.7, 579911.75, 0.065339535, 10.005815, 9.997148 
2.5355217e+3, 1.476437e+2, -960122.6, -1531205.1, -12095.987, 0.006660565, 0.4491594, -959866.56, 533269.9, 0.03766033, 10.005241, 9.997389 
2.5354546e+3, 1.5764135e+2, -925531.4, -1473787.0, -9474.738, -0.0036094605, 0.49789855, -925367.7, 469794.63, 0.016340535, 10.004733, 9.997355 
2.5353876e+3, 1.6763882e+2, -877125.8, -1313971.1, 4741.508, 0.016980836, 0.49269098, -877074.3, 420113.0, 0.0045818393, 10.003972, 9.998145 
2.535321e+3, 1.7763649e+2, -912681.2, -1302060.3, 4728.772, 0.042901378, 0.46906874, -912623.8, 286585.9, 0.0005927213, 10.003133, 9.997959 
2.5352538e+3, 1.8763462e+2, -871398.8, -1192484.1, 13250.128, 0.03587498, 0.49673805, -870853.0, 230376.7, 0.000009804418, 10.002575, 9.998307 
2.535187e+3, 1.9763313e+2, -841053.3, -1130518.3, 8949.799, 0.018201815, 0.5406727, -840776.9, 162469.77, 0.0, 10.002125, 9.998277 
2.5351202e+3, 2.0763156e+2, -783045.1, -962595.7, 4695.599, 0.01854163, 0.5395592, -782922.4, 122340.555, 0.0, 10.001466, 9.999074 
2.5350532e+3, 2.1763022e+2, -799510.4, -931385.4, 3423.5378, 0.025157724, 0.5225325, -799421.56, 7855.018, 0.0, 10.00073, 9.998971 
2.534986e+3, 2.276295e+2, -741420.5, -786733.2, -312.29187, 0.030266711, 0.54916686, -741418.4, -32132.97, 0.0, 10.000172, 9.999559 
2.534919e+3, 2.3762923e+2, -715974.8, -726298.56, -1874.1608, 0.03492198, 0.589997, -715645.1, -104355.07, 0.0, 9.999684, 9.9995365 
2.534852e+3, 2.4762894e+2, -628690.3, -541354.0, -4415.4185, 0.024923932, 0.5879638, -541131.4, -27838.219, 0.0, 9.999213, 10.0003605 
2.5347847e+3, 2.5762886e+2, -608492.44, -496991.75, -684.84045, 0.008562929, 0.56708425, -496987.53, -81693.96, 0.0, 9.998749, 10.0002165 
2.534718e+3, 2.67629e+2, -549229.75, -363649.1, -6394.6685, 0.018281937, 0.5630929, -363429.0, -46136.965, 0.0, 9.998249, 10.0007 
2.534651e+3, 2.7762955e+2, -540085.9, -331175.1, 3242.991, 0.042691287, 0.5734841, -331124.78, -111838.125, 0.0, 9.997736, 10.000497 
2.534584e+3, 2.8763023e+2, -467231.1, -209092.17, 6360.293, 0.058960974, 0.6038109, -208935.56, -87656.06, 0.0, 9.997407, 10.000821 
2.5345173e+3, 2.9763073e+2, -426727.84, -163951.17, -3054.4736, 0.054063674, 0.6005329, -163915.67, -140642.33, 0.0, 9.997121, 10.000596 
2.534449e+3, 3.076298e+2, -451342.2, -92931.336, -18555.096, 0.0056029134, 0.44962382, -91973.29, -91973.29, 0.0, 9.996365, 10.001114 
2.5343826e+3, 3.176332e+2, -494454.63, 18932.2, 51752.574, 0.08066024, 0.7024416, 24097.217, 24097.217, 0.0, 9.995491, 10.002307 
2.545661e+3, 1.2771726e+2, -997037.44, -1638684.9, 39547.22, -0.05825723, 0.47434458, -994609.2, 693807.2, 0.08703218, 10.006668, 9.997341 
2.5455943e+3, 1.3771373e+2, -1009326.5, -1625653.1, 26248.787, 0.00044614455, 0.41505817, -1008210.6, 582237.6, 0.060514487, 10.005813, 9.997139 
2.5455266e+3, 1.4771096e+2, -976489.75, -1527434.9, 21988.408, -0.0015296707, 0.43669617, -975613.56, 516863.03, 0.034605186, 10.005063, 9.997498 
2.5454587e+3, 1.577087e+2, -969695.3, -1483194.0, 16829.201, -0.00885128, 0.48507026, -969144.3, 425357.03, 0.014805562, 10.004371, 9.997462 
2.545391e+3, 1.677063e+2, -904499.9, -1318645.1, 25550.719, 0.010231438, 0.4836821, -902929.44, 393595.84, 0.004040765, 10.003749, 9.998219 
2.5453237e+3, 1.7770407e+2, -905206.9, -1291304.9, 25748.52, 0.033547103, 0.46471927, -903497.3, 295049.44, 0.0004923833, 10.003158, 9.998018 
2.5452563e+3, 1.8770218e+2, -883829.56, -1196055.5, 37855.215, 0.03165362, 0.4892247, -879305.44, 221261.39, 0.0000063079933, 10.002483, 9.998323 
2.5451887e+3, 1.9770066e+2, -888208.2, -1149802.0, 32890.316, 0.021874271, 0.52837193, -884136.25, 118447.82, 0.0, 10.001791, 9.998302 
2.545121e+3, 2.0769918e+2, -812704.4, -973571.0, 28274.389, 0.020781977, 0.5327186, -807879.5, 96720.22, 0.0, 10.001253, 9.999099 
2.5450537e+3, 2.1769792e+2, -792639.4, -925615.4, 27731.18, 0.022631677, 0.52349156, -787088.0, 19524.508, 0.0, 10.0007715, 9.998987 
2.544986e+3, 2.2769712e+2, -744178.94, -789950.5, 26157.414, 0.0276203, 0.5418008, -732308.9, -23686.828, 0.0, 10.000166, 9.999537 
2.5449184e+3, 2.3769669e+2, -739474.75, -736915.1, 28208.19, 0.03387241, 0.56949544, -709957.75, -99329.76, 0.0, 9.999525, 9.999537 
2.5448507e+3, 2.4769641e+2, -641806.1, -542528.0, 29884.477, 0.020505726, 0.56855476, -534226.44, -21595.572, 0.0, 9.999106, 10.000401 
2.544783e+3, 2.5769642e+2, -605247.3, -492222.1, 31105.145, -0.00051741384, 0.5543966, -484227.3, -69596.695, 0.0, 9.998762, 10.000239 
2.5447157e+3, 2.6769668e+2, -537942.7, -361625.72, 19125.617, 0.011559515, 0.5645991, -359574.97, -42946.574, 0.0, 9.998346, 10.000664 
2.5446483e+3, 2.7769735e+2, -518400.44, -321802.63, 24901.77, 0.04042102, 0.59069014, -318697.53, -100075.09, 0.0, 9.997895, 10.000483 
2.5445813e+3, 2.8769794e+2, -477333.9, -209770.83, 32354.775, 0.052533016, 0.61131424, -205913.97, -85298.33, 0.0, 9.997323, 10.000855 
2.544514e+3, 2.9769832e+2, -472697.88, -169455.69, 28594.57, 0.04322215, 0.5899948, -166782.89, -144172.83, 0.0, 9.996736, 10.000744 
2.5444457e+3, 3.0769733e+2, -386208.38, -14539.798, 560.6235, 0.016904948, 0.40052328, -14538.952, -14538.952, 0.0, 9.9966135, 10.001531 
2.5443783e+3, 3.176993e+2, -445337.56, -89567.766, 55989.684, 0.10362082, 0.48973426, -80964.375, -80964.375, 0.0, 9.99641, 10.001112 
2.5556678e+3, 1.277853e+2, -1003816.94, -1655244.8, 9757.652, -0.046645563, 0.452135, -1003670.8, 684076.75, 0.08054883, 10.006632, 9.997233 
2.5555995e+3, 1.3778178e+2, -1013774.75, -1637952.8, -2395.2053, -0.028936261, 0.4048574, -1013765.56, 576014.7, 0.05573323, 10.005792, 9.997066 
2.5555313e+3, 1.4777894e+2, -974628.06, -1527198.6, -2823.33, -0.020874454, 0.42068064, -974613.6, 517196.03, 0.031601094, 10.005058, 9.997504 
2.555463e+3, 1.5777658e+2, -966209.25, -1479615.4, -7330.118, -0.0004308758, 0.4572651, -966104.6, 427730.72, 0.013314224, 10.004375, 9.997487 
2.5553948e+3, 1.6777444e+2, -899993.1, -1311538.0, 4092.9084, 0.010588898, 0.47883856, -899952.44, 395904.56, 0.0035275363, 10.003753, 9.998267 
2.5553265e+3, 1.7777258e+2, -902132.25, -1285940.1, 2853.4053, 0.013296088, 0.4927887, -902111.0, 295764.13, 0.00040250548, 10.003157, 9.998058 
2.5552586e+3, 1.8777038e+2, -882792.2, -1195543.1, 11936.479, 0.023699442, 0.48430094, -882337.3, 217560.55, 0.0000039351035, 10.002486, 9.998328 
2.5551903e+3, 1.9776835e+2, -885946.0, -1147262.1, 9372.187, 0.037766673, 0.47036034, -885610.3, 116309.26, 0.0, 10.001796, 9.998321 
2.5551224e+3, 2.0776723e+2, -810282.6, -970603.6, 10879.7295, 0.03394864, 0.50887424, -809547.7, 94384.38, 0.0, 10.001257, 9.999119 
2.555054e+3, 2.1776661e+2, -791014.6, -923743.7, 8552.994, 0.023181489, 0.56184584, -790465.75, 15473.635, 0.0, 10.000773, 9.9990015 
2.554986e+3, 2.277655e+2, -744261.2, -792239.75, 1859.9614, 0.021194242, 0.55106646, -744189.2, -36238.016, 0.0, 10.000171, 9.999522 
2.5549176e+3, 2.3776446e+2, -738393.6, -737074.9, 6789.8105, 0.023023611, 0.51836145, -730912.5, -120950.38, 0.0, 9.999531, 9.999536 
2.55485e+3, 2.4776436e+2, -640285.7, -541579.8, 16577.215, 0.021606192, 0.53294694, -538870.1, -26906.496, 0.0, 9.999111, 10.000407 
2.554782e+3, 2.5776485e+2, -606053.7, -495962.44, 16452.72, 0.016820086, 0.5649284, -493556.22, -79596.66, 0.0, 9.998767, 10.000215 
2.5547138e+3, 2.677652e+2, -545003.94, -378512.16, 1323.0394, 0.012505415, 0.59241813, -378501.66, -62544.773, 0.0, 9.998351, 10.000548 
2.5546458e+3, 2.7776563e+2, -520580.78, -328958.84, 5134.035, 0.015610426, 0.6071946, -328821.38, -110868.055, 0.0, 9.997902, 10.000433 
2.5545782e+3, 2.8776544e+2, -467975.63, -190109.39, 7987.846, 0.025406878, 0.54457057, -189879.95, -69926.555, 0.0, 9.997317, 10.000996 
2.55451e+3, 2.977656e+2, -462121.94, -143735.31, 13533.665, 0.015695816, 0.48746502, -143161.06, -121211.97, 0.0, 9.996714, 10.000933 
2.5544423e+3, 3.0776757e+2, -384896.84, -16693.459, -18.178947, 0.055772886, 0.5842801, -16693.457, -16693.457, 0.0, 9.99663, 10.00151 
2.5543746e+3, 3.1776682e+2, -479299.34, -171253.88, 12937.483, 0.11180691, 0.4173449, -170711.48, -170711.48, 0.0, 9.996455, 10.00053 
2.565674e+3, 1.2785402e+2, -1060740.5, -1683247.4, 20846.006, -0.041143965, 0.44471097, -1060043.1, 627030.2, 0.07412711, 10.006168, 9.997247 
2.565605e+3, 1.378506e+2, -1050575.8, -1653869.5, 16685.805, -0.028932491, 0.4060804, -1050114.6, 538991.06, 0.05102636, 10.005489, 9.997101 
2.565536e+3, 1.4784779e+2, -989997.6, -1526681.3, 25756.004, -0.020970618, 0.41906756, -988764.44, 502370.28, 0.028669948, 10.004905, 9.99758 
2.565467e+3, 1.5784541e+2, -964593.94, -1473139.9, 24585.793, 0.00030270108, 0.44852388, -963408.06, 429752.1, 0.011879118, 10.004361, 9.997537 
2.5653982e+3, 1.6784331e+2, -907956.4, -1319370.8, 32203.58, 0.005167201, 0.4740789, -905450.9, 389730.94, 0.0030466786, 10.003717, 9.998229 
2.5653294e+3, 1.7784148e+2, -917306.9, -1291151.8, 24790.605, 0.00038122074, 0.49603793, -915670.06, 281530.03, 0.0003233886, 10.003048, 9.998073 
2.5652605e+3, 1.8783934e+2, -885214.0, -1180927.4, 37896.598, 0.017889272, 0.48444337, -880434.7, 218787.14, 0.0000024760313, 10.002406, 9.998466 
2.5651923e+3, 1.9783734e+2, -884152.7, -1138483.4, 43974.28, 0.04347417, 0.4630453, -876764.1, 124478.3, 0.0, 10.001779, 9.998387 
2.5651234e+3, 2.0783615e+2, -838901.56, -998599.9, 41512.29, 0.037077595, 0.50275964, -828755.4, 74500.445, 0.0, 10.001127, 9.998987 
2.5650543e+3, 2.1783549e+2, -837635.0, -951993.1, 28852.217, 0.01919466, 0.5605692, -830768.06, -25503.408, 0.0, 10.0004835, 9.998945 
2.5649858e+3, 2.2783434e+2, -750863.25, -782194.56, 28270.389, 0.015053948, 0.5449711, -734208.2, -26932.209, 0.0, 10.000074, 9.999635 
2.564917e+3, 2.3783332e+2, -704265.3, -712644.4, 42013.52, 0.017017283, 0.5038202, -666232.94, -56947.05, 0.0, 9.999737, 9.999602 
2.5648487e+3, 2.4783324e+2, -636761.56, -548321.56, 48706.805, 0.02328549, 0.5226289, -526755.9, -15468.522, 0.0, 9.999178, 10.000327 
2.5647804e+3, 2.5783372e+2, -641587.9, -519899.28, 43473.89, 0.027542533, 0.5638166, -505963.88, -92680.38, 0.0, 9.998557, 10.000148 
2.564712e+3, 2.6783392e+2, -565009.2, -392467.4, 34484.71, 0.014361823, 0.584073, -385830.47, -70548.336, 0.0, 9.998239, 10.0005045 
2.5646433e+3, 2.778342e+2, -505063.28, -319718.72, 40184.08, 0.004612406, 0.58424145, -311381.53, -94101.05, 0.0, 9.998006, 10.0004425 
2.564575e+3, 2.8783408e+2, -425720.75, -154111.48, 36301.344, 0.013223523, 0.519635, -149343.4, -30063.654, 0.0, 9.997547, 10.001129 
2.5645065e+3, 2.9783452e+2, -420212.3, -121342.19, 43734.746, 0.0024264334, 0.47480538, -115073.8, -93800.84, 0.0, 9.997003, 10.000943 
2.564439e+3, 3.0783656e+2, -423380.38, -75260.26, 16191.628, 0.06895007, 0.60547054, -74508.78, -74508.78, 0.0, 9.996545, 10.001146 
2.5643706e+3, 3.178375e+2, -469806.38, -81953.266, -5183.753, 0.07960151, 0.6351416, -81884.0, -81884.0, 0.0, 9.996153, 10.001291 
2.5756797e+3, 1.2792337e+2, -1052013.1, -1670483.6, -2697.7886, -0.04071888, 0.4472106, -1052001.3, 634392.6, 0.06781424, 10.006149, 9.99735 
2.5756106e+3, 1.3792016e+2, -1042831.06, -1639970.6, -6162.7324, -0.006569338, 0.41805238, -1042767.5, 545657.06, 0.046424225, 10.005474, 9.997206 
2.5755408e+3, 1.4791745e+2, -982103.4, -1511279.1, 6227.6865, -0.006888372, 0.4306491, -982030.1, 508422.03, 0.02582978, 10.004892, 9.997694 
2.575471e+3, 1.5791513e+2, -961620.8, -1466725.8, 3139.9238, -0.006064824, 0.45560375, -961601.3, 430875.25, 0.010509802, 10.00435, 9.997588 
2.5754017e+3, 1.6791283e+2, -916959.4, -1338806.0, 7404.78, -0.0049175248, 0.46839762, -916829.44, 377670.84, 0.0026015108, 10.003714, 9.998099 
2.575332e+3, 1.7791076e+2, -917907.7, -1294029.6, 585.9191, -0.006274189, 0.47724247, -917906.75, 278614.78, 0.0002549894, 10.00305, 9.9980545 
2.5752628e+3, 1.8790902e+2, -868063.25, -1146559.1, 14620.682, 0.013316054, 0.4904255, -867297.75, 231241.13, 0.0000016380604, 10.002407, 9.998703 
2.5751936e+3, 1.9790758e+2, -878022.6, -1126249.1, 20177.29, 0.039401613, 0.5038037, -876393.2, 124160.01, 0.0, 10.001776, 9.998474 
2.5751242e+3, 2.0790593e+2, -858921.44, -1042011.2, 16921.645, 0.030594327, 0.51277715, -857370.6, 45200.85, 0.0, 10.001131, 9.99869 
2.5750548e+3, 2.1790446e+2, -846130.2, -972237.56, 8175.3516, 0.009929403, 0.5198124, -845602.4, -41013.84, 0.0, 10.00049, 9.998805 
2.5749856e+3, 2.2790365e+2, -733914.8, -749711.94, 16519.21, 0.008980623, 0.5246126, -723503.0, -16906.393, 0.0, 10.000081, 9.999857 
2.5749165e+3, 2.3790327e+2, -695370.56, -696664.44, 26365.936, 0.016375275, 0.52747834, -669643.6, -61044.152, 0.0, 9.9997425, 9.999711 
2.5748476e+3, 2.4790302e+2, -649670.6, -576931.75, 23845.037, 0.025382299, 0.5386266, -569811.9, -59209.68, 0.0, 9.999181, 10.000131 
2.5747788e+3, 2.57903e+2, -650233.06, -538779.06, 23238.79, 0.030383805, 0.55067253, -534127.75, -121524.95, 0.0, 9.998557, 10.000021 
2.57471e+3, 2.6790285e+2, -563693.4, -390781.88, 25590.748, 0.01723699, 0.53480256, -387073.97, -72468.97, 0.0, 9.998239, 10.000518 
2.574641e+3, 2.779029e+2, -500936.38, -312961.88, 27937.959, 0.008014191, 0.5121031, -308897.44, -92292.35, 0.0, 9.99801, 10.00049 
2.5745726e+3, 2.8790385e+2, -418862.47, -143052.83, 14503.737, 0.01856808, 0.5466423, -142292.23, -23698.037, 0.0, 9.997556, 10.001204 
2.5745034e+3, 2.9790512e+2, -434312.38, -155649.4, 22331.17, 0.009770674, 0.58442897, -153871.2, -133291.72, 0.0, 9.997019, 10.000702 
2.5744352e+3, 3.0790344e+2, -471545.97, -173431.5, -3684.5369, 0.04232623, 0.39766037, -173385.97, -173385.97, 0.0, 9.996532, 10.00048 
2.5743666e+3, 3.1790635e+2, -394677.66, 82659.266, -36707.6, 0.09817582, 0.6548137, 85465.62, 85465.62, 0.0, 9.99611, 10.002446 
2.5856858e+3, 1.2799335e+2, -1056285.8, -1659032.1, 12620.496, -0.02984591, 0.45018545, -1056021.6, 629686.75, 0.061662897, 10.00602, 9.997495 
2.5856155e+3, 1.3799033e+2, -1078435.1, -1644418.3, 13372.745, -0.009684556, 0.42784017, -1078119.4, 509617.84, 0.041957878, 10.00514, 9.9973345 
2.5855452e+3, 1.4798766e+2, -1026740.75, -1524843.1, 32637.44, -0.009842051, 0.43558678, -1024611.3, 465152.8, 0.023097377, 10.004534, 9.997772 
2.585475e+3, 1.5798533e+2, -1001369.8, -1479581.4, 26245.758, -0.004555353, 0.45229277, -999933.6, 391854.63, 0.009214842, 10.004046, 9.997644 
2.585405e+3, 1.6798304e+2, -948217.0, -1354806.8, 32892.4, -0.0021503023, 0.46520594, -945573.25, 348238.75, 0.002194862, 10.003506, 9.998088 
2.5853348e+3, 1.7798099e+2, -934486.06, -1301513.5, 31241.135, -0.0034332068, 0.47642916, -931845.9, 263987.47, 0.00019710924, 10.002938, 9.998055 
2.5852647e+3, 1.8797925e+2, -893014.25, -1156144.4, 33075.277, 0.01054934, 0.49040133, -888920.4, 208930.05, 0.0000011329788, 10.00223, 9.99872 
2.5851947e+3, 1.9797783e+2, -918400.1, -1144340.1, 25953.314, 0.029754838, 0.50418514, -915457.25, 84407.125, 0.0, 10.001497, 9.998482 
2.585125e+3, 2.0797609e+2, -875300.8, -1053335.0, 37496.844, 0.024729181, 0.50646776, -867725.7, 34157.625, 0.0, 10.001039, 9.998654 
2.585055e+3, 2.1797448e+2, -822750.1, -963479.8, 46090.367, 0.011196469, 0.50447714, -808998.75, -5097.2837, 0.0, 10.000667, 9.998777 
2.5849855e+3, 2.2797371e+2, -727156.6, -749970.6, 45466.76, 0.012132111, 0.5166787, -691687.75, 14221.457, 0.0, 10.000148, 9.99982 
2.584916e+3, 2.379734e+2, -720920.44, -713778.7, 36843.883, 0.019606346, 0.53267384, -680333.06, -72421.664, 0.0, 9.999594, 9.999663 
2.5848466e+3, 2.4797298e+2, -645978.9, -585058.25, 34646.62, 0.028345214, 0.5339624, -569385.94, -59470.49, 0.0, 9.999254, 10.000037 
2.5847775e+3, 2.579727e+2, -595899.94, -519816.6, 41175.207, 0.033713654, 0.5275612, -501799.7, -89881.36, 0.0, 9.998966, 9.999951 
2.584708e+3, 2.6797238e+2, -540691.25, -382179.22, 43006.375, 0.021929096, 0.5028185, -371262.8, -57341.18, 0.0, 9.998412, 10.000491 
2.584639e+3, 2.7797237e+2, -535640.3, -332757.8, 42214.6, 0.01300962, 0.4782233, -324324.6, -108402.49, 0.0, 9.997789, 10.000458 
2.5845698e+3, 2.879736e+2, -427501.3, -155037.72, 20351.953, 0.020389462, 0.5466808, -153525.89, -35617.074, 0.0, 9.997534, 10.00113 
2.5845006e+3, 2.979751e+2, -393189.47, -149075.11, 16596.074, 0.011575596, 0.6164227, -147951.98, -128059.63, 0.0, 9.997359, 10.000583 
2.5844315e+3, 3.079721e+2, -444003.1, -171176.03, 17809.867, 0.04136913, 0.3089332, -170018.34, -170018.34, 0.0, 9.996774, 10.000377 
2.584363e+3, 3.179747e+2, -407583.1, 73512.484, 4505.213, 0.124395065, 0.5365385, 73554.67, 73554.67, 0.0, 9.996045, 10.002408 
2.5956917e+3, 1.2806395e+2, -1051581.1, -1641497.9, -18977.295, -0.014213741, 0.45530042, -1050971.3, 634045.6, 0.05572172, 10.005945, 9.997657 
2.5956202e+3, 1.380611e+2, -1068866.8, -1626626.4, -15634.776, -0.03308473, 0.43420497, -1068428.8, 518615.22, 0.03766048, 10.005128, 9.997464 
2.5955492e+3, 1.4805843e+2, -1022578.9, -1520387.6, 14201.012, -0.025623962, 0.43360066, -1022174.06, 466896.8, 0.020492602, 10.004536, 9.997805 
2.595479e+3, 1.5805604e+2, -998093.1, -1473304.0, 7260.023, 0.0025472702, 0.4409471, -997982.25, 393113.1, 0.008004004, 10.004039, 9.997694 
2.5954083e+3, 1.6805393e+2, -943996.75, -1345184.4, 11804.876, 0.01034522, 0.46534973, -943649.7, 349467.34, 0.0018292197, 10.003496, 9.998161 
2.5953376e+3, 1.7805208e+2, -935514.1, -1303167.8, 7720.3794, 0.007366354, 0.4923475, -935352.06, 259783.97, 0.00014928778, 10.002932, 9.99805 
2.5952667e+3, 1.8805e+2, -905839.4, -1185139.3, 4812.197, 0.009115209, 0.48450622, -905756.5, 191400.25, 0.0000007786236, 10.002235, 9.998521 
2.595196e+3, 1.9804808e+2, -921416.7, -1154761.8, 2348.3174, 0.014269014, 0.46677017, -921393.06, 77782.73, 0.0, 10.001511, 9.998406 
2.5951257e+3, 2.0804662e+2, -859726.25, -1024212.5, 24061.387, 0.01941767, 0.48543045, -856278.75, 44912.58, 0.0, 10.001047, 9.998852 
2.5950557e+3, 2.1804549e+2, -818340.5, -956183.44, 30531.955, 0.02344879, 0.5140516, -811880.5, -8676.7295, 0.0, 10.00067, 9.998829 
2.5949854e+3, 2.2804447e+2, -748741.0, -796661.3, 24261.748, 0.024364244, 0.52082926, -738602.44, -33388.184, 0.0, 10.000152, 9.999499 
2.5949153e+3, 2.3804368e+2, -735501.7, -746013.8, 18513.748, 0.025338013, 0.51916546, -721512.4, -114290.36, 0.0, 9.999598, 9.999442 
2.5948456e+3, 2.4804305e+2, -644987.1, -585714.2, 23920.559, 0.031752065, 0.5074264, -577265.06, -68037.375, 0.0, 9.999262, 10.000031 
2.5947762e+3, 2.5804266e+2, -596032.06, -523977.3, 25973.033, 0.03752139, 0.49245027, -515591.06, -104360.35, 0.0, 9.998979, 9.999919 
2.5947064e+3, 2.6804253e+2, -546297.1, -396014.2, 16938.121, 0.028552763, 0.4912658, -394128.75, -80896.484, 0.0, 9.998417, 10.000396 
2.5946364e+3, 2.7804267e+2, -546431.94, -354773.94, 22266.115, 0.020165, 0.49227598, -352221.13, -136989.75, 0.0, 9.997784, 10.000312 
2.5945672e+3, 2.880432e+2, -444481.72, -191105.13, 13453.281, 0.01751428, 0.51163834, -190392.81, -73167.36, 0.0, 9.997533, 10.000885 
2.5944972e+3, 2.980441e+2, -389308.28, -143847.95, 2343.111, 0.002783228, 0.5406858, -143825.58, -124610.04, 0.0, 9.997367, 10.000617 
2.5944284e+3, 3.080431e+2, -408273.75, -99608.89, -10857.442, 0.07826902, 0.39774722, -99227.445, -99227.445, 0.0, 9.996779, 10.000868 
2.594358e+3, 3.1804442e+2, -459444.06, -38727.555, -796.13464, 0.075278915, 0.48015484, -38726.047, -38726.047, 0.0, 9.9960575, 10.001635 
2.605697e+3, 1.2813494e+2, -1156718.6, -1687611.8, 9012.428, -0.012796756, 0.43415427, -1156565.8, 527755.4, 0.050032668, 10.005131, 9.997715 
2.6056248e+3, 1.381324e+2, -1091000.3, -1630972.3, 5004.209, -0.042351644, 0.44024494, -1090953.9, 495391.88, 0.033566967, 10.004925, 9.99753 
2.6055536e+3, 1.4812985e+2, -1036646.44, -1519644.3, 32867.17, -0.033513226, 0.44676137, -1034420.1, 453951.25, 0.018037384, 10.004399, 9.997872 
2.6054826e+3, 1.5812752e+2, -1031783.3, -1483092.6, 26351.344, 0.0017181747, 0.4533088, -1030249.94, 360145.25, 0.006886754, 10.003778, 9.99775 
2.6054114e+3, 1.6812529e+2, -988943.9, -1363758.1, 28342.78, 0.012269291, 0.46339124, -986812.75, 305604.78, 0.0015061373, 10.003178, 9.998185 
2.6053402e+3, 1.781233e+2, -984284.8, -1327907.4, 21121.074, 0.009777853, 0.47357363, -982991.44, 211446.05, 0.00011086662, 10.002606, 9.998034 
2.6052687e+3, 1.881212e+2, -917472.06, -1204310.4, 22061.246, 0.008980145, 0.47351134, -915785.2, 180673.33, 0.00000050618763, 10.002219, 9.998395 
2.6051974e+3, 1.981193e+2, -874222.25, -1140047.1, 22717.12, 0.011099951, 0.46979007, -872294.9, 126182.96, 0.0, 10.001875, 9.998329 
2.6051268e+3, 2.0811771e+2, -831819.3, -1007904.94, 34262.566, 0.021883912, 0.47925243, -825387.44, 75106.44, 0.0, 10.001232, 9.998873 
2.6050562e+3, 2.1811643e+2, -843155.0, -971722.2, 29837.703, 0.034083646, 0.49305373, -836567.8, -34060.92, 0.0, 10.000521, 9.998792 
2.6049855e+3, 2.2811534e+2, -755864.44, -821142.4, 31664.797, 0.033872075, 0.5050801, -743028.56, -38510.074, 0.0, 10.000199, 9.999307 
2.604915e+3, 2.3811448e+2, -690713.5, -740063.3, 33533.473, 0.031237302, 0.513568, -673754.94, -67227.25, 0.0, 9.999978, 9.999297 
2.604845e+3, 2.4811369e+2, -633206.2, -585938.7, 34900.94, 0.03862443, 0.49739575, -567422.3, -58887.78, 0.0, 9.999373, 9.999973 
2.6047745e+3, 2.5811315e+2, -644639.56, -553097.56, 34207.223, 0.04615996, 0.47462586, -541727.4, -131188.81, 0.0, 9.998675, 9.999863 
2.6047045e+3, 2.6811302e+2, -549679.25, -405011.25, 28140.193, 0.038020078, 0.47726822, -399730.3, -87190.2, 0.0, 9.99843, 10.000325 
2.6046345e+3, 2.7811313e+2, -478684.78, -330805.72, 34879.25, 0.03125481, 0.4845536, -322991.88, -108452.73, 0.0, 9.99829, 10.00023 
2.6045644e+3, 2.881134e+2, -432375.84, -196938.53, 32968.98, 0.017136693, 0.48561993, -192408.92, -75872.58, 0.0, 9.997671, 10.000775 
2.604494e+3, 2.9811397e+2, -451701.5, -169128.9, 29718.428, -0.014136596, 0.49514887, -166037.22, -147507.5, 0.0, 9.996926, 10.000652 
2.604425e+3, 3.0811414e+2, -422306.44, -76802.81, 922.5518, 0.112014994, 0.45168614, -76800.34, -76800.34, 0.0, 9.99656, 10.001128 
2.6043537e+3, 3.1811523e+2, -435104.03, -40746.266, 18641.928, 0.049948677, 0.4922347, -39866.992, -39866.992, 0.0, 9.996286, 10.00151 
2.6157016e+3, 1.2820631e+2, -1157350.5, -1692710.8, 476.56772, -0.021504471, 0.39136553, -1157350.1, 526270.75, 0.04462823, 10.0051155, 9.997688 
2.6156294e+3, 1.3820428e+2, -1092852.4, -1632729.9, -7614.152, -0.04375848, 0.44845426, -1092745.0, 492896.9, 0.029705765, 10.004893, 9.997535 
2.6155576e+3, 1.4820197e+2, -1033874.44, -1512008.4, 8982.705, -0.03740903, 0.47411206, -1033705.7, 453959.75, 0.015748942, 10.004377, 9.997938 
2.615486e+3, 1.5819974e+2, -1029361.56, -1478411.0, 2118.5789, -0.0056546777, 0.48576087, -1029351.56, 360336.5, 0.005869248, 10.003773, 9.997787 
2.6154143e+3, 1.6819713e+2, -990146.5, -1368666.9, 5449.2544, 0.005347674, 0.45860377, -990068.06, 301645.38, 0.0012257247, 10.003182, 9.998151 
2.615342e+3, 1.7819464e+2, -985496.6, -1333589.6, 1624.7327, 0.0042895246, 0.42368633, -985489.06, 208248.38, 0.00008099668, 10.002616, 9.9979925 
2.6152706e+3, 1.8819284e+2, -921878.94, -1215402.6, 9616.445, 0.0098521225, 0.45884314, -921564.25, 174191.58, 0.0000003029647, 10.002224, 9.998319 
2.615199e+3, 1.981914e+2, -881383.2, -1155498.4, 5700.492, 0.019680524, 0.51056266, -881264.7, 116506.29, 0.0, 10.001874, 9.998226 
2.6151276e+3, 2.0818935e+2, -843099.06, -1032988.75, 6643.2007, 0.031283285, 0.48649734, -842866.94, 56924.39, 0.0, 10.001235, 9.998701 
2.6150563e+3, 2.1818735e+2, -851477.5, -991430.7, 9034.608, 0.041652706, 0.44257376, -850896.7, -49085.74, 0.0, 10.000526, 9.998655 
2.6149857e+3, 2.281863e+2, -760313.7, -833054.1, 24720.21, 0.04037075, 0.46988812, -752708.0, -48885.91, 0.0, 10.000206, 9.999224 
2.6149148e+3, 2.381857e+2, -695553.1, -753195.06, 19584.252, 0.038087767, 0.51515317, -689528.8, -83700.02, 0.0, 9.999987, 9.999205 
2.6148438e+3, 2.4818487e+2, -641815.6, -605476.94, 6232.409, 0.049246375, 0.5049073, -604437.75, -96601.41, 0.0, 9.999376, 9.99984 
2.6147732e+3, 2.5818416e+2, -652034.75, -568376.75, 13234.793, 0.059100345, 0.47694704, -566332.94, -156490.7, 0.0, 9.998671, 9.999763 
2.614703e+3, 2.6818374e+2, -553045.06, -413782.1, 23473.55, 0.050351847, 0.45969772, -409931.94, -98086.016, 0.0, 9.998434, 10.000265 
2.6146325e+3, 2.7818364e+2, -477449.6, -333085.03, 21756.459, 0.045712728, 0.44836906, -329877.47, -116030.8, 0.0, 9.998306, 10.000209 
2.614562e+3, 2.881841e+2, -430636.53, -194263.52, 1446.7925, 0.019314386, 0.4724511, -194254.66, -78412.99, 0.0, 9.997671, 10.000796 
2.6144904e+3, 2.981849e+2, -454998.84, -171216.0, 5722.359, -0.03836226, 0.49875826, -171100.66, -153267.11, 0.0, 9.996901, 10.000652 
2.6144215e+3, 3.081849e+2, -423394.22, -76391.37, -9764.249, 0.13658273, 0.439436, -76116.836, -76116.836, 0.0, 9.996544, 10.001142 
2.61435e+3, 3.1818604e+2, -433499.94, -33947.17, -1276.4391, 0.076298185, 0.47592968, -33943.094, -33943.094, 0.0, 9.996272, 10.001563 
2.6257062e+3, 1.2827857e+2, -1186785.9, -1690051.3, 16144.493, -0.022540575, 0.4082087, -1186268.5, 496644.94, 0.03952698, 10.004806, 9.997854 
2.6256338e+3, 1.3827659e+2, -1137643.0, -1644436.3, 13848.647, -0.050487153, 0.4563424, -1137264.9, 447668.8, 0.026090939, 10.004519, 9.997633 
2.6255617e+3, 1.4827424e+2, -1085366.1, -1542548.9, 19692.133, -0.040618934, 0.47843835, -1084519.5, 402438.1, 0.013635199, 10.00404, 9.997889 
2.6254895e+3, 1.5827194e+2, -1068023.3, -1498760.6, 5846.8, -0.0025161996, 0.48858956, -1067944.0, 321037.06, 0.0049531385, 10.003516, 9.997768 
2.625417e+3, 1.682694e+2, -1003232.3, -1371120.4, 12202.093, 0.0057747103, 0.4656673, -1002828.06, 288177.66, 0.0009863466, 10.003082, 9.998179 
2.6253447e+3, 1.7826697e+2, -976698.44, -1327403.6, 11761.502, 0.00011166111, 0.435263, -976304.44, 216724.4, 0.000058453912, 10.002675, 9.998004 
2.6252726e+3, 1.8826503e+2, -937700.6, -1226656.3, 22501.168, 0.011641914, 0.45927215, -935959.0, 159089.28, 0.00000016598092, 10.002136, 9.998281 
2.6252007e+3, 1.982634e+2, -928075.5, -1183110.1, 19908.14, 0.029848978, 0.4970019, -926530.8, 70534.14, 0.0, 10.00158, 9.998176 
2.6251286e+3, 2.0826133e+2, -847268.0, -1044934.56, 24364.982, 0.037244547, 0.47799006, -844309.0, 54776.523, 0.0, 10.001255, 9.998607 
2.6250568e+3, 2.182593e+2, -791687.1, -971012.94, 31780.402, 0.04065078, 0.44320923, -786221.56, 14883.612, 0.0, 10.000979, 9.998574 
2.6249856e+3, 2.282581e+2, -742691.4, -832908.3, 49242.402, 0.044900447, 0.46373233, -721019.7, -17902.0, 0.0, 10.000368, 9.999144 
2.6249146e+3, 2.3825732e+2, -746482.94, -787112.4, 44315.16, 0.0506403, 0.4992573, -718048.06, -112921.945, 0.0, 9.999682, 9.999116 
2.624843e+3, 2.4825644e+2, -650372.94, -623693.2, 30366.363, 0.052637465, 0.49537274, -603865.8, -96731.42, 0.0, 9.999383, 9.999709 
2.624772e+3, 2.5825572e+2, -586475.8, -546679.44, 38045.004, 0.05041456, 0.47675863, -523643.25, -114502.54, 0.0, 9.999167, 9.99967 
2.6247013e+3, 2.6825508e+2, -536546.2, -408424.6, 50799.18, 0.05314223, 0.44834, -390727.56, -79581.95, 0.0, 9.998563, 10.000238 
2.6246306e+3, 2.7825478e+2, -545640.7, -370010.06, 48980.676, 0.06539889, 0.42164704, -357273.72, -144126.06, 0.0, 9.997862, 10.000167 
2.6245594e+3, 2.882553e+2, -453954.53, -216453.13, 18219.209, 0.029966485, 0.45659986, -215063.63, -99920.98, 0.0, 9.997562, 10.000693 
2.6244873e+3, 2.9825613e+2, -397479.6, -155542.55, 13086.841, -0.043749392, 0.49789286, -154836.7, -137702.1, 0.0, 9.99735, 10.000543 
2.6244178e+3, 3.0825582e+2, -392216.25, -69859.484, -9085.79, 0.13919142, 0.4179666, -69603.6, -69603.6, 0.0, 9.9967985, 10.001061 
2.6243457e+3, 3.1825688e+2, -446475.0, -65579.81, -10814.892, 0.04227254, 0.45641625, -65272.99, -65272.99, 0.0, 9.996302, 10.0013275 
2.6357108e+3, 1.2835166e+2, -1169493.1, -1651296.5, 4232.114, -0.019491334, 0.4723122, -1169456.0, 512742.8, 0.034741234, 10.004769, 9.998147 
2.6356378e+3, 1.3834938e+2, -1128813.5, -1625154.9, -2367.603, -0.06278335, 0.46314582, -1128802.3, 455418.47, 0.02272911, 10.004499, 9.997777 
2.635565e+3, 1.4834675e+2, -1096969.0, -1566833.9, -2020.6617, -0.043987267, 0.46347806, -1096960.4, 389286.97, 0.011698904, 10.004026, 9.99773 
2.635493e+3, 1.5834424e+2, -1075259.0, -1511520.5, -13061.57, 0.008627602, 0.4668386, -1074868.3, 313404.75, 0.0041374727, 10.003499, 9.997691 
2.63542e+3, 1.6834211e+2, -1000510.7, -1363351.4, -2933.5825, 0.011951213, 0.48416096, -1000486.94, 289806.97, 0.0007851616, 10.003069, 9.998241 
2.6353472e+3, 1.7834023e+2, -975183.06, -1323431.4, -5716.3633, -0.0032400442, 0.5013976, -975089.25, 217222.83, 0.00004180925, 10.002666, 9.998037 
2.6352745e+3, 1.8833776e+2, -938945.56, -1230876.0, 776.2527, 0.013738576, 0.4720788, -938943.5, 155392.53, 0.00000008213487, 10.002139, 9.998253 
2.635202e+3, 1.9833532e+2, -928037.06, -1186232.5, 2412.3708, 0.040405653, 0.43309018, -928014.56, 68344.96, 0.0, 10.00159, 9.998152 
2.6351297e+3, 2.0833363e+2, -848636.75, -1050067.1, 15091.146, 0.03972637, 0.4559046, -847512.44, 50864.008, 0.0, 10.001261, 9.998571 
2.6350576e+3, 2.1833229e+2, -794486.25, -978418.94, 17099.531, 0.031994373, 0.49294347, -792910.06, 7479.7974, 0.0, 10.000982, 9.998525 
2.6349857e+3, 2.2833073e+2, -748748.8, -846860.94, 22518.15, 0.047557257, 0.48537603, -743827.44, -41421.785, 0.0, 10.00037, 9.999049 
2.634914e+3, 2.3832932e+2, -753379.1, -802407.9, 23837.79, 0.06769737, 0.46599963, -743700.0, -139280.0, 0.0, 9.999682, 9.999013 
2.6348424e+3, 2.4832836e+2, -659669.56, -645245.2, 23242.99, 0.04767569, 0.4681512, -628121.1, -121692.21, 0.0, 9.999389, 9.99956 
2.6347706e+3, 2.583277e+2, -590999.3, -560660.5, 24060.803, 0.017858598, 0.47305498, -547386.4, -138951.88, 0.0, 9.999183, 9.999569 
2.6346993e+3, 2.6832706e+2, -536785.8, -410424.5, 21704.215, 0.045254067, 0.44420913, -406800.44, -96361.01, 0.0, 9.998565, 10.000226 
2.6346284e+3, 2.7832666e+2, -554500.94, -385244.5, 27272.33, 0.09105055, 0.40821552, -380958.63, -168516.47, 0.0, 9.997844, 10.000073 
2.634557e+3, 2.8832686e+2, -472794.88, -255056.77, 10876.98, 0.05083958, 0.43651646, -254514.75, -140074.66, 0.0, 9.997557, 10.000434 
2.6344848e+3, 2.9832748e+2, -412658.7, -191686.69, -1388.5569, -0.028182875, 0.48227346, -191677.95, -175243.19, 0.0, 9.997365, 10.000289 
2.6344144e+3, 3.0832693e+2, -408102.28, -105326.414, -36707.664, 0.11427391, 0.3997673, -100939.64, -100939.64, 0.0, 9.996804, 10.000818 
2.6343414e+3, 3.1832847e+2, -461398.88, -102857.56, -9865.381, -0.0022551673, 0.51273453, -102586.32, -102586.32, 0.0, 9.996318, 10.001069 
2.6457152e+3, 1.2842433e+2, -1226800.4, -1674534.5, 11658.423, -0.03794877, 0.48141798, -1226497.0, 454990.28, 0.030287199, 10.004325, 9.998194 
2.6456422e+3, 1.3842216e+2, -1179220.8, -1638300.5, -11903.389, -0.048908234, 0.47753337, -1178912.4, 404595.8, 0.01962978, 10.004087, 9.997883 
2.6455688e+3, 1.4841965e+2, -1143051.3, -1565355.0, -4633.7656, -0.035684697, 0.47010285, -1143000.4, 342532.94, 0.009943107, 10.003604, 9.997941 
2.6454958e+3, 1.5841722e+2, -1127267.6, -1521290.8, 6922.107, 0.0026610675, 0.46284485, -1127146.1, 260411.63, 0.0034202537, 10.003078, 9.997825 
2.6454225e+3, 1.6841513e+2, -1059126.6, -1393984.9, 21127.436, 0.012109782, 0.48205793, -1057798.9, 231779.48, 0.00061876065, 10.002681, 9.998215 
2.6453495e+3, 1.7841327e+2, -1025060.56, -1348411.8, 11305.542, 0.007854982, 0.5053929, -1024665.75, 166930.86, 0.00002971142, 10.002334, 9.998023 
2.6452765e+3, 1.8841082e+2, -952007.0, -1236277.8, 16654.205, 0.021328868, 0.47815195, -951034.6, 142585.72, 0.000000036221024, 10.002052, 9.998255 
2.6452035e+3, 1.9840837e+2, -900809.1, -1170535.0, 19081.025, 0.041212086, 0.4385077, -899466.0, 96177.69, 0.0, 10.001773, 9.998168 
2.6451308e+3, 2.0840664e+2, -853132.5, -1049807.6, 33678.094, 0.043111242, 0.45700228, -847525.4, 50135.344, 0.0, 10.001225, 9.998587 
2.645058e+3, 2.1840529e+2, -848007.4, -1005113.2, 38520.95, 0.039981436, 0.49085084, -839070.7, -39396.355, 0.0, 10.000624, 9.998511 
2.644986e+3, 2.2840369e+2, -762036.06, -862128.2, 43942.33, 0.05420073, 0.4861005, -745482.25, -43791.83, 0.0, 10.000322, 9.998964 
2.6449138e+3, 2.384022e+2, -700028.7, -783899.1, 47167.902, 0.072500385, 0.4689973, -678849.94, -75144.57, 0.0, 10.000085, 9.998943 
2.6448417e+3, 2.4840112e+2, -635616.56, -640199.2, 53894.336, 0.056449708, 0.46536446, -583964.9, -78249.336, 0.0, 9.999586, 9.999497 
2.6447695e+3, 2.5840032e+2, -620331.4, -584519.25, 58639.727, 0.031046342, 0.4643762, -541112.6, -133390.2, 0.0, 9.999029, 9.9994755 
2.6446977e+3, 2.6839963e+2, -523181.44, -423239.6, 44317.14, 0.049826976, 0.44348145, -406419.03, -96690.805, 0.0, 9.998747, 10.000048 
2.6446265e+3, 2.783991e+2, -470179.06, -362100.75, 37848.977, 0.084989786, 0.4172472, -350164.34, -138432.38, 0.0, 9.998502, 9.999913 
2.6445544e+3, 2.883991e+2, -447457.34, -257355.27, 26094.572, 0.06169246, 0.43681315, -253838.42, -140106.1, 0.0, 9.997798, 10.000299 
2.644482e+3, 2.9839948e+2, -476527.47, -240976.03, 25584.94, 0.007168592, 0.47339353, -238229.1, -222499.63, 0.0, 9.997013, 10.000117 
2.6444107e+3, 3.0839893e+2, -396165.8, -127686.195, -3389.4353, 0.090135865, 0.41488138, -127643.414, -127643.414, 0.0, 9.997014, 10.000561 
2.6443374e+3, 3.184001e+2, -413751.38, -81134.78, -1505.5254, -0.0025738336, 0.5194353, -81127.97, -81127.97, 0.0, 9.996654, 10.001055 
2.6557186e+3, 1.2849684e+2, -1232199.8, -1693027.9, 3813.6016, -0.07520327, 0.44882718, -1232168.1, 448608.84, 0.026181849, 10.004335, 9.998062 
2.6556462e+3, 1.3849512e+2, -1177689.6, -1629165.5, -23369.285, -0.014093083, 0.499222, -1176483.1, 406311.4, 0.016803231, 10.004047, 9.997967 
2.6555723e+3, 1.4849298e+2, -1112675.3, -1497825.0, -24120.154, -0.018147063, 0.49467587, -1111170.6, 373644.5, 0.008369958, 10.003578, 9.998419 
2.6554987e+3, 1.5849087e+2, -1108263.5, -1482084.4, -11343.88, -0.01901627, 0.4737792, -1107919.6, 278915.63, 0.0027981969, 10.003075, 9.998097 
2.655425e+3, 1.6848846e+2, -1067041.5, -1412124.4, 7299.0493, 0.006127816, 0.46189103, -1066887.3, 221971.64, 0.00048341588, 10.002684, 9.998092 
2.6553518e+3, 1.784862e+2, -1029434.75, -1359158.1, -1073.1901, 0.030893756, 0.45494756, -1029431.25, 161450.4, 0.00002102674, 10.0023365, 9.997951 
2.6552784e+3, 1.8848424e+2, -951042.5, -1234871.8, 7038.3384, 0.03361212, 0.47957048, -950868.06, 142032.89, 0.000000014940222, 10.00205, 9.998267 
2.655205e+3, 1.984825e+2, -898999.06, -1166695.3, 4891.4395, 0.033473127, 0.5072987, -898909.7, 96008.34, 0.0, 10.001768, 9.9981985 
2.6551318e+3, 2.0848033e+2, -849253.56, -1043004.3, 10449.638, 0.047462843, 0.47819334, -848691.56, 48247.27, 0.0, 10.001226, 9.998634 
2.6550585e+3, 2.1847828e+2, -846786.25, -1004364.94, 21021.227, 0.062780306, 0.43867773, -844030.2, -45071.555, 0.0, 10.0006275, 9.998517 
2.654986e+3, 2.2847696e+2, -767771.56, -876248.9, 36260.19, 0.064178854, 0.46740815, -756767.4, -55795.17, 0.0, 10.000328, 9.998867 
2.6549137e+3, 2.3847596e+2, -701886.9, -791166.2, 34268.668, 0.06477873, 0.50914305, -690250.06, -87267.43, 0.0, 10.000095, 9.998891 
2.6548412e+3, 2.484747e+2, -633378.6, -637748.25, 31282.656, 0.080343075, 0.48765045, -604204.6, -99210.195, 0.0, 9.999592, 9.999514 
2.6547688e+3, 2.5847355e+2, -627906.06, -600603.56, 41408.89, 0.09335017, 0.4507655, -570653.75, -163649.08, 0.0, 9.999026, 9.999369 
2.6546964e+3, 2.6847273e+2, -548448.1, -478375.6, 36401.617, 0.06737825, 0.44680655, -462888.44, -153876.03, 0.0, 9.9987545, 9.999667 
2.6546243e+3, 2.7847216e+2, -483467.72, -396145.63, 20921.633, 0.042502664, 0.45058125, -391391.78, -180374.1, 0.0, 9.998526, 9.99967 
2.654552e+3, 2.88472e+2, -447127.78, -258417.94, -8023.404, 0.060184415, 0.4618257, -258077.42, -145057.83, 0.0, 9.9978, 10.000293 
2.654479e+3, 2.9847217e+2, -487267.88, -258313.52, 7089.322, 0.061541144, 0.48032832, -258094.2, -243075.86, 0.0, 9.996987, 10.000013 
2.6544073e+3, 3.0847177e+2, -414876.4, -170343.31, 5520.0703, 0.07383438, 0.46102557, -170218.77, -170218.77, 0.0, 9.9970255, 10.000264 
2.6543337e+3, 3.1847146e+2, -407465.6, -68239.875, -102841.08, -0.012409284, 0.43528554, -39497.47, -39497.47, 0.0, 9.996651, 10.001147 
2.6657227e+3, 1.2857045e+2, -1234814.0, -1684505.3, 31438.424, -0.08072497, 0.45698032, -1232626.8, 447428.72, 0.022430766, 10.004262, 9.998154 
2.6656497e+3, 1.3856846e+2, -1258142.9, -1654801.6, 18020.107, -0.011147527, 0.47272912, -1257325.9, 324749.4, 0.01424909, 10.003421, 9.998091 
2.6655754e+3, 1.4856656e+2, -1172031.8, -1507007.0, 11635.025, -0.011614199, 0.47627926, -1171628.1, 312465.4, 0.0069746953, 10.003083, 9.998591 
2.6655012e+3, 1.5856478e+2, -1128741.6, -1480472.1, 5403.5376, -0.010953847, 0.47355443, -1128658.6, 257451.5, 0.0022651928, 10.002888, 9.998196 
2.6654273e+3, 1.6856238e+2, -1088753.1, -1427405.3, 22948.283, 0.011415383, 0.4625008, -1087205.3, 200928.73, 0.00037478036, 10.002562, 9.998042 
2.6653537e+3, 1.7856002e+2, -1049073.6, -1366484.3, 18693.563, 0.03328309, 0.45096287, -1047976.5, 142181.27, 0.000014821744, 10.002199, 9.997963 
2.66528e+3, 1.8855806e+2, -986548.4, -1239732.1, 32210.41, 0.038757194, 0.46943095, -982514.75, 109662.03, 0.000000005798, 10.00176, 9.998371 
2.6652062e+3, 1.9855638e+2, -959203.56, -1188925.6, 35356.477, 0.042174272, 0.49361518, -953885.0, 40308.195, 0.0, 10.00133, 9.998255 
2.665133e+3, 2.085543e+2, -857179.8, -1050519.5, 37051.184, 0.05535028, 0.47406372, -850322.6, 45890.86, 0.0, 10.001193, 9.998597 
2.6650593e+3, 2.1855229e+2, -779338.25, -973374.44, 39779.34, 0.06963533, 0.44386795, -771499.75, 26733.3, 0.0, 10.001102, 9.998497 
2.6649863e+3, 2.2855085e+2, -730723.9, -859210.7, 56610.793, 0.069180496, 0.463311, -709340.2, -9092.625, 0.0, 10.00059, 9.998855 
2.6649132e+3, 2.3854974e+2, -720422.06, -803993.94, 61097.695, 0.06773824, 0.49445227, -688187.75, -85928.695, 0.0, 9.99999, 9.998851 
2.6648405e+3, 2.4854851e+2, -623383.0, -645169.25, 51583.17, 0.08753979, 0.4854127, -581555.3, -77284.195, 0.0, 9.999719, 9.999399 
2.664768e+3, 2.585474e+2, -566107.06, -581283.0, 52595.496, 0.10628448, 0.46495947, -520555.03, -114273.4, 0.0, 9.999499, 9.999271 
2.664695e+3, 2.6854652e+2, -531626.25, -479270.8, 61698.605, 0.07351038, 0.46351185, -438426.22, -130136.08, 0.0, 9.998913, 9.999582 
2.6646224e+3, 2.7854583e+2, -533320.44, -431706.1, 63861.7, 0.04090826, 0.4660835, -400906.38, -190609.8, 0.0, 9.998239, 9.999561 
2.6645496e+3, 2.8854546e+2, -456532.2, -282254.84, 23230.22, 0.06761346, 0.47201142, -279211.53, -166910.56, 0.0, 9.997824, 10.000115 
2.6644763e+3, 2.9854545e+2, -422826.38, -229270.36, 33861.742, 0.0725823, 0.4871164, -223517.39, -209215.44, 0.0, 9.997442, 9.999991 
2.664404e+3, 3.085456e+2, -429553.56, -152714.34, 73453.414, 0.052355215, 0.5091513, -134432.36, -134432.36, 0.0, 9.996822, 10.000482 
2.6643297e+3, 3.185446e+2, -457725.8, -100482.21, -64090.01, -0.023045737, 0.40007958, -89332.37, -89332.37, 0.0, 9.9963455, 10.001069 
2.6757267e+3, 1.2864503e+2, -1222415.8, -1653425.6, -303.6302, -0.06283641, 0.4948987, -1222415.5, 456908.44, 0.019022247, 10.004222, 9.998391 
2.6756525e+3, 1.3864224e+2, -1246888.6, -1636394.6, -5702.976, -0.036553152, 0.40858236, -1246805.1, 334545.25, 0.011952635, 10.003433, 9.998213 
2.675578e+3, 1.4864042e+2, -1175475.8, -1519179.6, 4334.489, -0.015695715, 0.4245084, -1175421.1, 307946.78, 0.005744631, 10.003097, 9.998504 
2.675504e+3, 1.58639e+2, -1132284.6, -1488975.6, -4239.592, 0.02178115, 0.46441337, -1132234.1, 253147.84, 0.0018121655, 10.002887, 9.998139 
2.6754296e+3, 1.6863686e+2, -1089004.3, -1428151.3, 9732.737, 0.026220005, 0.4809789, -1088725.1, 198678.36, 0.00028800286, 10.002558, 9.998041 
2.6753554e+3, 1.7863467e+2, -1044486.8, -1357145.8, 4278.7646, 0.017399527, 0.4866702, -1044428.25, 144997.34, 0.000010388344, 10.002195, 9.998031 
2.6752815e+3, 1.886323e+2, -973769.06, -1215361.5, 15358.392, 0.03736064, 0.4474427, -972796.6, 118651.46, 0.0000000017280947, 10.001764, 9.998538 
2.6752076e+3, 1.9863008e+2, -953192.25, -1179947.8, 23928.418, 0.06467051, 0.40436265, -950694.7, 42773.957, 0.0, 10.001341, 9.998313 
2.6751336e+3, 2.0862855e+2, -865917.7, -1071275.0, 35161.56, 0.065928146, 0.4480696, -860064.1, 35420.37, 0.0, 10.001201, 9.998453 
2.67506e+3, 2.1862729e+2, -782708.9, -982271.6, 30240.225, 0.06098184, 0.5050283, -778227.2, 19270.963, 0.0, 10.001107, 9.998436 
2.6749867e+3, 2.2862537e+2, -725220.4, -849349.6, 33003.664, 0.06935387, 0.47192463, -716990.9, -17473.889, 0.0, 10.000593, 9.998923 
2.674913e+3, 2.386235e+2, -723166.1, -810713.2, 43565.8, 0.08066406, 0.42281783, -705181.25, -103646.16, 0.0, 9.999991, 9.998806 
2.67484e+3, 2.486225e+2, -641579.0, -685381.56, 44452.42, 0.0760921, 0.4583748, -613925.44, -110379.445, 0.0, 9.999725, 9.999122 
2.6747668e+3, 2.586219e+2, -570005.94, -593972.1, 38150.688, 0.064862415, 0.5100632, -542000.7, -136447.13, 0.0, 9.999516, 9.999179 
2.6746938e+3, 2.6862097e+2, -514737.13, -445744.34, 34219.98, 0.06720637, 0.49484357, -431650.53, -124088.97, 0.0, 9.998915, 9.999813 
2.6746207e+3, 2.7862015e+2, -534294.0, -431110.8, 42507.316, 0.08390637, 0.4621825, -415855.1, -206286.53, 0.0, 9.998222, 9.999575 
2.6745474e+3, 2.886195e+2, -484276.03, -340426.72, 10478.094, 0.08547505, 0.4640671, -339667.47, -228090.72, 0.0, 9.997823, 9.999719 
2.6744732e+3, 2.9861924e+2, -413571.38, -215750.53, 15265.247, 0.039416034, 0.48866546, -214579.5, -200998.39, 0.0, 9.997462, 10.000076 
2.6744e+3, 3.0862057e+2, -373607.44, -31696.025, 47644.934, 0.009026091, 0.5675224, -25180.908, -25180.908, 0.0, 9.996797, 10.0013275 
2.6743263e+3, 3.1861982e+2, -483601.8, -146476.06, -73839.21, 0.024553364, 0.4223658, -131012.66, -131012.66, 0.0, 9.996308, 10.000773 
2.6857305e+3, 1.2871973e+2, -1299332.3, -1683446.9, 28998.611, -0.05495637, 0.4774902, -1297155.3, 381435.7, 0.015932873, 10.003643, 9.998459 
2.685656e+3, 1.3871713e+2, -1239065.4, -1630745.8, 15834.692, -0.031064976, 0.4057606, -1238426.3, 342189.13, 0.009893894, 10.003477, 9.998228 
2.685581e+3, 1.4871527e+2, -1182822.4, -1533014.6, 27228.027, -0.014370942, 0.42205104, -1180718.0, 301915.8, 0.0046648583, 10.003092, 9.998408 
2.6855066e+3, 1.587137e+2, -1165009.6, -1505254.3, 17600.896, 0.0203111, 0.4584513, -1164101.6, 220547.86, 0.0014291723, 10.002668, 9.998131 
2.6854318e+3, 1.6871154e+2, -1117569.4, -1426489.0, 37521.06, 0.028333621, 0.4636781, -1113077.4, 173593.34, 0.00021846486, 10.0023, 9.998174 
2.6853573e+3, 1.7870937e+2, -1071460.8, -1360710.3, 39800.48, 0.023400957, 0.45871523, -1066084.1, 122608.0, 0.0000072154403, 10.001974, 9.998111 
2.6852828e+3, 1.8870708e+2, -969576.1, -1215325.3, 43084.633, 0.03900439, 0.4284144, -962241.44, 128472.46, 0.0000000002885943, 10.001807, 9.998515 
2.6852086e+3, 1.9870494e+2, -908323.5, -1158467.0, 38750.402, 0.061728705, 0.3961207, -902458.1, 90275.945, 0.0, 10.001656, 9.998305 
2.6851347e+3, 2.0870338e+2, -864739.94, -1070773.8, 55025.07, 0.06856648, 0.4366253, -850965.4, 43785.14, 0.0, 10.001214, 9.998446 
2.6850608e+3, 2.1870208e+2, -837455.56, -1006258.2, 58275.95, 0.07018218, 0.49020898, -819291.44, -22526.602, 0.0, 10.000725, 9.998453 
2.6849872e+3, 2.2870024e+2, -731755.8, -847429.1, 58306.73, 0.07535427, 0.4635843, -707466.0, -8683.098, 0.0, 10.000531, 9.998963 
2.684913e+3, 2.3869845e+2, -668314.6, -785278.94, 66907.96, 0.08214291, 0.42110407, -637932.6, -37132.41, 0.0, 10.000377, 9.998793 
2.6848397e+3, 2.4869743e+2, -630119.7, -693502.5, 76069.93, 0.073077925, 0.46231827, -579403.7, -76591.61, 0.0, 9.9998665, 9.998996 
2.6847658e+3, 2.5869673e+2, -609272.7, -619179.1, 77183.78, 0.05782937, 0.520385, -536883.4, -132062.45, 0.0, 9.999279, 9.999117 
2.6846924e+3, 2.6869586e+2, -519705.6, -444217.34, 58345.24, 0.06574383, 0.50883055, -412472.0, -105643.39, 0.0, 9.99887, 9.999844 
2.6846188e+3, 2.7869508e+2, -501370.63, -420153.75, 53128.19, 0.08974461, 0.47794408, -393891.78, -185056.61, 0.0, 9.998475, 9.999527 
2.684545e+3, 2.8869414e+2, -491888.47, -365301.4, 31541.521, 0.08274258, 0.4718884, -357877.63, -247031.53, 0.0, 9.997867, 9.999524 
2.68447e+3, 2.9869366e+2, -448326.25, -229750.78, 46438.867, 0.028369348, 0.48878366, -220293.5, -207440.23, 0.0, 9.997217, 10.000095 
2.6843965e+3, 3.086956e+2, -358982.2, 18374.582, 44583.98, 0.021608546, 0.60159546, 23570.549, 23570.549, 0.0, 9.996717, 10.001706 
2.684323e+3, 3.1869504e+2, -486343.94, -151632.81, -79269.61, 0.05749151, 0.44565684, -133808.58, -133808.58, 0.0, 9.996312, 10.000732 
2.695734e+3, 1.2879464e+2, -1297361.9, -1689256.3, 21227.695, -0.05754967, 0.4211989, -1296215.4, 381640.22, 0.013138979, 10.003674, 9.998406 
2.6956594e+3, 1.3879302e+2, -1245398.8, -1642513.3, 4819.034, -0.00041547176, 0.45114183, -1245340.3, 334531.13, 0.008055823, 10.003461, 9.9981575 
2.695584e+3, 1.4879094e+2, -1192459.5, -1551541.5, 10903.767, -0.008665155, 0.45760024, -1192128.6, 289763.25, 0.003722125, 10.003078, 9.99829 
2.695509e+3, 1.5878889e+2, -1163976.8, -1503328.6, 2916.4678, -0.010697186, 0.454167, -1163951.6, 219960.72, 0.0011068882, 10.002665, 9.998148 
2.6954338e+3, 1.6878645e+2, -1100737.3, -1393321.5, 24604.396, 0.019282443, 0.41569564, -1098682.6, 187252.66, 0.00016239303, 10.002303, 9.998402 
2.6953593e+3, 1.7878413e+2, -1065496.0, -1350808.0, 29562.035, 0.047473766, 0.37604877, -1062465.3, 125491.74, 0.000004929021, 10.001981, 9.998178 
2.6952845e+3, 1.887824e+2, -983856.3, -1246435.6, 38257.125, 0.04255513, 0.41391957, -978395.9, 111578.45, 0.000000000007316074, 10.001809, 9.998302 
2.69521e+3, 1.9878088e+2, -913969.1, -1170774.0, 28652.912, 0.035619397, 0.46238273, -910811.0, 81178.97, 0.0, 10.001655, 9.998223 
2.6951358e+3, 2.0877872e+2, -855637.75, -1053407.6, 35873.727, 0.06423867, 0.43661067, -849331.6, 44680.336, 0.0, 10.001217, 9.998567 
2.6950616e+3, 2.1877663e+2, -831268.8, -994818.4, 45178.508, 0.09572066, 0.40048125, -819618.7, -23585.477, 0.0, 10.000728, 9.998532 
2.6949874e+3, 2.2877549e+2, -731830.0, -849737.8, 54266.51, 0.086514086, 0.44047642, -710656.4, -12611.122, 0.0, 10.000537, 9.998946 
2.694913e+3, 2.3877464e+2, -666145.1, -784292.75, 55451.727, 0.07111807, 0.49353752, -644196.7, -44142.246, 0.0, 10.000388, 9.9987955 
2.6948392e+3, 2.4877328e+2, -627351.3, -689651.0, 52468.32, 0.079113476, 0.4978815, -597482.8, -95413.336, 0.0, 9.999871, 9.999022 
2.694765e+3, 2.5877196e+2, -613670.0, -627588.6, 57741.746, 0.08739119, 0.4917279, -562469.7, -158385.64, 0.0, 9.999271, 9.999064 
2.6946908e+3, 2.6877114e+2, -534951.75, -476199.56, 44356.73, 0.06895937, 0.5040302, -452373.47, -146281.84, 0.0, 9.998867, 9.999626 
2.6946166e+3, 2.787706e+2, -508918.34, -438500.22, 33939.734, 0.053888537, 0.5166579, -424805.47, -216708.72, 0.0, 9.998483, 9.999399 
2.694542e+3, 2.8876954e+2, -490218.44, -361968.3, 5215.352, 0.05478167, 0.498065, -361756.6, -251647.69, 0.0, 9.997863, 9.999551 
2.694467e+3, 2.987688e+2, -458403.8, -246994.75, 24921.873, 0.0359963, 0.48832348, -244096.58, -231978.31, 0.0, 9.997197, 9.9999895 
2.6943937e+3, 3.087705e+2, -380032.13, -22591.377, 23616.113, 0.119024634, 0.6027935, -21037.813, -21037.813, 0.0, 9.996702, 10.001434 
2.694318e+3, 3.1877038e+2, -466894.13, -113904.05, -60571.227, -0.007513037, 0.5071203, -103799.586, -103799.586, 0.0, 9.996315, 10.000996 
2.7057377e+3, 1.2887046e+2, -1269092.6, -1666235.9, 13707.091, -0.049038563, 0.44147363, -1268620.0, 408493.16, 0.0106244255, 10.003823, 9.998491 
2.7056623e+3, 1.3886862e+2, -1307473.6, -1661836.4, 8774.043, 0.00085274165, 0.44433275, -1307256.5, 271873.63, 0.0064243283, 10.002984, 9.998253 
2.7055866e+3, 1.4886664e+2, -1247227.5, -1567405.4, 33538.023, -0.0048918333, 0.44933805, -1243752.1, 237397.55, 0.0029037308, 10.002658, 9.998381 
2.705511e+3, 1.5886469e+2, -1188303.6, -1508939.1, 35985.598, -0.00321273, 0.44970807, -1184314.5, 198854.55, 0.0008365411, 10.002475, 9.9981985 
2.7054358e+3, 1.688623e+2, -1115672.1, -1402252.4, 46182.863, 0.023924006, 0.41596568, -1108413.6, 176778.03, 0.000116990734, 10.0022135, 9.998382 
2.705361e+3, 1.7885998e+2, -1072610.5, -1352789.4, 37122.21, 0.049263537, 0.3797268, -1067775.4, 119437.86, 0.0000032501778, 10.001931, 9.998184 
2.7052858e+3, 1.8885823e+2, -1012012.3, -1256292.1, 57559.957, 0.04685442, 0.41204697, -999128.9, 90102.164, 0.0, 10.001605, 9.99833 
2.705211e+3, 1.988567e+2, -962384.06, -1188211.1, 62796.73, 0.041856017, 0.45618474, -946096.6, 45150.348, 0.0, 10.001301, 9.998272 
2.7051365e+3, 2.0885465e+2, -847373.9, -1040748.0, 69136.73, 0.06130913, 0.437097, -825198.5, 68069.28, 0.0, 10.001241, 9.998639 
2.705062e+3, 2.188527e+2, -759739.1, -954681.44, 72334.48, 0.08372821, 0.40715438, -735831.1, 59456.89, 0.0, 10.001199, 9.998578 
2.7049875e+3, 2.2885156e+2, -709517.94, -841265.06, 77786.94, 0.07909228, 0.45020667, -673459.44, 23840.602, 0.0, 10.000705, 9.998921 
2.704913e+3, 2.3885074e+2, -704767.5, -803349.06, 77867.445, 0.07094544, 0.5073442, -661901.25, -62591.9, 0.0, 10.00013, 9.998787 
2.7048388e+3, 2.4884933e+2, -631711.1, -690804.8, 71068.86, 0.08471183, 0.5086859, -584291.75, -82967.016, 0.0, 9.999843, 9.999025 
2.7047643e+3, 2.5884792e+2, -571943.06, -611826.56, 73091.01, 0.09701593, 0.49676767, -516122.25, -112782.33, 0.0, 9.999582, 9.999021 
2.7046895e+3, 2.6884705e+2, -530930.56, -490520.47, 60670.016, 0.06303683, 0.5098298, -446779.5, -141430.5, 0.0, 9.99897, 9.999476 
2.7046144e+3, 2.7884635e+2, -540878.9, -461760.28, 55409.414, 0.032456882, 0.5264354, -433237.7, -225882.03, 0.0, 9.998302, 9.999323 
2.70454e+3, 2.8884542e+2, -471541.2, -348087.47, 28877.447, 0.0588161, 0.5197901, -341666.6, -232300.17, 0.0, 9.997974, 9.99959 
2.7044645e+3, 2.9884475e+2, -401170.5, -232549.86, 45188.457, 0.06403269, 0.51764655, -221203.36, -209828.72, 0.0, 9.997652, 9.9998665 
2.70439e+3, 3.0884558e+2, -395930.0, -78920.96, 30613.135, 0.09026081, 0.576614, -75991.76, -75991.76, 0.0, 9.996807, 10.000995 
2.704314e+3, 3.1884587e+2, -480958.47, -88918.39, -17773.754, -0.00600522, 0.54972917, -88114.234, -88114.234, 0.0, 9.996085, 10.001276 
2.715741e+3, 1.28947e+2, -1259240.6, -1643037.4, -18477.658, -0.032887608, 0.5157719, -1258353.1, 418011.47, 0.008382066, 10.0038, 9.998664 
2.7156648e+3, 1.3894413e+2, -1292009.4, -1631930.8, -13781.03, -0.022574374, 0.39638725, -1291451.6, 286938.38, 0.0049886825, 10.002987, 9.998458 
2.7155888e+3, 1.4894244e+2, -1228682.3, -1531698.9, 26644.498, -0.00310686, 0.4074427, -1226357.1, 254048.98, 0.0021987662, 10.0026655, 9.998625 
2.7155137e+3, 1.5894109e+2, -1183996.8, -1501063.1, 27044.361, 0.035429884, 0.44598404, -1181706.6, 200712.98, 0.0006109036, 10.002475, 9.998254 
2.715438e+3, 1.68939e+2, -1132910.6, -1438521.4, 35513.84, 0.03923547, 0.45765364, -1128838.0, 155602.36, 0.00008038522, 10.002212, 9.998135 
2.7153626e+3, 1.7893682e+2, -1076213.9, -1360749.3, 26194.48, 0.031721134, 0.45768294, -1073822.5, 112639.305, 0.0000019955633, 10.00193, 9.998132 
2.7152872e+3, 1.889345e+2, -994572.9, -1222297.5, 45472.555, 0.052474625, 0.41929623, -985828.6, 102655.484, 0.0, 10.001612, 9.998563 
2.7152127e+3, 1.989324e+2, -950133.5, -1165608.5, 55540.75, 0.07663921, 0.38265508, -936659.8, 53844.703, 0.0, 10.001309, 9.9984255 
2.7151373e+3, 2.0893116e+2, -846289.2, -1040588.06, 69357.4, 0.058235552, 0.4405407, -824071.7, 68446.32, 0.0, 10.001246, 9.998639 
2.7150625e+3, 2.189302e+2, -759471.6, -955817.9, 63510.574, 0.034267075, 0.5101412, -740719.3, 53810.164, 0.0, 10.001204, 9.9985695 
2.7149877e+3, 2.2892843e+2, -711182.94, -846391.3, 54776.22, 0.053469513, 0.49106956, -691777.0, 4770.621, 0.0, 10.000709, 9.998886 
2.7149132e+3, 2.3892666e+2, -707003.8, -808298.06, 60814.65, 0.08156349, 0.4582862, -678508.3, -79942.77, 0.0, 10.000128, 9.998755 
2.7148384e+3, 2.4892557e+2, -634215.7, -697286.94, 62772.46, 0.089273274, 0.49417782, -595502.6, -94924.57, 0.0, 9.999845, 9.998981 
2.7147636e+3, 2.5892472e+2, -573622.2, -618671.25, 57268.85, 0.08427734, 0.54046804, -534607.5, -132019.22, 0.0, 9.999593, 9.99897 
2.714688e+3, 2.6892346e+2, -536984.0, -504174.9, 32988.81, 0.046682917, 0.5267052, -483736.94, -179136.03, 0.0, 9.998971, 9.999384 
2.7146125e+3, 2.789223e+2, -544837.25, -468011.63, 35487.8, 0.02545069, 0.5023261, -454127.88, -247515.34, 0.0, 9.99829, 9.999289 
2.714538e+3, 2.889218e+2, -469134.9, -343852.34, 19535.867, 0.101583816, 0.53793913, -340876.72, -232258.03, 0.0, 9.997974, 9.999621 
2.7144623e+3, 2.989216e+2, -409901.03, -254839.69, 23964.904, 0.120706975, 0.58384466, -251220.38, -240598.52, 0.0, 9.997666, 9.999708 
2.7143845e+3, 3.089207e+2, -437728.06, -164855.94, -7114.8066, -0.11097568, 0.512022, -164670.55, -164670.55, 0.0, 9.9967985, 10.000411 
2.7143112e+3, 3.1892127e+2, -469474.16, -54749.098, -11173.333, 0.122821614, 0.558049, -54448.29, -54448.29, 0.0, 9.996043, 10.001529 
2.7257445e+3, 1.2902345e+2, -1316951.3, -1657140.1, 6400.8887, -0.022884594, 0.5081784, -1316830.9, 358784.5, 0.006412571, 10.003338, 9.998787 
2.7256674e+3, 1.3902074e+2, -1302404.5, -1626860.8, 13050.265, -0.014196828, 0.39426488, -1301880.5, 275758.28, 0.0037449705, 10.002872, 9.998546 
2.7255914e+3, 1.4901908e+2, -1246795.4, -1537741.0, 50741.09, 0.0050403057, 0.4039402, -1238200.0, 241454.72, 0.0016017439, 10.002532, 9.998645 
2.725516e+3, 1.590177e+2, -1216918.6, -1513799.5, 38106.758, 0.044832822, 0.44027042, -1212105.4, 169562.9, 0.0004257093, 10.002239, 9.998278 
2.72544e+3, 1.6901566e+2, -1167955.4, -1453537.3, 57011.758, 0.04422781, 0.45482585, -1156994.5, 126694.34, 0.000051505755, 10.001967, 9.998147 
2.725364e+3, 1.7901357e+2, -1103460.8, -1369347.1, 63498.344, 0.030224552, 0.45992786, -1089074.6, 96635.53, 0.0000010805744, 10.001727, 9.998169 
2.7252886e+3, 1.890113e+2, -986705.44, -1211438.9, 77579.94, 0.045446638, 0.4235291, -962525.75, 125205.98, 0.0, 10.001639, 9.998621 
2.7252138e+3, 1.9900921e+2, -910230.2, -1139684.8, 74773.96, 0.066730104, 0.38573846, -888014.06, 101737.52, 0.0, 10.00156, 9.998479 
2.7251384e+3, 2.0900802e+2, -856471.06, -1042746.3, 86037.43, 0.055271536, 0.44339755, -822813.4, 68951.52, 0.0, 10.001169, 9.998659 
2.7250633e+3, 2.190071e+2, -824658.6, -981790.56, 80473.24, 0.038092956, 0.51558566, -790758.8, 3017.2605, 0.0, 10.000736, 9.998614 
2.7249882e+3, 2.2900538e+2, -723062.3, -844223.25, 75108.94, 0.051297773, 0.49548146, -687147.44, 8646.203, 0.0, 10.000598, 9.998953 
2.7249128e+3, 2.3900363e+2, -654281.7, -779813.8, 86528.41, 0.07264176, 0.45862702, -610151.8, -12340.387, 0.0, 10.000481, 9.998778 
2.724838e+3, 2.4900249e+2, -622080.2, -697895.25, 86783.24, 0.08175136, 0.49465433, -565286.56, -65462.137, 0.0, 9.999961, 9.998919 
2.7247626e+3, 2.590016e+2, -609474.2, -638819.8, 77783.35, 0.07997452, 0.5435553, -544991.8, -143156.66, 0.0, 9.999364, 9.9989395 
2.724687e+3, 2.6900035e+2, -540638.06, -505298.47, 54696.65, 0.04565656, 0.53305215, -465488.3, -161640.52, 0.0, 9.998949, 9.999384 
2.7246106e+3, 2.789992e+2, -507722.97, -450822.94, 66062.53, 0.028205305, 0.51064306, -407344.78, -201485.28, 0.0, 9.998554, 9.999275 
2.7245358e+3, 2.889987e+2, -454164.28, -342815.94, 49588.54, 0.10418898, 0.5492008, -323933.84, -216068.11, 0.0, 9.99811, 9.99956 
2.7244598e+3, 2.9899845e+2, -421151.84, -269521.38, 41112.594, 0.11916725, 0.5979948, -259091.64, -249222.44, 0.0, 9.997634, 9.99962 
2.7243808e+3, 3.0899712e+2, -417929.34, -170410.17, 22279.68, -0.13422446, 0.4979026, -168420.72, -168420.72, 0.0, 9.9970045, 10.00027 
2.7243072e+3, 3.1899774e+2, -437406.66, -25707.158, 42319.24, 0.1428624, 0.55966586, -21402.115, -21402.115, 0.0, 9.996213, 10.001643 
2.7357477e+3, 1.2909997e+2, -1308290.0, -1644006.9, -11358.1, -0.017980594, 0.44276366, -1307906.1, 366958.28, 0.0047233277, 10.003351, 9.998872 
2.7356705e+3, 1.3909832e+2, -1301333.0, -1628777.8, -1992.154, 0.018248377, 0.4279912, -1301320.9, 275557.03, 0.002695766, 10.002885, 9.9985285 
2.7355936e+3, 1.4909643e+2, -1257660.3, -1562854.8, 40130.707, 0.017286329, 0.4293954, -1252471.6, 226424.61, 0.0011116491, 10.002539, 9.998471 
2.7355176e+3, 1.5909459e+2, -1217645.0, -1515629.5, 28284.477, 0.029632151, 0.4320269, -1214984.1, 165930.7, 0.00027898268, 10.002237, 9.998268 
2.7354413e+3, 1.6909237e+2, -1152065.9, -1422286.0, 47712.63, 0.040700477, 0.41394803, -1143888.8, 139047.86, 0.000029933104, 10.001972, 9.998362 
2.7353653e+3, 1.7909025e+2, -1095345.0, -1355455.0, 56906.535, 0.04185908, 0.3970361, -1083440.0, 101517.63, 0.00000046990914, 10.001737, 9.998261 
2.73529e+3, 1.8908861e+2, -993924.44, -1228146.6, 75881.45, 0.025892513, 0.42723733, -971489.8, 115484.08, 0.0, 10.001643, 9.998506 
2.7352142e+3, 1.9908713e+2, -913785.3, -1147536.8, 66972.5, 0.015267996, 0.4606019, -895956.75, 93032.0, 0.0, 10.001559, 9.998427 
2.735139e+3, 2.0908521e+2, -853537.9, -1037965.8, 68812.07, 0.053724185, 0.4435549, -830693.1, 60315.59, 0.0, 10.001172, 9.9986925 
2.7350643e+3, 2.1908338e+2, -817723.94, -968562.0, 69353.96, 0.093790814, 0.42337105, -790683.2, 2344.4617, 0.0, 10.000738, 9.998706 
2.7349886e+3, 2.2908244e+2, -712056.75, -823282.6, 72873.07, 0.07132302, 0.46489948, -676000.25, 19037.824, 0.0, 10.000603, 9.999095 
2.734913e+3, 2.3908165e+2, -648764.44, -771398.3, 75486.66, 0.04196557, 0.51335734, -612829.1, -15782.549, 0.0, 10.000491, 9.998833 
2.7348375e+3, 2.4908008e+2, -628002.4, -711643.8, 62723.12, 0.061351858, 0.51047033, -594436.4, -95372.46, 0.0, 9.999964, 9.998825 
2.7347618e+3, 2.5907853e+2, -611741.1, -642419.0, 57911.766, 0.083754204, 0.50096947, -567171.3, -166090.17, 0.0, 9.999356, 9.99892 
2.7346855e+3, 2.6907772e+2, -535018.4, -493530.56, 40547.582, 0.06190458, 0.5285221, -468728.7, -165639.08, 0.0, 9.998945, 9.999468 
2.7346092e+3, 2.7907714e+2, -507343.7, -452567.06, 50764.84, 0.043360725, 0.55720556, -422273.6, -217177.73, 0.0, 9.998562, 9.999262 
2.734533e+3, 2.8907606e+2, -467138.4, -370654.8, 31328.492, 0.05643638, 0.55031836, -361374.9, -254266.97, 0.0, 9.99811, 9.999372 
2.7344564e+3, 2.9907513e+2, -423206.94, -271752.75, 20268.586, 0.042163428, 0.5481844, -269087.2, -259969.16, 0.0, 9.997622, 9.999614 
2.7343798e+3, 3.0907512e+2, -394322.53, -120990.08, -1919.7422, 0.08161499, 0.5539229, -120976.6, -120976.6, 0.0, 9.997, 10.000613 
2.734302e+3, 3.1907523e+2, -444222.28, -47492.734, -22407.479, 0.033745445, 0.5416556, -46231.164, -46231.164, 0.0, 9.996227, 10.001495 
2.7457508e+3, 1.291775e+2, -1317608.4, -1641144.5, 6981.96, 0.003535333, 0.42854455, -1317457.9, 356645.9, 0.003322644, 10.003253, 9.998939 
2.745673e+3, 1.39176e+2, -1314756.0, -1631192.8, 18007.33, 0.020918682, 0.42350975, -1313734.5, 262381.5, 0.0018435133, 10.002776, 9.998563 
2.745596e+3, 1.4917411e+2, -1284153.9, -1578781.4, 70105.8, 0.02082033, 0.42620346, -1268323.0, 209811.61, 0.00072674, 10.002373, 9.99844 
2.7455196e+3, 1.591722e+2, -1250103.0, -1532076.5, 67647.48, 0.03731504, 0.42714274, -1234713.8, 145440.03, 0.00016885014, 10.002022, 9.998257 
2.745443e+3, 1.6916995e+2, -1165130.0, -1427155.0, 81435.68, 0.042678103, 0.40587074, -1141882.9, 140293.16, 0.000015330175, 10.001881, 9.99837 
2.745367e+3, 1.791678e+2, -1086093.8, -1345581.5, 78580.71, 0.03762823, 0.38581395, -1064152.4, 120044.75, 0.00000014082715, 10.001782, 9.998304 
2.745291e+3, 1.8916628e+2, -1004876.9, -1226367.1, 104503.53, 0.022870554, 0.42109475, -963354.25, 122858.15, 0.0, 10.001543, 9.998565 
2.7452156e+3, 1.9916491e+2, -950639.9, -1159286.6, 104163.87, 0.0142650055, 0.46208504, -907540.44, 80685.56, 0.0, 10.001284, 9.998478 
2.7451402e+3, 2.0916295e+2, -860882.8, -1038039.3, 104426.87, 0.05474359, 0.4378342, -812526.5, 77719.734, 0.0, 10.001111, 9.998719 
2.7450648e+3, 2.1916105e+2, -786926.5, -951288.94, 103888.484, 0.09772336, 0.4054553, -736644.25, 55621.844, 0.0, 10.000944, 9.998723 
2.744989e+3, 2.2916009e+2, -713795.94, -826636.44, 98306.46, 0.072886065, 0.4496361, -656869.8, 37406.66, 0.0, 10.000607, 9.999068 
2.7449128e+3, 2.3915936e+2, -684426.25, -785068.9, 86090.5, 0.03933566, 0.50591373, -635028.9, -38744.39, 0.0, 10.000236, 9.99886 
2.7448368e+3, 2.4915785e+2, -633507.3, -703553.9, 76148.86, 0.053132538, 0.50276047, -584713.6, -86412.516, 0.0, 9.999885, 9.998916 
2.744761e+3, 2.5915635e+2, -586083.56, -625845.56, 84348.98, 0.071968794, 0.49055138, -519304.3, -118986.4, 0.0, 9.99952, 9.998953 
2.7446842e+3, 2.6915562e+2, -517571.28, -493152.38, 60941.08, 0.06396336, 0.5284429, -443209.72, -140883.73, 0.0, 9.999105, 9.999391 
2.7446076e+3, 2.7915505e+2, -496425.22, -453816.84, 58648.453, 0.0580415, 0.56773126, -412723.03, -208390.86, 0.0, 9.998669, 9.999199 
2.7445304e+3, 2.891536e+2, -459626.5, -371966.03, 43023.34, 0.03283657, 0.5321538, -354378.88, -248031.16, 0.0, 9.998187, 9.999322 
2.7444533e+3, 2.991524e+2, -410997.47, -257730.28, 39963.957, -0.009958302, 0.5049034, -247935.73, -239575.17, 0.0, 9.997677, 9.99968 
2.7443776e+3, 3.0915362e+2, -361001.66, -80122.555, 8404.162, 0.18786152, 0.61953926, -79871.32, -79871.32, 0.0, 9.997128, 10.000831 
2.744298e+3, 3.1915298e+2, -377292.97, -60321.813, 4078.3113, 0.02118847, 0.5219419, -60269.348, -60269.348, 0.0, 9.996884, 10.001089 
2.7557543e+3, 1.2925586e+2, -1314434.4, -1635440.1, -11075.17, 0.035564866, 0.4498204, -1314052.8, 359282.25, 0.0022102562, 10.003252, 9.998979 
2.7556753e+3, 1.3925384e+2, -1308532.5, -1621906.4, 1332.7235, -0.00026463415, 0.389848, -1308526.9, 266825.7, 0.0011839501, 10.002787, 9.998623 
2.7555978e+3, 1.4925213e+2, -1276801.6, -1568073.8, 55362.01, 0.017770467, 0.40176645, -1266633.9, 210735.53, 0.0004408729, 10.002389, 9.998507 
2.7555215e+3, 1.592505e+2, -1249257.0, -1535209.3, 57385.07, 0.063335754, 0.42574716, -1238170.8, 141215.1, 0.000092119764, 10.00204, 9.998228 
2.755445e+3, 1.6924834e+2, -1176202.6, -1452348.0, 78333.29, 0.04851444, 0.42557323, -1155529.8, 125877.945, 0.0000067003803, 10.001887, 9.998196 
2.7553684e+3, 1.7924619e+2, -1087287.6, -1347344.9, 73218.78, 0.019150026, 0.41864288, -1068090.1, 115339.23, 0.00000002516068, 10.001776, 9.998297 
2.7552924e+3, 1.892443e+2, -990857.06, -1197653.4, 94590.016, 0.035247006, 0.40456057, -954117.94, 131329.28, 0.0, 10.001542, 9.998763 
2.755217e+3, 1.9924264e+2, -940760.8, -1140202.9, 95568.375, 0.059603978, 0.39528376, -902360.1, 85103.01, 0.0, 10.0012865, 9.998609 
2.755141e+3, 2.0924127e+2, -859888.44, -1037567.8, 98713.75, 0.056613162, 0.4283891, -815924.2, 73553.4, 0.0, 10.001115, 9.998722 
2.755065e+3, 2.1924002e+2, -791711.5, -962684.5, 94766.94, 0.04924428, 0.46295854, -749570.75, 41920.645, 0.0, 10.000947, 9.998645 
2.754989e+3, 2.2923832e+2, -727400.44, -856729.7, 83931.04, 0.056628518, 0.4486485, -686112.56, 7396.5415, 0.0, 10.000611, 9.998861 
2.754913e+3, 2.392367e+2, -684503.9, -785474.94, 72027.945, 0.065852016, 0.43164816, -647030.25, -51504.43, 0.0, 10.000234, 9.99886 
2.7548367e+3, 2.4923581e+2, -614498.7, -664284.4, 62885.336, 0.057120495, 0.47052565, -571758.56, -74222.33, 0.0, 9.999883, 9.999187 
2.7547598e+3, 2.592351e+2, -581014.4, -617225.7, 69959.5, 0.042767383, 0.5170334, -526855.6, -127310.74, 0.0, 9.999526, 9.999011 
2.754683e+3, 2.6923397e+2, -536235.56, -533557.0, 44180.79, 0.04955475, 0.5329506, -490695.2, -189138.2, 0.0, 9.999108, 9.999114 
2.754606e+3, 2.7923283e+2, -505081.9, -472205.13, 40709.188, 0.06874665, 0.5363427, -444740.7, -241171.33, 0.0, 9.998668, 9.999076 
2.7545285e+3, 2.892313e+2, -453737.84, -358501.53, 23394.57, 0.03990437, 0.4909026, -353065.03, -247479.52, 0.0, 9.998179, 9.99942 
2.7544504e+3, 2.9923028e+2, -404485.72, -241704.44, 20029.031, -0.026375398, 0.4685464, -239276.23, -231679.56, 0.0, 9.9976635, 9.999798 
2.754374e+3, 3.0923274e+2, -359031.34, -76529.625, -14085.875, 0.13960135, 0.70053726, -75829.02, -75829.02, 0.0, 9.997124, 10.000859 
2.7542952e+3, 3.192307e+2, -426020.4, -164099.66, 82497.83, 0.070965745, 0.4799838, -140281.13, -140281.13, 0.0, 9.996908, 10.000359 
2.765757e+3, 1.2933433e+2, -1368589.6, -1674887.3, 11020.042, 0.059457052, 0.4329203, -1368193.6, 304371.66, 0.0013721407, 10.002936, 9.998858 
2.765678e+3, 1.393325e+2, -1324155.5, -1634774.9, 14011.954, 0.0064438754, 0.4022769, -1323524.8, 251057.47, 0.0007033293, 10.002705, 9.998572 
2.7656e+3, 1.4933077e+2, -1272456.8, -1562197.8, 64136.047, 0.02088595, 0.41131592, -1258894.6, 217704.67, 0.00024307612, 10.002406, 9.998538 
2.7655232e+3, 1.5932909e+2, -1236209.5, -1522685.3, 66774.086, 0.06714228, 0.42702404, -1221409.9, 157206.14, 0.000043879605, 10.002106, 9.998281 
2.7654463e+3, 1.6932699e+2, -1185921.5, -1450069.9, 102660.5, 0.054097325, 0.42808145, -1150715.1, 129921.75, 0.0000023972784, 10.001794, 9.998254 
2.7653697e+3, 1.793249e+2, -1125161.0, -1362547.5, 110518.75, 0.026090156, 0.4235483, -1081673.9, 100983.8, 0.0000000017471812, 10.001506, 9.998322 
2.7652937e+3, 1.8932289e+2, -1018539.9, -1215526.4, 121088.73, 0.043914255, 0.40034214, -960945.4, 123731.484, 0.0, 10.001375, 9.998719 
2.765218e+3, 1.9932108e+2, -942261.0, -1140208.3, 106245.875, 0.069557935, 0.3801792, -896031.44, 90662.805, 0.0, 10.001278, 9.9986105 
2.7651417e+3, 2.0931986e+2, -858623.94, -1032638.7, 108017.01, 0.052753266, 0.42356655, -806930.4, 81776.914, 0.0, 10.001109, 9.998756 
2.7650654e+3, 2.1931878e+2, -794837.4, -960267.0, 104381.8, 0.030371763, 0.472551, -744370.7, 46348.58, 0.0, 10.000913, 9.998676 
2.764989e+3, 2.2931698e+2, -724076.3, -853607.8, 103483.68, 0.04694446, 0.44933227, -666762.3, 25975.256, 0.0, 10.000632, 9.998871 
2.764913e+3, 2.3931523e+2, -672517.06, -779993.7, 103307.25, 0.06925212, 0.41823402, -609807.1, -15051.541, 0.0, 10.000321, 9.998853 
2.7648363e+3, 2.4931435e+2, -610230.9, -667169.5, 75157.64, 0.05469326, 0.46220347, -558331.2, -61565.25, 0.0, 9.999938, 9.999139 
2.764759e+3, 2.593137e+2, -578964.1, -616360.0, 61154.08, 0.03213654, 0.51737505, -533713.4, -134939.13, 0.0, 9.999544, 9.999005 
2.7646816e+3, 2.693125e+2, -522242.8, -523109.3, 50019.234, 0.043050434, 0.5253004, -472654.97, -171868.2, 0.0, 9.999194, 9.999143 
2.7646044e+3, 2.7931124e+2, -483192.03, -458922.78, 64908.13, 0.06828218, 0.51859164, -405024.72, -202224.95, 0.0, 9.998813, 9.999094 
2.7645266e+3, 2.8930986e+2, -443162.94, -354774.28, 40392.36, 0.039780427, 0.48273462, -339096.4, -234281.23, 0.0, 9.998264, 9.999402 
2.7644476e+3, 2.9930887e+2, -399957.75, -245712.55, 29686.291, -0.027084444, 0.47119394, -240196.34, -233370.7, 0.0, 9.997725, 9.999739 
2.7643707e+3, 3.0931106e+2, -302671.16, -69931.94, -15689.62, 0.12247601, 0.68846774, -68879.016, -68879.016, 0.0, 9.997602, 10.000672 
2.7642918e+3, 3.1930876e+2, -412586.03, -165869.39, 72009.69, 0.05261554, 0.45589522, -146389.78, -146389.78, 0.0, 9.997041, 10.00028 
2.77576e+3, 1.2941301e+2, -1381747.0, -1709180.3, 668.86914, 0.07809014, 0.39069614, -1381745.6, 290047.9, 0.00078054046, 10.002963, 9.998611 
2.7756804e+3, 1.3941185e+2, -1332282.5, -1654721.3, 4368.9736, 0.032494377, 0.44985166, -1332223.3, 241582.72, 0.00037844517, 10.002715, 9.998432 
2.7756023e+3, 1.4940995e+2, -1271117.1, -1563249.6, 52972.16, 0.02710459, 0.44609773, -1261808.4, 214016.47, 0.0001182932, 10.002419, 9.998526 
2.775525e+3, 1.5940796e+2, -1225547.0, -1505481.1, 55465.43, 0.05280389, 0.42978907, -1214957.8, 162886.17, 0.000017562852, 10.002125, 9.998391 
2.775448e+3, 1.6940592e+2, -1166045.8, -1413689.8, 90604.01, 0.060017522, 0.41635293, -1136437.1, 143426.38, 0.0000006379883, 10.001812, 9.998496 
2.775371e+3, 1.7940396e+2, -1120264.3, -1356918.1, 101498.805, 0.054589447, 0.40537998, -1082696.1, 99186.13, 0.00000000000031093438, 10.001523, 9.998353 
2.7752948e+3, 1.8940204e+2, -1035989.7, -1254436.8, 117351.49, 0.0481813, 0.40815154, -984897.44, 99003.83, 0.0, 10.001384, 9.998449 
2.7752188e+3, 1.9940023e+2, -950622.3, -1158348.3, 101611.914, 0.045540992, 0.4132343, -909183.9, 76735.555, 0.0, 10.001279, 9.998487 
2.7751425e+3, 2.0939869e+2, -854558.7, -1025326.0, 101192.4, 0.04402079, 0.42208037, -807540.44, 80394.99, 0.0, 10.001112, 9.998807 
2.7750662e+3, 2.1939729e+2, -784918.94, -940734.8, 95521.13, 0.04122931, 0.4336683, -739563.2, 50386.652, 0.0, 10.000915, 9.998811 
2.7749896e+3, 2.2939612e+2, -708462.6, -822432.7, 92449.914, 0.04315127, 0.45244354, -656846.2, 35115.566, 0.0, 10.000634, 9.999084 
2.7749127e+3, 2.3939501e+2, -674965.5, -786689.8, 90195.34, 0.04694508, 0.47022906, -624734.4, -30761.094, 0.0, 10.000326, 9.998806 
2.7748358e+3, 2.4939348e+2, -638363.5, -726737.75, 59379.656, 0.045444526, 0.47905904, -608534.1, -112543.664, 0.0, 9.99994, 9.998731 
2.7747583e+3, 2.5939202e+2, -583822.1, -626678.1, 46202.555, 0.040498544, 0.48813003, -554320.44, -156313.55, 0.0, 9.999542, 9.998938 
2.7746806e+3, 2.6939118e+2, -497337.0, -471237.4, 36278.715, 0.045077782, 0.5037111, -445732.8, -145717.08, 0.0, 9.999191, 9.999501 
2.7746028e+3, 2.7939042e+2, -472734.25, -437509.5, 47757.773, 0.057093512, 0.51675105, -404220.0, -202196.92, 0.0, 9.998812, 9.999243 
2.7745244e+3, 2.8938928e+2, -455812.16, -380779.03, 17642.703, 0.029471103, 0.5164456, -376837.7, -272801.84, 0.0, 9.998259, 9.999228 
2.7744454e+3, 2.9938832e+2, -419518.16, -286792.72, 16280.556, -0.017311372, 0.52264833, -284824.84, -278777.94, 0.0, 9.997723, 9.999459 
2.7743685e+3, 3.0938816e+2, -330571.0, -132172.92, -17312.334, 0.15657343, 0.545509, -130673.56, -130673.56, 0.0, 9.99762, 10.000238 
2.7742884e+3, 3.1938776e+2, -362832.34, -60967.496, -59915.867, 0.040510923, 0.52193373, -49509.934, -49509.934, 0.0, 9.997017, 10.00102 
2.7857625e+3, 1.2949228e+2, -1386749.5, -1699821.8, -8355.198, 0.06077057, 0.41282663, -1386526.6, 284491.28, 0.0003964739, 10.002879, 9.998715 
2.785683e+3, 1.3949111e+2, -1343022.1, -1651002.3, 15160.649, 0.05621522, 0.46007258, -1342277.6, 230752.61, 0.00017875065, 10.0026045, 9.998509 
2.7856046e+3, 1.4948918e+2, -1270429.0, -1559290.1, 70876.055, 0.04045149, 0.45201418, -1253975.8, 221073.02, 0.00004867195, 10.002411, 9.998556 
2.7855268e+3, 1.5948722e+2, -1206193.0, -1492346.5, 73214.89, 0.048875548, 0.43327674, -1188548.3, 188519.52, 0.000005576068, 10.002244, 9.998423 
2.7854493e+3, 1.6948523e+2, -1137678.6, -1397814.0, 94745.22, 0.05889644, 0.42404923, -1106829.4, 172257.5, 0.000000095714476, 10.002001, 9.998513 
2.7853724e+3, 1.7948334e+2, -1084123.4, -1334616.4, 95343.96, 0.05986296, 0.41814062, -1051962.3, 129142.805, 0.0, 10.001753, 9.998394 
2.785296e+3, 1.8948153e+2, -1015704.9, -1239684.9, 128468.91, 0.050160043, 0.42550224, -957266.0, 125857.08, 0.0, 10.001505, 9.99849 
2.7852198e+3, 1.9947977e+2, -952839.3, -1157800.9, 130671.88, 0.04260911, 0.43370634, -889255.5, 95884.875, 0.0, 10.001261, 9.998499 
2.7851433e+3, 2.09478e+2, -871237.8, -1038298.25, 127021.48, 0.04659165, 0.42556065, -802742.5, 84415.695, 0.0, 10.001022, 9.998759 
2.785067e+3, 2.194764e+2, -804508.06, -951415.9, 111895.0, 0.05041111, 0.41897798, -744111.44, 45063.242, 0.0, 10.00079, 9.9987955 
2.78499e+3, 2.294754e+2, -719922.25, -827316.1, 92397.12, 0.043129507, 0.45489073, -666752.06, 24433.045, 0.0, 10.000557, 9.999086 
2.784913e+3, 2.3947448e+2, -676576.0, -785536.94, 76424.555, 0.036462985, 0.4930098, -637201.06, -44006.36, 0.0, 10.00031, 9.99882 
2.784835e+3, 2.4947277e+2, -635239.7, -723712.4, 67391.12, 0.039443713, 0.48080313, -598863.25, -103649.98, 0.0, 9.999959, 9.99874 
2.7847576e+3, 2.5947106e+2, -576923.94, -618829.3, 80993.44, 0.041039385, 0.46480668, -514216.88, -116985.25, 0.0, 9.999576, 9.998973 
2.7846795e+3, 2.694704e+2, -493241.97, -464214.2, 55340.637, 0.043743897, 0.49552518, -421515.84, -122276.98, 0.0, 9.999202, 9.999541 
2.7846014e+3, 2.7946988e+2, -466156.03, -426981.53, 43300.715, 0.05416754, 0.5277597, -399043.94, -197799.72, 0.0, 9.998828, 9.999306 
2.7845225e+3, 2.8946868e+2, -422454.66, -357055.84, 21632.637, 0.031622782, 0.5169501, -350547.8, -247290.88, 0.0, 9.998459, 9.999292 
2.784443e+3, 2.9946762e+2, -372441.94, -267587.94, 44256.8, -0.011040025, 0.5091468, -251405.5, -246136.89, 0.0, 9.998068, 9.999422 
2.7843657e+3, 3.0946714e+2, -340548.78, -155716.47, 34276.85, 0.16023201, 0.511673, -149564.64, -149564.64, 0.0, 9.997638, 10.000064 
2.7842855e+3, 3.1946725e+2, -299654.9, 17581.514, -53109.773, 0.06426558, 0.5467329, 26236.686, 26236.686, 0.0, 9.997247, 10.001448 
2.7957645e+3, 1.2957205e+2, -1358513.6, -1646475.0, -19416.01, 0.01567359, 0.4802881, -1357210.4, 313028.5, 0.00017317134, 10.002898, 9.999073 
2.7956855e+3, 1.3957034e+2, -1320581.9, -1614155.4, 4952.3027, 0.07938525, 0.44208422, -1320498.4, 251755.73, 0.000070444825, 10.002644, 9.998745 
2.7956066e+3, 1.4956856e+2, -1262332.6, -1548913.1, 63513.523, 0.05960388, 0.43672964, -1248887.3, 225383.63, 0.000015787457, 10.002437, 9.998616 
2.7955288e+3, 1.5956682e+2, -1208479.5, -1498393.4, 64875.203, 0.051248044, 0.4380312, -1194624.3, 181663.42, 0.0000012231325, 10.002247, 9.998381 
2.7954513e+3, 1.695649e+2, -1149522.5, -1424190.4, 85436.195, 0.05061589, 0.44772983, -1125116.0, 153191.13, 0.0000000036433885, 10.002006, 9.998331 
2.795374e+3, 1.7956303e+2, -1079324.4, -1327079.4, 86918.164, 0.044955082, 0.45668045, -1051873.0, 128453.04, 0.0, 10.001761, 9.998443 
2.7952975e+3, 1.895613e+2, -993154.6, -1194880.3, 119436.484, 0.05050001, 0.45094407, -937689.6, 144652.39, 0.0, 10.001512, 9.998796 
2.795221e+3, 1.9955966e+2, -944051.5, -1141027.5, 121194.15, 0.059481505, 0.44266912, -886373.2, 97984.04, 0.0, 10.001265, 9.998612 
2.795144e+3, 2.0955782e+2, -881120.0, -1059857.9, 118141.0, 0.059440162, 0.43396035, -822353.5, 64022.254, 0.0, 10.001024, 9.998611 
2.7950674e+3, 2.1955608e+2, -816600.0, -977110.3, 103177.25, 0.055697337, 0.4291976, -766140.06, 22253.719, 0.0, 10.00079, 9.998621 
2.7949902e+3, 2.2955477e+2, -735268.6, -860632.25, 83553.17, 0.046422046, 0.4566796, -693498.8, -3091.1626, 0.0, 10.000561, 9.9988575 
2.7949128e+3, 2.395536e+2, -670523.7, -773723.7, 64676.246, 0.038482204, 0.4843711, -639385.7, -46965.434, 0.0, 10.000311, 9.998902 
2.794835e+3, 2.4955218e+2, -603961.3, -658875.75, 52942.766, 0.036716167, 0.465982, -571779.3, -77344.68, 0.0, 9.999957, 9.999187 
2.794757e+3, 2.5955084e+2, -569000.4, -602831.06, 67002.23, 0.032509513, 0.44862163, -516811.25, -120363.17, 0.0, 9.999575, 9.9990835 
2.7946785e+3, 2.695502e+2, -517078.6, -513756.72, 40859.383, 0.03800184, 0.5032294, -474524.53, -176068.4, 0.0, 9.999199, 9.999205 
2.7945998e+3, 2.795496e+2, -469137.63, -432767.47, 28397.502, 0.056942295, 0.55300814, -417231.4, -216767.72, 0.0, 9.998823, 9.9992695 
2.794521e+3, 2.8954795e+2, -399559.8, -309501.9, 6767.123, 0.049683005, 0.4752303, -308996.25, -206516.69, 0.0, 9.998457, 9.999621 
2.794441e+3, 2.995467e+2, -356285.53, -234038.14, 28901.72, -0.00093254296, 0.41767785, -227549.6, -223057.95, 0.0, 9.998065, 9.999655 
2.7943626e+3, 3.095484e+2, -336273.06, -142355.63, 16868.396, 0.1087701, 0.6256182, -140899.22, -140899.22, 0.0, 9.997615, 10.00017 
2.794282e+3, 3.1954664e+2, -304388.72, 9967.93, -32042.09, 0.053417284, 0.46370977, 13200.706, 13200.706, 0.0, 9.997243, 10.001395 
2.8057674e+3, 1.2965156e+2, -1344991.4, -1635752.5, -10909.047, 0.029822184, 0.4989635, -1344582.6, 324878.34, 0.00006091152, 10.002975, 9.999109 
2.8056878e+3, 1.3964984e+2, -1311318.4, -1598741.3, -3493.7515, 0.06836959, 0.45347154, -1311276.0, 260200.05, 0.000021139993, 10.002663, 9.998841 
2.8056088e+3, 1.496481e+2, -1263820.6, -1533230.0, 56355.008, 0.056805514, 0.43860966, -1252507.4, 220984.55, 0.000003520904, 10.0023575, 9.99876 
2.8055307e+3, 1.5964642e+2, -1221422.3, -1489248.5, 65587.1, 0.061089475, 0.43203288, -1206223.4, 169284.34, 0.00000010922115, 10.002094, 9.998516 
2.805453e+3, 1.6964464e+2, -1144702.6, -1410122.9, 104994.35, 0.054235954, 0.44458294, -1108191.6, 169334.06, 0.0, 10.001991, 9.998433 
2.8053755e+3, 1.796429e+2, -1053737.8, -1304439.4, 118894.67, 0.04000163, 0.45750532, -1006320.6, 173222.75, 0.0, 10.001896, 9.998532 
2.8052986e+3, 1.896412e+2, -980003.3, -1182856.9, 135890.75, 0.050237775, 0.4468472, -911860.94, 169698.13, 0.0, 10.001581, 9.998844 
2.805222e+3, 1.9963953e+2, -945133.75, -1138341.9, 123537.85, 0.066458695, 0.43303087, -884913.25, 98660.984, 0.0, 10.0012455, 9.998639 
2.805145e+3, 2.0963775e+2, -883702.6, -1063171.5, 126420.945, 0.0654749, 0.43113053, -818406.3, 67185.77, 0.0, 10.001019, 9.99859 
2.805068e+3, 2.1963604e+2, -818044.56, -981983.0, 119541.195, 0.058880895, 0.43347377, -755068.75, 32540.967, 0.0, 10.000801, 9.99858 
2.8049904e+3, 2.2963454e+2, -746436.56, -875192.75, 109620.02, 0.04791309, 0.4486295, -683688.4, 5937.234, 0.0, 10.000527, 9.998773 
2.804913e+3, 2.3963316e+2, -677531.56, -771422.9, 96909.84, 0.03921609, 0.46251148, -616795.2, -25154.98, 0.0, 10.000242, 9.998949 
2.8048345e+3, 2.4963196e+2, -590151.8, -631407.3, 67773.18, 0.03780888, 0.4522037, -539936.7, -46284.633, 0.0, 9.999966, 9.999371 
2.8047562e+3, 2.596309e+2, -548657.4, -585444.75, 64562.35, 0.034457613, 0.44634923, -499919.66, -104257.125, 0.0, 9.999684, 9.999149 
2.8046772e+3, 2.6963022e+2, -498737.16, -515573.13, 50328.92, 0.038826354, 0.5028569, -456127.1, -158455.8, 0.0, 9.999374, 9.999105 
2.8045985e+3, 2.796295e+2, -437138.13, -418066.94, 52620.09, 0.05708599, 0.5498246, -374125.44, -174445.05, 0.0, 9.999051, 9.999258 
2.804519e+3, 2.8962776e+2, -352752.34, -279350.94, 15906.36, 0.056252785, 0.45488435, -276052.22, -174355.16, 0.0, 9.998749, 9.999685 
2.8044388e+3, 2.9962647e+2, -295257.7, -189248.03, 17814.963, 0.009546694, 0.38830462, -186334.31, -182625.6, 0.0, 9.99842, 9.999791 
2.8043598e+3, 3.0962896e+2, -265968.94, -88650.54, 6171.8643, 0.09607714, 0.6591408, -88435.98, -88435.98, 0.0, 9.998013, 10.000345 
2.804279e+3, 3.196266e+2, -253021.9, -7450.392, -16540.805, 0.028695242, 0.43144247, -6341.273, -6341.273, 0.0, 9.997781, 10.001014 
2.8157705e+3, 1.29731e+2, -1357408.3, -1665845.3, -22534.654, 0.08375538, 0.48260906, -1355770.6, 312912.63, 0.000015047588, 10.002994, 9.998894 
2.8156897e+3, 1.397296e+2, -1309842.5, -1599738.4, -13387.45, 0.028688243, 0.48683706, -1309225.5, 261470.34, 0.0000040322857, 10.002679, 9.998827 
2.8156105e+3, 1.497278e+2, -1247125.6, -1503346.8, 46393.926, 0.036869686, 0.45275545, -1238983.9, 233727.88, 0.00000035591447, 10.002376, 9.998959 
2.8155327e+3, 1.5972605e+2, -1198879.6, -1447832.8, 59147.035, 0.07758221, 0.41709232, -1185541.9, 189185.53, 0.0000000005064632, 10.002115, 9.998792 
2.815455e+3, 1.6972451e+2, -1119355.8, -1360764.3, 102523.15, 0.06709176, 0.41952783, -1081691.8, 195050.45, 0.0, 10.002004, 9.998768 
2.8153768e+3, 1.7972298e+2, -1046155.44, -1289621.4, 110851.51, 0.042228665, 0.42666987, -1003246.44, 175510.44, 0.0, 10.001898, 9.998634 
2.8153e+3, 1.8972118e+2, -992828.2, -1210335.1, 122447.79, 0.048774067, 0.41652566, -937811.2, 142962.94, 0.0, 10.001582, 9.998656 
2.815223e+3, 1.9971937e+2, -948548.25, -1146414.9, 113149.37, 0.06322051, 0.4062556, -897179.94, 85611.27, 0.0, 10.001248, 9.998583 
2.8151459e+3, 2.097178e+2, -877281.8, -1051181.3, 118712.17, 0.06499753, 0.41802955, -817082.5, 67724.62, 0.0, 10.001022, 9.998672 
2.8150684e+3, 2.1971628e+2, -812068.44, -970619.44, 110288.836, 0.06100195, 0.43147853, -755519.6, 31302.951, 0.0, 10.000804, 9.998658 
2.8149906e+3, 2.2971468e+2, -742291.2, -867444.94, 98938.414, 0.047657087, 0.42977282, -687801.06, 1037.9803, 0.0, 10.000528, 9.998826 
2.8149128e+3, 2.3971318e+2, -678013.4, -773221.1, 86181.21, 0.036549583, 0.42755714, -627162.56, -36307.945, 0.0, 10.000243, 9.998938 
2.814834e+3, 2.4971211e+2, -598052.06, -648665.1, 57149.86, 0.04242681, 0.44059473, -560856.4, -67990.71, 0.0, 9.999967, 9.999252 
2.8147557e+3, 2.597112e+2, -547152.2, -583144.06, 52796.668, 0.046867438, 0.4591603, -509368.72, -114493.414, 0.0, 9.999685, 9.999166 
2.8146765e+3, 2.6971042e+2, -487263.13, -492347.53, 37814.305, 0.046938725, 0.49233305, -451905.7, -155021.05, 0.0, 9.999375, 9.999266 
2.8145972e+3, 2.797096e+2, -437521.0, -419841.63, 40978.6, 0.05591905, 0.515039, -386760.13, -187865.81, 0.0, 9.999053, 9.999246 
2.8145173e+3, 2.8970808e+2, -370006.78, -316609.4, 3895.6528, 0.047255035, 0.4618239, -316326.7, -215417.53, 0.0, 9.998753, 9.99943 
2.8144372e+3, 2.9970694e+2, -292312.38, -186318.53, 2956.774, 0.011422044, 0.4299564, -186236.11, -183316.28, 0.0, 9.99843, 9.999807 
2.8143582e+3, 3.0970857e+2, -245987.55, -50419.902, -11308.02, 0.14733376, 0.5917118, -49768.227, -49768.227, 0.0, 9.998024, 10.000605 
2.8142762e+3, 3.197074e+2, -307288.53, -125695.99, -11627.677, 0.016690763, 0.48441386, -124954.484, -124954.484, 0.0, 9.997796, 10.000199 
2.825773e+3, 1.2981085e+2, -1390297.4, -1679587.4, 2535.5405, 0.08298019, 0.4666942, -1390275.1, 277625.4, 0.0000019580384, 10.00276, 9.998911 
2.825692e+3, 1.3980958e+2, -1292072.1, -1584746.8, 19231.438, 0.028122064, 0.48383263, -1290813.9, 279098.22, 0.00000028892157, 10.002775, 9.998882 
2.8256127e+3, 1.4980797e+2, -1226171.6, -1483809.8, 71539.1, 0.034499854, 0.45926052, -1207640.1, 264286.38, 0.0000000018666946, 10.002483, 9.999039 
2.8255343e+3, 1.5980637e+2, -1181940.8, -1425295.9, 78235.16, 0.07454118, 0.42930767, -1158959.5, 214981.33, 0.0, 10.002173, 9.998918 
2.8254566e+3, 1.6980483e+2, -1119859.1, -1343824.3, 112488.06, 0.07081349, 0.41979888, -1073116.6, 202838.31, 0.0, 10.001928, 9.998919 
2.8253788e+3, 1.7980331e+2, -1066383.4, -1288632.5, 109815.99, 0.052110206, 0.41463766, -1021276.6, 156692.3, 0.0, 10.001716, 9.998728 
2.825301e+3, 1.898016e+2, -993870.5, -1209690.5, 129291.57, 0.049130816, 0.41020223, -933373.56, 146611.92, 0.0, 10.001574, 9.998663 
2.8252235e+3, 1.997999e+2, -920857.4, -1128841.1, 131192.61, 0.053019185, 0.40717033, -857440.1, 124561.945, 0.0, 10.001424, 9.998617 
2.8251466e+3, 2.0979828e+2, -857761.3, -1036758.9, 135617.9, 0.059039477, 0.41307566, -784772.44, 99245.55, 0.0, 10.001138, 9.9987135 
2.825069e+3, 2.1979672e+2, -804495.2, -961934.2, 124061.195, 0.061919197, 0.4195155, -736286.3, 49747.11, 0.0, 10.000837, 9.9987 
2.824991e+3, 2.2979517e+2, -732289.6, -859631.0, 109774.125, 0.050540477, 0.419187, -669057.56, 18991.936, 0.0, 10.000587, 9.99885 
2.824913e+3, 2.3979372e+2, -666846.6, -769438.0, 93889.53, 0.041190572, 0.42067003, -611154.06, -21089.424, 0.0, 10.00033, 9.9989195 
2.824834e+3, 2.497927e+2, -598528.9, -658243.6, 65469.28, 0.05120689, 0.44331834, -556430.1, -64354.19, 0.0, 10.000007, 9.9991665 
2.824755e+3, 2.597918e+2, -548034.25, -584374.75, 63733.043, 0.058553226, 0.4689668, -499931.9, -105845.89, 0.0, 9.999686, 9.999156 
2.8246757e+3, 2.6979086e+2, -459336.47, -472191.66, 43856.605, 0.05228604, 0.485926, -421438.94, -125342.85, 0.0, 9.99954, 9.999324 
2.8245962e+3, 2.7978995e+2, -385467.97, -391264.63, 39654.668, 0.054553263, 0.49411598, -348605.84, -150499.63, 0.0, 9.999398, 9.999275 
2.824516e+3, 2.897886e+2, -320512.13, -297568.44, 14061.498, 0.038963668, 0.4619166, -290892.88, -190773.53, 0.0, 9.999116, 9.999384 
2.824435e+3, 2.997876e+2, -243611.98, -167484.63, 22027.744, 0.0029923036, 0.44728068, -161570.3, -159441.25, 0.0, 9.998789, 9.999762 
2.8243563e+3, 3.0978864e+2, -205855.47, -40703.58, -18904.32, 0.17837803, 0.5573465, -38567.305, -38567.305, 0.0, 9.998345, 10.000514 
2.824274e+3, 3.1978783e+2, -289191.75, -137349.25, -4028.353, 0.010989214, 0.4957015, -137242.45, -137242.45, 0.0, 9.998012, 10.000012 
2.835775e+3, 1.2989108e+2, -1375958.6, -1652290.4, 4796.89, 0.04639577, 0.4516817, -1375875.4, 291237.88, 0.000000043183437, 10.0027685, 9.999095 
2.8356948e+3, 1.3988985e+2, -1283345.5, -1569706.8, 13645.535, 0.05322316, 0.45453703, -1282696.8, 286427.72, 0.000000000017311715, 10.002787, 9.9989805 
2.835615e+3, 1.4988856e+2, -1225507.6, -1487011.9, 58759.094, 0.04147421, 0.46151042, -1212911.5, 258225.11, 0.0, 10.002501, 9.99901 
2.835536e+3, 1.5988725e+2, -1179523.9, -1425483.4, 67423.23, 0.0550318, 0.46417898, -1162254.1, 210894.67, 0.0, 10.002193, 9.998907 
2.835458e+3, 1.6988558e+2, -1118108.3, -1344398.3, 103633.94, 0.06785378, 0.44080833, -1077819.9, 197344.28, 0.0, 10.001945, 9.998908 
2.83538e+3, 1.7988391e+2, -1058713.3, -1275355.3, 103195.695, 0.06856135, 0.41809294, -1017425.5, 159754.05, 0.0, 10.001725, 9.998816 
2.8353024e+3, 1.8988246e+2, -980930.5, -1184313.3, 124183.836, 0.05035871, 0.42550758, -922114.06, 157079.25, 0.0, 10.001578, 9.9988365 
2.8352246e+3, 1.9988102e+2, -913775.2, -1114595.1, 122578.81, 0.03612613, 0.43365493, -855731.0, 125476.2, 0.0, 10.001424, 9.998716 
2.835147e+3, 2.0987919e+2, -857896.44, -1037267.4, 123749.4, 0.047644056, 0.4151681, -794750.6, 88474.125, 0.0, 10.001137, 9.998712 
2.8350696e+3, 2.198774e+2, -804671.3, -962272.2, 113720.88, 0.059607014, 0.39819875, -745117.3, 40124.88, 0.0, 10.000835, 9.9987 
2.8349912e+3, 2.2987604e+2, -733371.06, -862866.75, 100600.78, 0.056390014, 0.41808832, -678482.75, 8774.022, 0.0, 10.00059, 9.998827 
2.8349128e+3, 2.398748e+2, -668954.06, -774576.6, 82599.78, 0.05413607, 0.44307524, -623725.8, -34455.426, 0.0, 10.000332, 9.998885 
2.834834e+3, 2.4987365e+2, -602719.3, -667284.5, 52284.79, 0.06412606, 0.4602192, -573553.8, -82270.875, 0.0, 10.000007, 9.999105 
2.8347543e+3, 2.598726e+2, -551741.56, -592567.75, 54549.043, 0.06818362, 0.47514075, -513911.28, -120616.46, 0.0, 9.999686, 9.999101 
2.8346747e+3, 2.6987156e+2, -463378.94, -481960.72, 39160.547, 0.054179356, 0.4847126, -432422.22, -137116.33, 0.0, 9.999543, 9.999256 
2.834595e+3, 2.798705e+2, -378657.88, -380061.3, 30883.617, 0.05009254, 0.48720378, -348468.0, -151151.48, 0.0, 9.999408, 9.999349 
2.8345147e+3, 2.8986937e+2, -306301.7, -270191.88, 1879.2618, 0.030813238, 0.45368782, -270094.34, -170766.48, 0.0, 9.999124, 9.999569 
2.8344333e+3, 2.9986846e+2, -254067.47, -189673.83, 7285.452, -0.014215458, 0.44152763, -188859.84, -187523.69, 0.0, 9.998789, 9.999611 
2.8343543e+3, 3.0986917e+2, -245165.08, -121149.89, -38838.227, 0.17550804, 0.56240535, -109990.9, -109990.9, 0.0, 9.998338, 9.999967 
2.8342715e+3, 3.1986773e+2, -247591.05, -47004.195, -1026.6499, 0.005253429, 0.46580347, -46998.94, -46998.94, 0.0, 9.997995, 10.000641 
2.8457773e+3, 1.2997177e+2, -1410673.9, -1662329.5, 23687.506, 0.03454041, 0.4597365, -1408463.6, 257858.47, 0.0, 10.002502, 9.999154 
2.8456974e+3, 1.3997036e+2, -1310670.0, -1579790.1, 18183.361, 0.06811194, 0.44166794, -1309447.0, 258888.0, 0.0, 10.002587, 9.999007 
2.8456172e+3, 1.4996918e+2, -1238459.0, -1497863.3, 55544.88, 0.0481239, 0.4595758, -1227065.9, 243280.77, 0.0, 10.002434, 9.998966 
2.845538e+3, 1.5996799e+2, -1166888.4, -1413789.8, 65468.88, 0.050969817, 0.47645274, -1150602.8, 221755.58, 0.0, 10.002258, 9.998956 
2.8454596e+3, 1.699664e+2, -1091691.6, -1317484.6, 109444.46, 0.065047, 0.4513126, -1047350.4, 227022.1, 0.0, 10.0020685, 9.999031 
2.8453815e+3, 1.7996478e+2, -1034637.2, -1256495.0, 114817.83, 0.068807326, 0.42443496, -985915.4, 190471.5, 0.0, 10.001863, 9.998877 
2.8453037e+3, 1.8996336e+2, -985796.6, -1188635.6, 124567.79, 0.0541207, 0.43185708, -926582.9, 151818.14, 0.0, 10.001556, 9.998816 
2.845226e+3, 1.9996192e+2, -934536.4, -1117107.6, 111271.46, 0.04312868, 0.44083673, -881897.0, 98518.14, 0.0, 10.001251, 9.998781 
2.8451478e+3, 2.099602e+2, -865045.6, -1025568.1, 117838.45, 0.05252684, 0.42247233, -802731.44, 79699.94, 0.0, 10.001025, 9.998844 
2.84507e+3, 2.1995854e+2, -804308.94, -950975.0, 115925.79, 0.06257232, 0.405344, -740468.6, 43978.727, 0.0, 10.0007925, 9.998796 
2.8449917e+3, 2.2995722e+2, -751309.94, -867550.2, 106371.766, 0.064728424, 0.42574933, -688215.8, -1754.417, 0.0, 10.000452, 9.99886 
2.844913e+3, 2.3995602e+2, -695793.56, -787421.9, 95477.375, 0.06789153, 0.45116004, -635707.44, -47232.65, 0.0, 10.000149, 9.998884 
2.8448337e+3, 2.499548e+2, -579093.94, -661792.44, 69405.78, 0.07198751, 0.4647918, -539653.8, -49165.457, 0.0, 10.000196, 9.999051 
2.8447542e+3, 2.5995365e+2, -474763.6, -553952.6, 69397.48, 0.070020586, 0.47683924, -434459.8, -41958.734, 0.0, 10.000211, 9.999111 
2.8446743e+3, 2.6995268e+2, -425220.16, -456617.6, 59324.47, 0.055268794, 0.48948514, -379552.44, -85041.32, 0.0, 9.999778, 9.999317 
2.844594e+3, 2.7995172e+2, -387459.56, -381022.22, 59578.297, 0.051636085, 0.4929204, -324575.72, -128054.83, 0.0, 9.999335, 9.999376 
2.8445137e+3, 2.8995043e+2, -280299.63, -260655.7, 20463.512, 0.038127005, 0.4511299, -247779.08, -149245.81, 0.0, 9.999316, 9.99954 
2.844432e+3, 2.9994953e+2, -186494.44, -166456.75, 6638.094, -0.007975783, 0.43801808, -164457.22, -163915.0, 0.0, 9.999295, 9.999525 
2.844352e+3, 3.0995038e+2, -191420.48, -118939.78, -24422.508, 0.14019643, 0.5914119, -111478.625, -111478.625, 0.0, 9.998812, 9.999752 
2.8442696e+3, 3.1994838e+2, -158524.52, -6640.183, 55113.78, 0.0005126502, 0.45372257, 11251.235, 11251.235, 0.0, 9.998621, 10.000615 
2.8557795e+3, 1.3005282e+2, -1407547.5, -1666242.5, 27468.77, 0.034177605, 0.48514947, -1404663.0, 260864.44, 0.0, 10.002547, 9.999106 
2.8556997e+3, 1.4005113e+2, -1313299.5, -1585220.3, 16276.238, 0.078020446, 0.44159287, -1312328.8, 255214.66, 0.0, 10.002586, 9.998971 
2.8556195e+3, 1.5004985e+2, -1240693.9, -1505135.6, 48902.863, 0.0571847, 0.4543603, -1231940.1, 237616.36, 0.0, 10.002443, 9.998913 
2.85554e+3, 1.6004863e+2, -1157462.8, -1398161.0, 59526.934, 0.057700027, 0.47025564, -1143545.9, 228022.72, 0.0, 10.002274, 9.999056 
2.8554615e+3, 1.7004733e+2, -1074167.1, -1283438.4, 102572.484, 0.05988751, 0.45355862, -1032277.2, 241302.31, 0.0, 10.002077, 9.999262 
2.8553832e+3, 1.8004598e+2, -1032642.44, -1253543.3, 105142.72, 0.054122496, 0.43398058, -990599.25, 184991.77, 0.0, 10.001866, 9.998896 
2.855305e+3, 1.9004427e+2, -999221.94, -1218002.0, 112822.19, 0.060515914, 0.4301562, -951465.44, 126142.984, 0.0, 10.00156, 9.998613 
2.855227e+3, 2.000426e+2, -931514.75, -1111878.0, 101921.33, 0.071137674, 0.43026507, -885605.7, 94019.93, 0.0, 10.001254, 9.9988165 
2.855149e+3, 2.1004133e+2, -847150.1, -989102.6, 110058.09, 0.072476305, 0.43534395, -787166.8, 94470.72, 0.0, 10.001027, 9.999095 
2.8550705e+3, 2.2004011e+2, -791986.1, -925466.56, 105243.9, 0.071183875, 0.4401178, -734104.75, 49544.223, 0.0, 10.000792, 9.998973 
2.854992e+3, 2.3003873e+2, -745551.06, -856060.56, 92628.06, 0.07510709, 0.4412173, -692949.25, -7285.808, 0.0, 10.000453, 9.9989395 
2.854913e+3, 2.4003735e+2, -693910.94, -784089.8, 90647.98, 0.0798205, 0.44396248, -637757.56, -50079.48, 0.0, 10.00015, 9.998907 
2.8548336e+3, 2.500361e+2, -581798.8, -669443.0, 73075.33, 0.07414992, 0.4570305, -540413.06, -50720.867, 0.0, 10.000203, 9.998996 
2.854754e+3, 2.6003498e+2, -467476.9, -542354.8, 61247.04, 0.06311283, 0.47395447, -433132.3, -41427.48, 0.0, 10.000224, 9.999186 
2.854674e+3, 2.7003434e+2, -411261.3, -428549.25, 39991.96, 0.054846305, 0.5011078, -378989.8, -85278.33, 0.0, 9.999781, 9.999509 
2.8545934e+3, 2.800336e+2, -391568.56, -387801.94, 50583.344, 0.060693946, 0.5150453, -339066.84, -143348.19, 0.0, 9.999326, 9.999335 
2.854513e+3, 2.900319e+2, -300417.56, -302738.63, 23669.002, 0.06530482, 0.45488983, -277880.66, -180145.08, 0.0, 9.999316, 9.999252 
2.8544313e+3, 3.0003068e+2, -183840.92, -164933.17, -3699.1135, 0.022881458, 0.43167558, -164235.25, -164235.25, 0.0, 9.999311, 9.999529 
2.85435e+3, 3.1003237e+2, -175995.55, -88959.55, -44833.523, 0.058495145, 0.6518624, -69996.664, -69996.664, 0.0, 9.998819, 9.999955 
2.854268e+3, 3.2002953e+2, -223151.28, -144702.08, 90409.234, 0.0116017135, 0.43962574, -85375.17, -85375.17, 0.0, 9.998635, 9.999661 
2.8657818e+3, 1.3013367e+2, -1382979.1, -1655394.1, 19790.945, 0.035336543, 0.48079902, -1381548.9, 283186.13, 0.0, 10.00272, 9.999098 
2.865702e+3, 1.4013213e+2, -1380589.5, -1609011.6, 20518.613, 0.09102629, 0.45153347, -1378761.0, 187988.75, 0.0, 10.002088, 9.999047 
2.8656214e+3, 1.5013078e+2, -1268706.3, -1503676.6, 71031.89, 0.06325029, 0.4482378, -1248902.4, 219860.42, 0.0, 10.002189, 9.999044 
2.865542e+3, 1.6012953e+2, -1141676.6, -1378798.0, 84230.44, 0.056452624, 0.44799483, -1114802.0, 255972.94, 0.0, 10.002334, 9.999158 
2.8654632e+3, 1.701284e+2, -1076043.3, -1277750.6, 112024.18, 0.06167856, 0.44235802, -1026162.5, 246621.95, 0.0, 10.002038, 9.999318 
2.8653845e+3, 1.8012725e+2, -1050471.3, -1254424.1, 107712.695, 0.059367634, 0.43586612, -1004119.6, 170674.88, 0.0, 10.001712, 9.998964 
2.865306e+3, 1.9012557e+2, -993677.0, -1207214.1, 131409.72, 0.06273788, 0.42857423, -931129.2, 145682.42, 0.0, 10.001565, 9.998684 
2.865228e+3, 2.0012394e+2, -903432.9, -1087192.9, 133688.06, 0.0704177, 0.4245245, -833095.6, 145732.92, 0.0, 10.001402, 9.998913 
2.8651497e+3, 2.1012287e+2, -846238.25, -977211.0, 131962.64, 0.07324063, 0.43984672, -764406.56, 116432.35, 0.0, 10.000987, 9.999194 
2.865071e+3, 2.2012185e+2, -814292.9, -925031.5, 120478.17, 0.07389927, 0.45465183, -737069.75, 45779.11, 0.0, 10.000593, 9.99907 
2.864992e+3, 2.3012045e+2, -726379.4, -838064.0, 109047.45, 0.0747941, 0.4477674, -659707.56, 25155.588, 0.0, 10.000549, 9.999016 
2.8649127e+3, 2.4011907e+2, -634741.7, -742647.1, 109372.57, 0.07759282, 0.44163656, -566738.44, 20139.21, 0.0, 10.000504, 9.99902 
2.8648335e+3, 2.5011796e+2, -580633.3, -656671.0, 102673.51, 0.079753295, 0.45865685, -509165.72, -20275.537, 0.0, 10.000161, 9.999103 
2.864754e+3, 2.6011696e+2, -518681.2, -558351.1, 99426.79, 0.07465103, 0.4794276, -437130.22, -46228.71, 0.0, 9.999836, 9.999263 
2.8646734e+3, 2.701163e+2, -377435.4, -408057.16, 68271.8, 0.055574007, 0.50030035, -322778.72, -29870.297, 0.0, 9.999996, 9.999545 
2.8645927e+3, 2.8011557e+2, -281270.53, -338335.4, 67972.63, 0.055886883, 0.51356256, -236084.73, -41169.07, 0.0, 10.000103, 9.999299 
2.8645122e+3, 2.9011405e+2, -245756.22, -291283.56, 53789.457, 0.088831134, 0.4811464, -210111.94, -113180.4, 0.0, 9.99976, 9.999116 
2.8644308e+3, 3.0011278e+2, -169804.11, -171048.05, 27970.68, 0.06102463, 0.47127375, -142448.48, -142448.48, 0.0, 9.999467, 9.999411 
2.8643483e+3, 3.1011358e+2, -87936.69, -65941.07, -38953.02, -0.000016772186, 0.6147698, -36463.09, -36463.09, 0.0, 9.999512, 9.999779 
2.864267e+3, 3.2011107e+2, -139241.58, -141229.89, 96143.195, 0.029164096, 0.45326564, -44087.4, -44087.4, 0.0, 9.999373, 9.999329 
2.875784e+3, 1.302144e+2, -1383238.9, -1652059.8, -8105.287, 0.038965527, 0.45587692, -1382994.8, 280948.94, 0.0, 10.002702, 9.999129 
2.8757036e+3, 1.4021334e+2, -1363206.5, -1581777.4, 12560.509, 0.10324894, 0.46927884, -1362487.0, 203466.73, 0.0, 10.002125, 9.999217 
2.8756234e+3, 1.50212e+2, -1247540.4, -1463477.6, 79960.125, 0.06424947, 0.44077763, -1221155.6, 246810.28, 0.0, 10.002204, 9.999313 
2.8755438e+3, 1.602107e+2, -1137288.3, -1367482.5, 81450.39, 0.04808355, 0.41297475, -1111383.6, 258594.16, 0.0, 10.002323, 9.999242 
2.8754652e+3, 1.7020965e+2, -1083811.6, -1293279.4, 98735.484, 0.06992377, 0.4204643, -1044608.4, 227378.95, 0.0, 10.002034, 9.999215 
2.8753862e+3, 1.802086e+2, -1042282.3, -1237954.9, 99538.67, 0.08145269, 0.43104634, -1000548.25, 173448.88, 0.0, 10.001713, 9.999077 
2.8753075e+3, 1.9020723e+2, -971953.7, -1161872.9, 127111.02, 0.06021371, 0.42700556, -908248.4, 167762.36, 0.0, 10.001563, 9.998997 
2.8752288e+3, 2.0020586e+2, -894823.25, -1068349.4, 122624.12, 0.043014992, 0.42338407, -831371.44, 146653.06, 0.0, 10.001397, 9.999045 
2.87515e+3, 2.1020475e+2, -849863.94, -985100.9, 114692.8, 0.05582087, 0.43650565, -784340.75, 95695.09, 0.0, 10.000987, 9.999141 
2.8750712e+3, 2.2020368e+2, -812652.4, -922223.0, 112303.445, 0.06859702, 0.44960558, -742483.7, 39563.367, 0.0, 10.000594, 9.999089 
2.8749922e+3, 2.3020239e+2, -721021.06, -828045.9, 109444.52, 0.06347815, 0.4458323, -652707.0, 31353.549, 0.0, 10.000553, 9.9990835 
2.8749132e+3, 2.4020116e+2, -620252.1, -713800.06, 102291.68, 0.061981417, 0.4443307, -554547.7, 31525.871, 0.0, 10.000508, 9.999216 
2.8748336e+3, 2.502004e+2, -562412.94, -618568.44, 87060.96, 0.0889909, 0.4699088, -499014.06, -10931.891, 0.0, 10.000158, 9.999367 
2.8747538e+3, 2.6019964e+2, -515458.34, -549977.8, 97235.53, 0.104393035, 0.49347955, -433962.56, -43871.816, 0.0, 9.999827, 9.999325 
2.8746727e+3, 2.7019858e+2, -386150.03, -428483.94, 77534.29, 0.057159107, 0.48516974, -326945.3, -34843.484, 0.0, 10.000004, 9.999402 
2.8745922e+3, 2.801976e+2, -278817.1, -341650.78, 61854.383, 0.03236367, 0.4834855, -240858.27, -46746.016, 0.0, 10.000136, 9.999262 
2.874512e+3, 2.9019693e+2, -241426.31, -285705.63, 40678.992, 0.104653694, 0.5355379, -217252.42, -121132.18, 0.0, 9.999774, 9.999148 
2.8744304e+3, 3.0019608e+2, -191025.63, -213152.16, 22542.61, 0.10796519, 0.5699541, -176977.83, -176977.83, 0.0, 9.999458, 9.9991255 
2.874347e+3, 3.1019375e+2, -132548.5, -161138.7, -32084.889, -0.022583317, 0.45853338, -111718.25, -111718.25, 0.0, 9.999524, 9.999118 
2.8742662e+3, 3.2019338e+2, -101069.74, -63874.25, 53438.477, 0.041997295, 0.5429244, -25889.781, -25889.781, 0.0, 9.999377, 9.999861 
2.8857863e+3, 1.3029565e+2, -1457711.6, -1680258.1, 12443.027, 0.044547264, 0.44252637, -1457018.1, 206128.28, 0.0, 10.002157, 9.999198 
2.8857055e+3, 1.4029463e+2, -1334425.0, -1556246.4, 36833.96, 0.10720485, 0.45216656, -1328468.6, 236687.55, 0.0, 10.002273, 9.99932 
2.8856254e+3, 1.5029344e+2, -1261172.1, -1458557.4, 97282.44, 0.06797498, 0.42753696, -1221285.9, 245880.94, 0.0, 10.002062, 9.999414 
2.8855458e+3, 1.6029227e+2, -1203730.8, -1391127.4, 87563.26, 0.051099665, 0.40430173, -1169184.5, 199992.95, 0.0, 10.001831, 9.999316 
2.8854665e+3, 1.702913e+2, -1124429.0, -1308502.9, 108979.125, 0.069792576, 0.41564253, -1073822.1, 197364.38, 0.0, 10.001737, 9.999253 
2.8853875e+3, 1.8029033e+2, -1047358.9, -1226818.3, 117123.02, 0.07898915, 0.42801264, -989544.6, 183651.23, 0.0, 10.001621, 9.999196 
2.8853086e+3, 1.9028908e+2, -993230.25, -1150165.5, 137501.88, 0.059820086, 0.41782108, -913381.94, 161826.03, 0.0, 10.001325, 9.999191 
2.8852296e+3, 2.0028783e+2, -942219.3, -1083671.9, 124910.4, 0.045037724, 0.40960693, -869401.9, 107818.46, 0.0, 10.0010395, 9.999113 
2.8851506e+3, 2.1028675e+2, -858145.44, -994445.06, 115452.1, 0.057751004, 0.4287733, -792229.7, 87002.35, 0.0, 10.000954, 9.999093 
2.8850716e+3, 2.2028574e+2, -767852.8, -887453.9, 116221.1, 0.070017256, 0.44846043, -696949.7, 84293.69, 0.0, 10.000846, 9.999207 
2.8849924e+3, 2.3028472e+2, -715145.2, -795955.4, 126019.91, 0.065135494, 0.44877988, -623211.4, 60042.652, 0.0, 10.000469, 9.999343 
2.884913e+3, 2.4028373e+2, -661683.75, -713699.5, 130753.75, 0.06399441, 0.44987324, -554376.4, 30887.824, 0.0, 10.000139, 9.999394 
2.8848332e+3, 2.5028303e+2, -540700.44, -598795.2, 104981.57, 0.087418154, 0.47002825, -460821.78, 26450.586, 0.0, 10.00027, 9.999447 
2.8847533e+3, 2.602823e+2, -426502.1, -492412.25, 106847.0, 0.101440795, 0.48958778, -347643.4, 41637.086, 0.0, 10.000381, 9.99945 
2.8846726e+3, 2.702814e+2, -392161.94, -421512.22, 98948.195, 0.060626004, 0.4852078, -306806.56, -15516.336, 0.0, 9.999926, 9.999485 
2.8845918e+3, 2.8028053e+2, -378227.25, -373627.72, 97385.625, 0.04010196, 0.4847492, -278514.72, -85214.914, 0.0, 9.999389, 9.9994 
2.8845114e+3, 2.9027992e+2, -244612.94, -285272.6, 97889.13, 0.10226717, 0.53442234, -164964.84, -69657.805, 0.0, 9.999749, 9.99916 
2.88443e+3, 3.0027908e+2, -61502.773, -166905.58, 79896.76, 0.097571924, 0.57410383, -18491.43, -18491.43, 0.0, 10.000424, 9.998976 
2.8843465e+3, 3.1027642e+2, -24244.535, -162452.53, 37345.984, -0.020676993, 0.46560988, -14798.644, -14798.644, 0.0, 10.000504, 9.998638 
2.8842652e+3, 3.202761e+2, -26507.262, -3903.7024, 54951.145, 0.03969478, 0.59559846, 40895.84, 40895.84, 0.0, 9.999784, 10.000081 
2.8957883e+3, 1.3037737e+2, -1449253.6, -1667259.1, 19469.629, 0.05022637, 0.43616268, -1447528.5, 214815.63, 0.0, 10.002178, 9.999276 
2.8957075e+3, 1.4037603e+2, -1334363.1, -1552635.1, 36217.15, 0.10392177, 0.4085921, -1328510.6, 235846.31, 0.0, 10.002257, 9.999352 
2.8956273e+3, 1.5037511e+2, -1264822.4, -1465312.4, 88144.45, 0.07392857, 0.41104394, -1231581.5, 234784.39, 0.0, 10.002057, 9.999372 
2.8955474e+3, 1.6037421e+2, -1197937.3, -1380504.1, 82571.45, 0.06344131, 0.41740912, -1166132.5, 202241.8, 0.0, 10.001837, 9.999387 
2.895468e+3, 1.7037335e+2, -1112795.0, -1284721.9, 106162.69, 0.061631147, 0.42417625, -1062156.0, 208226.33, 0.0, 10.001737, 9.999416 
2.8953886e+3, 1.8037242e+2, -1039839.25, -1210613.8, 109225.336, 0.05440773, 0.42620936, -986586.1, 185804.94, 0.0, 10.001617, 9.9993105 
2.8953096e+3, 1.9037111e+2, -987294.6, -1138840.3, 125045.65, 0.061526697, 0.40215895, -916855.5, 157547.94, 0.0, 10.001327, 9.999269 
2.8952307e+3, 2.003698e+2, -941157.1, -1082702.4, 117784.625, 0.07284979, 0.38442183, -874518.0, 101897.96, 0.0, 10.001043, 9.999118 
2.8951517e+3, 2.1036886e+2, -861185.56, -1001045.1, 113186.46, 0.077422895, 0.41660085, -798068.94, 80358.54, 0.0, 10.000954, 9.999048 
2.8950724e+3, 2.20368e+2, -753668.94, -857452.44, 106991.52, 0.07874523, 0.4505032, -686649.25, 93788.53, 0.0, 10.000843, 9.999414 
2.8949925e+3, 2.303674e+2, -684423.8, -732123.6, 110164.15, 0.07962841, 0.4569217, -595557.44, 86886.11, 0.0, 10.000467, 9.999783 
2.894913e+3, 2.4036679e+2, -652198.25, -693598.44, 127000.7, 0.08098775, 0.45864028, -544221.75, 40227.855, 0.0, 10.000136, 9.999534 
2.8948334e+3, 2.5036582e+2, -548525.0, -616251.56, 112710.086, 0.07311191, 0.45830646, -464701.03, 21759.842, 0.0, 10.000276, 9.999326 
2.894753e+3, 2.6036495e+2, -411233.22, -464382.72, 101398.625, 0.06198854, 0.46580493, -332984.78, 55486.273, 0.0, 10.000397, 9.999636 
2.8946725e+3, 2.703648e+2, -370214.1, -375597.1, 73798.914, 0.066631675, 0.5032822, -299057.6, -8584.297, 0.0, 9.999921, 9.9998045 
2.8945914e+3, 2.803644e+2, -358377.22, -326685.34, 88163.29, 0.08455591, 0.52117753, -252955.28, -60477.746, 0.0, 9.999361, 9.999738 
2.8945106e+3, 2.9036292e+2, -245692.14, -283235.8, 130754.0, 0.07792369, 0.46254027, -132369.36, -37876.87, 0.0, 9.999735, 9.999179 
2.8944293e+3, 3.0036166e+2, -55739.676, -158576.23, 98751.32, 0.011503143, 0.4572178, 4177.8584, 4177.8584, 0.0, 10.000443, 9.9990225 
2.8943473e+3, 3.10362e+2, -38431.19, -195373.33, 37224.32, 0.009306365, 0.65950036, -30049.748, -30049.748, 0.0, 10.000521, 9.998403 
2.8942645e+3, 3.2035884e+2, -50902.33, -41973.656, -30273.898, 0.0062552313, 0.5436778, -15836.698, -15836.698, 0.0, 9.999733, 9.999845 
2.9057902e+3, 1.3045913e+2, -1469675.5, -1667135.3, 25611.281, 0.06846846, 0.41971502, -1466407.8, 195134.25, 0.0, 10.001994, 9.999366 
2.9057088e+3, 1.4045799e+2, -1403158.6, -1578088.1, 45050.29, 0.08114683, 0.40155566, -1392238.4, 171315.06, 0.0, 10.001751, 9.999422 
2.9056287e+3, 1.5045723e+2, -1310481.8, -1483793.9, 99746.086, 0.06633961, 0.41553086, -1265007.0, 200553.95, 0.0, 10.001728, 9.999403 
2.9055488e+3, 1.6045642e+2, -1218778.8, -1389545.1, 96416.57, 0.0738912, 0.4296186, -1175373.5, 192195.0, 0.0, 10.001689, 9.999396 
2.9054692e+3, 1.7045543e+2, -1145641.0, -1300728.1, 109392.05, 0.06268201, 0.42395103, -1089096.5, 180481.45, 0.0, 10.001512, 9.999415 
2.9053897e+3, 1.804544e+2, -1079134.8, -1226983.3, 102270.61, 0.044675592, 0.4156429, -1026868.4, 144719.27, 0.0, 10.001334, 9.999334 
2.9053107e+3, 1.9045326e+2, -991918.75, -1135550.5, 114379.13, 0.055350073, 0.40438342, -928678.7, 144919.89, 0.0, 10.001269, 9.999319 
2.9052314e+3, 2.0045216e+2, -917312.6, -1060616.9, 106682.016, 0.07189547, 0.39831257, -860453.75, 115155.82, 0.0, 10.00116, 9.999213 
2.905152e+3, 2.1045125e+2, -875358.7, -991126.4, 112977.07, 0.07630241, 0.4235109, -806300.2, 71320.15, 0.0, 10.000783, 9.999199 
2.9050726e+3, 2.2045048e+2, -807973.6, -872484.8, 115017.266, 0.07717298, 0.4506192, -720774.7, 58855.22, 0.0, 10.000421, 9.999515 
2.9049927e+3, 2.3045e+2, -698589.6, -729213.75, 95262.49, 0.07990078, 0.46107027, -617416.44, 64218.223, 0.0, 10.000328, 9.99987 
2.9049128e+3, 2.4044953e+2, -625019.06, -654226.56, 97731.445, 0.08305042, 0.46620473, -540806.3, 42832.863, 0.0, 10.000211, 9.999768 
2.9048327e+3, 2.5044885e+2, -585560.6, -587468.56, 117810.36, 0.07026274, 0.45717943, -468700.4, 16946.758, 0.0, 9.999822, 9.999741 
2.9047528e+3, 2.604483e+2, -524157.47, -486586.7, 138031.13, 0.05342432, 0.45787537, -366068.53, 21585.3, 0.0, 9.999483, 9.999923 
2.9046717e+3, 2.7044845e+2, -381337.16, -353028.66, 99961.945, 0.0648477, 0.50800854, -266223.8, 23429.277, 0.0, 9.999727, 10.00005 
2.9045907e+3, 2.8044847e+2, -245002.45, -224183.3, 109544.03, 0.09589613, 0.53352183, -124555.37, 67098.59, 0.0, 9.999943, 10.000155 
2.904509e+3, 2.9044724e+2, -414097.63, -258745.8, 153521.27, 0.07241087, 0.43286848, -164368.45, -70704.195, 0.0, 9.9981365, 10.000109 
2.9157922e+3, 1.3054101e+2, -1466503.3, -1653875.5, 14116.202, 0.09381866, 0.39890805, -1465445.8, 195293.86, 0.0, 10.001966, 9.999471 
2.91571e+3, 1.405404e+2, -1391212.1, -1560770.6, 41027.05, 0.042755157, 0.4233375, -1381806.8, 180939.53, 0.0, 10.001783, 9.999525 
2.9156297e+3, 1.505397e+2, -1301191.5, -1469288.3, 97850.0, 0.04805222, 0.43600222, -1256248.6, 208504.22, 0.0, 10.001747, 9.999494 
2.9155502e+3, 1.6053887e+2, -1221853.9, -1396472.8, 90818.59, 0.082243554, 0.44080475, -1183183.4, 183577.28, 0.0, 10.00169, 9.999348 
2.9154706e+3, 1.7053756e+2, -1154919.9, -1321829.8, 101131.17, 0.07147853, 0.41688612, -1107255.6, 161517.63, 0.0, 10.001518, 9.999269 
2.9153907e+3, 1.8053631e+2, -1081770.0, -1234147.4, 98197.29, 0.04724649, 0.39836094, -1033671.06, 137114.42, 0.0, 10.001341, 9.999283 
2.9153112e+3, 1.9053553e+2, -990377.2, -1131399.6, 112117.45, 0.041616708, 0.42267162, -928441.6, 144351.92, 0.0, 10.001265, 9.999351 
2.9152322e+3, 2.0053482e+2, -906090.9, -1034873.6, 97180.945, 0.04484338, 0.447575, -853904.44, 120896.766, 0.0, 10.001148, 9.999396 
2.9151523e+3, 2.1053396e+2, -852410.6, -943358.6, 96875.3, 0.055470407, 0.44870782, -790867.3, 85943.36, 0.0, 10.000781, 9.999528 
2.9150724e+3, 2.2053315e+2, -809088.56, -875401.44, 106442.83, 0.06324445, 0.4495789, -730757.7, 48062.105, 0.0, 10.0004225, 9.999495 
2.9149926e+3, 2.3053245e+2, -716948.5, -767793.3, 92559.38, 0.065373965, 0.46092653, -646383.75, 34443.84, 0.0, 10.000329, 9.999605 
2.9149127e+3, 2.4053197e+2, -600156.1, -603454.8, 87690.93, 0.070652544, 0.47119033, -514099.03, 68734.17, 0.0, 10.000214, 10.000116 
2.9148325e+3, 2.5053212e+2, -518192.94, -446173.2, 100564.99, 0.080254436, 0.46737993, -375365.34, 109465.66, 0.0, 9.999814, 10.000715 
2.914752e+3, 2.6053235e+2, -501132.4, -435646.75, 136193.23, 0.076069936, 0.46697265, -328315.7, 58512.598, 0.0, 9.999468, 10.00028 
2.914671e+3, 2.7053243e+2, -373514.03, -337394.03, 113359.555, 0.05118617, 0.4971742, -240664.88, 48165.05, 0.0, 9.99973, 10.000156 
2.91459e+3, 2.8053257e+2, -211218.45, -160109.16, 99787.31, 0.061823953, 0.5189068, -82656.3, 108173.75, 0.0, 9.999969, 10.000584 
2.914507e+3, 2.9053292e+2, -291840.78, -7373.5713, 28796.373, 0.09394022, 0.45826924, -4487.8135, 88334.33, 0.0, 9.998135, 10.001843 
2.9257935e+3, 1.3062315e+2, -1556761.3, -1703505.5, 21181.68, 0.10110045, 0.4077727, -1553765.0, 106169.93, 0.0, 10.001372, 9.999416 
2.9257116e+3, 1.4062268e+2, -1376090.8, -1561025.3, 30712.414, 0.026530173, 0.4534319, -1371123.8, 190817.14, 0.0, 10.001918, 9.999459 
2.925631e+3, 1.5062174e+2, -1304201.6, -1480474.4, 67415.62, 0.034361906, 0.4475643, -1281374.6, 182575.14, 0.0, 10.001767, 9.999409 
2.9255515e+3, 1.606207e+2, -1243248.9, -1404692.4, 55220.047, 0.07496333, 0.43685564, -1226168.5, 139790.84, 0.0, 10.001532, 9.99937 
2.9254717e+3, 1.7061962e+2, -1154252.3, -1309460.4, 79615.51, 0.0666796, 0.42773196, -1120676.3, 147293.44, 0.0, 10.001468, 9.999379 
2.9253918e+3, 1.8061863e+2, -1076613.0, -1225246.6, 88635.445, 0.045047272, 0.42291117, -1035261.25, 134718.42, 0.0, 10.001345, 9.999344 
2.925312e+3, 1.9061781e+2, -1035873.4, -1149765.0, 101497.31, 0.04096323, 0.44095463, -976438.25, 95549.88, 0.0, 10.000934, 9.999386 
2.9252326e+3, 2.0061707e+2, -984689.2, -1064662.1, 87508.2, 0.044566795, 0.4590575, -928464.44, 45531.7, 0.0, 10.000571, 9.999472 
2.9251528e+3, 2.1061632e+2, -867661.4, -937305.6, 75280.625, 0.054985438, 0.45960808, -819539.2, 56465.316, 0.0, 10.000616, 9.999651 
2.9250726e+3, 2.2061563e+2, -765995.0, -838160.4, 77737.86, 0.0613652, 0.45944175, -716373.94, 61638.32, 0.0, 10.000645, 9.999645 
2.9249924e+3, 2.3061508e+2, -696550.06, -735023.4, 93420.5, 0.053386573, 0.46584502, -620406.25, 59612.164, 0.0, 10.000367, 9.999814 
2.9249123e+3, 2.4061473e+2, -611175.7, -589053.6, 106839.125, 0.054891765, 0.47134602, -492704.47, 89317.805, 0.0, 10.000049, 10.000297 
2.924832e+3, 2.5061512e+2, -509546.3, -414570.4, 69856.0, 0.09603556, 0.46887714, -377589.63, 106428.16, 0.0, 9.99975, 10.000966 
2.9247513e+3, 2.6061565e+2, -487449.1, -395547.22, 72674.76, 0.11267364, 0.47057533, -355514.97, 30497.014, 0.0, 9.999412, 10.000586 
2.92467e+3, 2.7061602e+2, -435632.75, -313444.66, 82581.39, 0.02894449, 0.49109536, -271814.97, 16195.301, 0.0, 9.999064, 10.000646 
2.9245883e+3, 2.806165e+2, -345343.47, -180871.58, 86361.26, 0.004521356, 0.4966442, -143855.61, 46151.387, 0.0, 9.998849, 10.000987 
2.9245064e+3, 2.906173e+2, -33578.152, 151700.38, -80643.7, 0.16109683, 0.44152847, 181883.9, 273877.53, 0.0, 9.999734, 10.002183 
2.9357943e+3, 1.3070543e+2, -1568557.3, -1727595.5, 42342.58, 0.095522635, 0.43588403, -1557986.5, 101142.51, 0.0, 10.001372, 9.99925 
2.935713e+3, 1.4070486e+2, -1392579.1, -1590727.5, 36404.375, 0.027341833, 0.48765987, -1386102.5, 175034.44, 0.0, 10.0019, 9.999264 
2.9356325e+3, 1.5070339e+2, -1322344.5, -1514397.8, 56998.457, 0.023161536, 0.4505388, -1306702.3, 156448.67, 0.0, 10.001751, 9.999184 
2.9355526e+3, 1.6070199e+2, -1239241.5, -1393010.3, 51363.07, 0.05338582, 0.4200884, -1223663.0, 141500.69, 0.0, 10.001516, 9.999457 
2.9354727e+3, 1.7070164e+2, -1133077.0, -1262636.4, 77407.25, 0.049521632, 0.45328426, -1096919.6, 170247.44, 0.0, 10.001454, 9.999707 
2.9353926e+3, 1.8070124e+2, -1067384.5, -1203682.9, 77491.19, 0.038464703, 0.48286015, -1032338.75, 136832.13, 0.0, 10.001334, 9.999497 
2.9353127e+3, 1.9070008e+2, -1032319.25, -1143981.4, 83855.09, 0.051547684, 0.45866507, -987409.1, 83773.38, 0.0, 10.000939, 9.999423 
2.935233e+3, 2.0069896e+2, -984573.9, -1067735.4, 82288.76, 0.06689974, 0.43584597, -933957.0, 39237.11, 0.0, 10.000585, 9.999444 
2.935153e+3, 2.1069834e+2, -871906.1, -946849.6, 78383.33, 0.07320231, 0.45674312, -822498.2, 52703.64, 0.0, 10.000619, 9.999584 
2.9350734e+3, 2.2069792e+2, -743141.7, -789743.1, 73019.26, 0.071884066, 0.47882876, -689795.56, 87411.734, 0.0, 10.000639, 9.99998 
2.9349923e+3, 2.3069787e+2, -648785.25, -635683.1, 80968.95, 0.043525733, 0.47629243, -561000.6, 118206.22, 0.0, 10.000365, 10.000498 
2.9349118e+3, 2.4069789e+2, -612711.3, -592690.4, 95558.305, 0.033625193, 0.46847808, -506619.63, 74586.47, 0.0, 10.000049, 10.000273 
2.9348317e+3, 2.506978e+2, -545548.0, -490627.97, 57957.38, 0.1173709, 0.46186405, -453954.44, 29253.379, 0.0, 9.999755, 10.0004425 
2.934751e+3, 2.6069808e+2, -465126.8, -352401.44, 58290.11, 0.1620951, 0.46831188, -327680.9, 57524.81, 0.0, 9.999425, 10.000876 
2.934668e+3, 2.7069932e+2, -368975.0, -174001.16, 66941.06, -0.0032956807, 0.4905407, -153230.7, 133963.23, 0.0, 9.999057, 10.001608 
2.934586e+3, 2.807002e+2, -317811.38, -125116.5, 91096.43, -0.0870541, 0.46381673, -88869.11, 100315.31, 0.0, 9.998852, 10.001371 
2.9345068e+3, 2.907007e+2, -80324.03, 48063.34, -24049.916, 0.2731218, 0.41456974, 52420.57, 143595.67, 0.0, 9.999768, 10.001451 
2.945795e+3, 1.3078675e+2, -1596105.3, -1721845.1, 6898.286, 0.08148322, 0.45649177, -1595728.0, 62606.156, 0.0, 10.001099, 9.999424 
2.9457143e+3, 1.4078611e+2, -1444560.1, -1596655.0, 7691.298, 0.020309336, 0.48450398, -1444172.1, 116169.77, 0.0, 10.001458, 9.999437 
2.9456335e+3, 1.5078478e+2, -1372417.6, -1521413.3, 35923.188, 0.012212814, 0.4442543, -1364208.8, 98145.34, 0.0, 10.001329, 9.99934 
2.9455534e+3, 1.607835e+2, -1292137.0, -1410329.1, 51626.633, 0.037053745, 0.41019323, -1272762.3, 91603.33, 0.0, 10.001115, 9.999534 
2.9454735e+3, 1.7078324e+2, -1189291.5, -1284623.0, 65811.13, 0.033847347, 0.44757435, -1155697.6, 110670.75, 0.0, 10.001043, 9.999757 
2.9453933e+3, 1.8078294e+2, -1111976.1, -1213916.5, 49826.566, 0.022385068, 0.4809984, -1091667.8, 76703.625, 0.0, 10.000977, 9.999601 
2.9453135e+3, 1.9078188e+2, -1010062.7, -1118033.0, 59442.01, 0.038239043, 0.45324963, -983749.94, 86631.65, 0.0, 10.001022, 9.999564 
2.9452333e+3, 2.0078087e+2, -913080.5, -1020518.94, 66936.305, 0.058942888, 0.42908847, -880973.06, 91418.58, 0.0, 10.001015, 9.999565 
2.9451537e+3, 2.1078047e+2, -862642.9, -931170.1, 74149.48, 0.06888173, 0.46050164, -815223.3, 59173.98, 0.0, 10.0006275, 9.999691 
2.9450732e+3, 2.2078025e+2, -789326.2, -797572.94, 73562.17, 0.07145889, 0.49200204, -719771.94, 56628.85, 0.0, 10.000255, 10.000115 
2.9449925e+3, 2.3078029e+2, -669715.25, -625950.4, 47667.363, 0.051588375, 0.47967613, -595382.7, 83016.734, 0.0, 10.00013, 10.000681 
2.9449117e+3, 2.4078032e+2, -608680.25, -583355.1, 40800.8, 0.04343545, 0.45908222, -553297.1, 27100.89, 0.0, 10.000039, 10.000343 
2.944831e+3, 2.5078025e+2, -495640.0, -469419.5, 39240.695, 0.10107432, 0.45483768, -441156.9, 41242.582, 0.0, 10.000102, 10.000424 
2.9447502e+3, 2.6078066e+2, -367116.6, -296198.72, 53507.613, 0.13352984, 0.4720984, -267467.3, 116928.96, 0.0, 10.0000515, 10.000966 
2.9446673e+3, 2.7078208e+2, -297501.34, -128660.83, 5170.483, 0.017179877, 0.50004494, -128502.64, 157879.7, 0.0, 9.99949, 10.001717 
2.944585e+3, 2.8078273e+2, -273041.5, -123980.01, 324.21973, -0.046029683, 0.44589955, -123979.305, 64395.867, 0.0, 9.999233, 10.001202 
2.9445067e+3, 2.9078338e+2, 41154.133, 78101.96, -67133.38, 0.25274628, 0.44982597, 129256.9, 219622.33, 0.0, 10.00072, 10.0012 
2.9557958e+3, 1.308674e+2, -1570503.4, -1661478.6, 27454.432, 0.058116082, 0.4792924, -1562860.3, 94686.44, 0.0, 10.001069, 9.999851 
2.9557154e+3, 1.4086674e+2, -1419721.8, -1534548.8, 13356.382, 0.00591835, 0.4601193, -1418188.6, 141364.52, 0.0, 10.001414, 9.999885 
2.9556346e+3, 1.5086602e+2, -1344721.8, -1457371.1, 26641.615, 0.002533088, 0.43637282, -1338738.8, 122819.65, 0.0, 10.001301, 9.999794 
2.955554e+3, 1.6086513e+2, -1290398.8, -1402712.9, 45901.92, 0.027670147, 0.4093681, -1274025.8, 89539.86, 0.0, 10.001098, 9.999595 
2.955474e+3, 1.7086445e+2, -1201871.4, -1309497.3, 62977.19, 0.020929262, 0.416716, -1172847.4, 92725.73, 0.0, 10.001038, 9.999589 
2.9553938e+3, 1.8086383e+2, -1107251.6, -1203812.3, 49424.4, -0.001583651, 0.4263101, -1086439.5, 81140.3, 0.0, 10.000975, 9.999672 
2.9553136e+3, 1.9086325e+2, -995389.6, -1085076.8, 61592.418, 0.004528275, 0.42855972, -964045.5, 105539.3, 0.0, 10.001011, 9.999796 
2.9552338e+3, 2.0086285e+2, -897146.8, -983521.06, 58915.535, 0.024739604, 0.43943363, -867284.8, 104303.555, 0.0, 10.000997, 9.999827 
2.9551536e+3, 2.1086273e+2, -844702.2, -892977.0, 56696.496, 0.043250803, 0.4725629, -807218.9, 66371.875, 0.0, 10.000623, 9.999956 
2.955073e+3, 2.2086264e+2, -794613.8, -808785.94, 64759.34, 0.058572773, 0.5002208, -736554.0, 39038.76, 0.0, 10.000255, 10.000039 
2.9549924e+3, 2.3086229e+2, -691877.8, -671419.3, 42954.496, 0.07763561, 0.47524685, -637492.9, 40103.383, 0.0, 10.000127, 10.00037 
2.9549116e+3, 2.4086203e+2, -593378.56, -551981.25, 40220.625, 0.084742755, 0.44157287, -527445.7, 52152.707, 0.0, 10.000039, 10.00056 
2.9548302e+3, 2.5086257e+2, -454751.25, -387521.13, 43100.316, 0.041871917, 0.447509, -366477.16, 115115.26, 0.0, 10.0001135, 10.000982 
2.954749e+3, 2.608635e+2, -373895.38, -315807.75, 40628.766, 0.018110584, 0.48442727, -294909.2, 88673.29, 0.0, 10.000073, 10.000821 
2.9546675e+3, 2.7086437e+2, -354322.53, -248785.3, -15098.907, 0.10021032, 0.5218357, -246667.64, 38907.715, 0.0, 9.999499, 10.000887 
2.9545859e+3, 2.8086394e+2, -323893.94, -231950.03, 17891.545, 0.14347117, 0.445239, -228591.17, -41010.887, 0.0, 9.999243, 10.000455 
2.9545045e+3, 2.9086417e+2, 48803.203, 87243.7, 1060.2025, 0.03573097, 0.451153, 87272.92, 176848.89, 0.0, 10.000757, 10.001243 
2.965796e+3, 1.3094854e+2, -1615370.1, -1665335.5, 46414.727, 0.044884685, 0.51929617, -1587641.6, 69111.07, 0.0, 10.000682, 10.000013 
2.965716e+3, 1.4094798e+2, -1511783.8, -1560112.5, 15501.04, 0.022441242, 0.49437556, -1507239.3, 51518.07, 0.0, 10.000697, 10.000056 
2.9656354e+3, 1.5094756e+2, -1408072.5, -1466477.5, 5634.6523, 0.02220288, 0.48100466, -1407533.8, 53226.063, 0.0, 10.000771, 9.999989 
2.965555e+3, 1.6094705e+2, -1330237.0, -1408968.4, 19013.945, 0.049877275, 0.47289893, -1325885.6, 36877.926, 0.0, 10.000765, 9.999714 
2.9654747e+3, 1.7094629e+2, -1240228.8, -1328999.9, 46725.945, 0.042237286, 0.46945265, -1220167.5, 44604.227, 0.0, 10.000772, 9.999585 
2.9653946e+3, 1.8094555e+2, -1138641.8, -1213061.4, 38400.664, 0.024291417, 0.46519634, -1122380.3, 44399.48, 0.0, 10.000727, 9.999731 
2.9653144e+3, 1.9094494e+2, -1047706.44, -1093860.8, 46011.906, 0.021215461, 0.45180112, -1019308.8, 49475.82, 0.0, 10.000575, 9.9999485 
2.9652345e+3, 2.0094448e+2, -964805.06, -1003037.7, 34019.816, 0.024226842, 0.4445998, -944898.56, 25889.951, 0.0, 10.000473, 9.999948 
2.9651535e+3, 2.1094447e+2, -841035.6, -872792.1, 21615.367, 0.030851113, 0.47242504, -830093.3, 42696.473, 0.0, 10.000565, 10.000124 
2.965073e+3, 2.2094451e+2, -741272.7, -779147.9, 27760.396, 0.042790525, 0.49797612, -726605.6, 48184.98, 0.0, 10.000599, 10.000079 
2.9649925e+3, 2.3094416e+2, -676797.25, -677598.56, 18535.041, 0.07724173, 0.47945768, -658658.56, 18135.93, 0.0, 10.000281, 10.0002575 
2.9649118e+3, 2.4094391e+2, -593887.94, -540292.8, 31113.826, 0.093322895, 0.45138347, -526027.25, 52769.406, 0.0, 9.999976, 10.000675 
2.9648298e+3, 2.5094453e+2, -449761.66, -367795.47, 15899.996, 0.019966962, 0.44857502, -364819.22, 115969.875, 0.0, 10.000065, 10.001145 
2.964748e+3, 2.6094547e+2, -366455.84, -342792.88, -18931.498, -0.017397271, 0.47637063, -332299.8, 50479.38, 0.0, 10.000248, 10.000556 
2.9646674e+3, 2.7094582e+2, -262572.94, -284055.38, -68975.52, 0.14199251, 0.51975673, -203507.3, 81270.61, 0.0, 10.000465, 10.000183 
2.9645863e+3, 2.809449e+2, -166769.6, -205079.64, -3652.8176, 0.21953224, 0.45598367, -166424.4, 20364.32, 0.0, 10.000527, 10.000026 
2.9645038e+3, 2.9094487e+2, -41144.543, 26077.96, 15328.402, -0.08643903, 0.46721622, 29408.232, 118196.07, 0.0, 10.000217, 10.001086 
2.9757968e+3, 1.3102968e+2, -1608803.0, -1665586.0, 26836.77, 0.04451777, 0.5447799, -1598126.8, 57830.742, 0.0, 10.000744, 9.99998 
2.9757172e+3, 1.4102939e+2, -1519051.5, -1564006.3, 9022.275, 0.06441006, 0.55098397, -1517308.4, 40651.0, 0.0, 10.000651, 10.0000515 
2.975636e+3, 1.5102911e+2, -1406596.1, -1463951.1, -1276.8499, 0.06068766, 0.5509904, -1406567.6, 53393.457, 0.0, 10.000774, 10.000004 
2.9755557e+3, 1.6102907e+2, -1314040.4, -1381030.1, 14676.749, 0.08733176, 0.5785515, -1310966.0, 50995.02, 0.0, 10.000791, 9.999893 
2.9754755e+3, 1.7102858e+2, -1232417.9, -1310711.3, 43831.94, 0.08473803, 0.5872793, -1212796.4, 51169.79, 0.0, 10.000764, 9.999716 
2.9753956e+3, 1.8102792e+2, -1138865.9, -1207488.3, 33764.78, 0.08862479, 0.583476, -1125038.5, 40934.152, 0.0, 10.000701, 9.999782 
2.9753152e+3, 1.9102685e+2, -1042145.6, -1081305.1, 40642.645, 0.078317486, 0.514133, -1016612.25, 51369.805, 0.0, 10.000571, 10.000036 
2.9752347e+3, 2.0102572e+2, -963802.3, -1002667.4, 36013.594, 0.05002354, 0.4391323, -942312.94, 27679.348, 0.0, 10.00048, 9.999947 
2.975154e+3, 2.110257e+2, -835342.06, -859755.2, 26323.248, 0.030047163, 0.45754358, -818532.9, 53461.44, 0.0, 10.000559, 10.000217 
2.975073e+3, 2.2102588e+2, -731770.4, -755941.3, 22110.813, 0.025450129, 0.4854344, -718657.7, 55336.34, 0.0, 10.000584, 10.000246 
2.9749918e+3, 2.3102592e+2, -671479.25, -665131.75, 4977.424, 0.04960774, 0.4955325, -662402.3, 13591.173, 0.0, 10.000275, 10.000346 
2.974911e+3, 2.4102604e+2, -595161.06, -542354.44, 27203.766, 0.06628337, 0.49399123, -530847.56, 47144.523, 0.0, 9.999973, 10.000662 
2.97483e+3, 2.5102618e+2, -467883.88, -405271.16, 21808.834, 0.039570782, 0.45935896, -398423.7, 81565.96, 0.0, 10.000064, 10.000889 
2.9747486e+3, 2.610264e+2, -391185.78, -395291.25, -12779.631, 0.03379736, 0.4454079, -380295.06, 1692.1671, 0.0, 10.000253, 10.000194 
2.9746675e+3, 2.710263e+2, -293655.6, -354798.06, -58137.94, 0.13124643, 0.490033, -258541.05, 25449.623, 0.0, 10.000493, 9.999684 
2.974586e+3, 2.810257e+2, -160882.08, -203328.53, -11667.008, 0.15781589, 0.4869655, -157886.63, 28112.5, 0.0, 10.000577, 10.000013 
2.974504e+3, 2.9102582e+2, -82913.92, -52693.61, 8812.752, -0.04944822, 0.5159946, -50311.44, 37686.207, 0.0, 10.000189, 10.000554 
2.9857978e+3, 1.3110796e+2, -1515464.5, -1597534.3, -78579.53, 0.10555877, 0.43602556, -1467850.6, 187339.67, 0.0, 10.001297, 10.000178 
2.9857174e+3, 1.411074e+2, -1584213.6, -1558689.4, -60987.887, 0.10172904, 0.39131382, -1509142.6, 48051.906, 0.0, 10.000059, 10.000367 
2.9856357e+3, 1.5110704e+2, -1453253.0, -1460703.1, -45941.73, -0.016867813, 0.3532374, -1410885.6, 48312.527, 0.0, 10.000355, 10.000223 
2.9855543e+3, 1.6110645e+2, -1347511.0, -1356798.0, -38305.45, -0.08275806, 0.3028515, -1313568.6, 47635.313, 0.0, 10.000398, 10.000243 
2.9854745e+3, 1.7110704e+2, -1275455.4, -1260299.8, 10689.158, -0.047380902, 0.36402366, -1254774.8, 8422.913, 0.0, 10.000173, 10.000341 
2.9853943e+3, 1.8110749e+2, -1185564.6, -1173061.0, 43515.117, -0.041098017, 0.41099826, -1135350.9, 29841.578, 0.0, 10.000145, 10.000281 
2.9853144e+3, 1.9110733e+2, -1043774.5, -1046538.25, 67317.66, -0.022776412, 0.39713767, -977824.5, 89367.766, 0.0, 10.000411, 10.00035 
2.9852346e+3, 2.0110738e+2, -941816.3, -977706.8, 77896.19, 0.01656492, 0.4099064, -879825.06, 89365.76, 0.0, 10.000568, 10.000077 
2.9851538e+3, 2.1110755e+2, -886972.25, -899608.94, 55114.934, 0.02613543, 0.45802608, -837814.7, 33376.707, 0.0, 10.000266, 10.000087 
2.985073e+3, 2.2110774e+2, -828326.94, -807298.3, 34624.77, 0.02821494, 0.49841073, -781626.6, -8435.027, 0.0, 9.999938, 10.000206 
2.984992e+3, 2.3110777e+2, -661498.5, -651277.5, 20099.988, 0.044747967, 0.500782, -635648.5, 39542.477, 0.0, 10.000303, 10.000428 
2.9849106e+3, 2.4110779e+2, -510425.06, -532795.3, 28745.371, 0.053144038, 0.49524367, -490765.38, 86425.016, 0.0, 10.000689, 10.000384 
2.9848295e+3, 2.5110772e+2, -467855.1, -460872.25, -555.251, 0.04569098, 0.4815967, -460828.38, 18363.57, 0.0, 10.0003, 10.000394 
2.9847485e+3, 2.611076e+2, -435411.25, -434236.47, -28766.686, 0.054973632, 0.4764643, -406051.2, -24857.229, 0.0, 10.00002, 10.000041 
2.9846674e+3, 2.711074e+2, -274131.13, -343020.78, -27700.475, 0.10219297, 0.50511795, -264374.56, 18823.861, 0.0, 10.000611, 9.999711 
2.9845858e+3, 2.811072e+2, -96977.336, -165307.5, 16404.475, 0.0793779, 0.5349827, -93243.08, 91959.64, 0.0, 10.000982, 10.000083 
2.9845038e+3, 2.9110706e+2, -155142.19, -150817.88, 17904.64, -0.027795004, 0.5501392, -134945.31, -47739.88, 0.0, 9.999956, 10.000009 
2.9957983e+3, 1.3118733e+2, -1630653.4, -1628860.6, 115634.4, 0.04280906, 0.48353106, -1514119.1, 140292.44, 0.0, 10.000375, 10.000422 
2.995717e+3, 1.4118746e+2, -1560961.9, -1501265.3, 99242.85, 0.07315947, 0.4747797, -1427479.3, 128929.85, 0.0, 9.999991, 10.000809 
2.995637e+3, 1.5118913e+2, -1487753.5, -1454316.8, 95323.16, 0.14494435, 0.6120444, -1374257.0, 84137.086, 0.0, 9.999984, 10.0004635 
2.995556e+3, 1.6118869e+2, -1427177.1, -1356622.0, 57693.633, 0.071777515, 0.5589881, -1324275.1, 36124.0, 0.0, 9.999652, 10.00062 
2.9954758e+3, 1.7118874e+2, -1293474.0, -1171434.4, -474.0144, 0.10925698, 0.49186468, -1171432.6, 90964.82, 0.0, 9.9995985, 10.001243 
2.9953957e+3, 1.8118978e+2, -1212975.4, -1100089.9, -45673.13, 0.10758542, 0.5032892, -1083925.3, 80459.83, 0.0, 9.9995575, 10.00108 
2.995315e+3, 1.9118908e+2, -1038895.5, -992085.8, -19833.842, 0.03013522, 0.3780649, -984812.2, 81576.89, 0.0, 10.000196, 10.000839 
2.995235e+3, 2.011901e+2, -928190.4, -951462.8, -12819.168, 0.046420757, 0.4341967, -922513.8, 45863.77, 0.0, 10.000562, 10.000268 
2.9951537e+3, 2.1118984e+2, -840561.5, -915373.56, -7759.972, 0.02599845, 0.45838994, -839765.06, 30618.254, 0.0, 10.000742, 9.999753 
2.995072e+3, 2.211894e+2, -721597.2, -782181.0, 2384.0103, -0.029850103, 0.4694735, -721503.5, 50886.824, 0.0, 10.000781, 9.999973 
2.9949915e+3, 2.3118915e+2, -630840.6, -626961.75, 474.5738, 0.0065198936, 0.44444826, -626904.5, 47487.313, 0.0, 10.00047, 10.000516 
2.9949108e+3, 2.4118896e+2, -529219.7, -601273.8, 6113.504, 0.04234486, 0.43243787, -528704.6, 47688.81, 0.0, 10.000814, 9.999853 
2.9948297e+3, 2.5118914e+2, -511440.44, -563506.3, -21715.393, 0.0350666, 0.51530164, -503572.47, -25176.705, 0.0, 10.000353, 9.999662 
2.9947484e+3, 2.6118925e+2, -430745.8, -422844.66, -20756.047, 0.041283704, 0.5766055, -405666.56, -25268.016, 0.0, 10.000012, 10.000122 
2.9946673e+3, 2.7118915e+2, -232245.56, -257092.86, 2195.558, 0.04892644, 0.56869084, -232053.06, 50347.145, 0.0, 10.000616, 10.0002985 
2.9945853e+3, 2.8118938e+2, -90448.16, -152126.28, 1972.1012, -0.02590463, 0.5964901, -90385.164, 94013.87, 0.0, 10.00099, 10.000167 
2.9945037e+3, 2.9118973e+2, -187733.88, -206346.97, -20340.422, -0.010463723, 0.6757832, -174672.03, -88271.99, 0.0, 9.999912, 9.999645 
