coord_x,coord_y,stress_xx,stress_yy,tau_xy,velocity_x,velocity_y,stress_1,eps,damage,lx,ly
1.2502322e+0, 1.24917105e+0, -193174.52, -837710.1, -11.516576, -0.0003091047, 0.00018879, -193174.52, -193174.52, 0.0, 2.5004697, 2.4983363 
1.2502341e+0, 3.7475133e+0, -193331.13, -838116.5, -62.27, -0.00012507621, 0.00056652277, -193331.11, -193331.11, 0.0, 2.50047, 2.4983356 
1.250236e+0, 6.245855e+0, -193279.8, -838091.56, -107.60886, 0.000058410726, 0.00094446, -193279.78, -193279.78, 0.0, 2.50047, 2.4983356 
1.2502378e+0, 8.744198e+0, -193227.97, -838066.44, -153.30565, 0.00024135609, 0.0013226015, -193227.94, -193227.94, 0.0, 2.50047, 2.4983356 
1.2502381e+0, 1.1242611e+1, -151452.1, -751411.4, -124.24659, 0.00025358686, 0.0015197614, -151452.06, -151452.06, 0.0, 2.5004702, 2.4984841 
1.2502365e+0, 1.3741094e+1, -151061.44, -750657.0, -41.137253, 0.00009584036, 0.0010460761, -151061.44, -151061.44, 0.0, 2.5004702, 2.4984853 
1.250235e+0, 1.6239576e+1, -151025.61, -750639.4, 47.606907, -0.00006224297, 0.00057221437, -151025.61, -151025.61, 0.0, 2.5004702, 2.4984853 
1.2502334e+0, 1.873806e+1, -150989.81, -750621.9, 136.23343, -0.00022066325, 0.00009876323, -150989.78, -150989.78, 0.0, 2.5004704, 2.4984853 
1.2502329e+0, 2.1236625e+1, -109464.516, -664713.9, 256.63965, -0.0002800356, 0.0007032217, -109464.39, -109464.39, 0.0, 2.5004706, 2.4986324 
1.2502338e+0, 2.3735271e+1, -108441.06, -663017.2, 275.0459, -0.00022078177, 0.0015813666, -108440.93, -108440.93, 0.0, 2.500471, 2.498635 
1.2502345e+0, 2.6233917e+1, -108172.14, -662887.2, 303.32892, -0.00016204994, 0.0024581149, -108171.98, -108171.98, 0.0, 2.5004716, 2.498635 
1.2502353e+0, 2.8732562e+1, -107903.37, -662757.25, 331.3102, -0.00010388621, 0.0033354198, -107903.164, -107903.164, 0.0, 2.500472, 2.498635 
1.2502363e+0, 3.1231275e+1, -65654.48, -575251.1, 204.54301, -0.000027600154, 0.0035574497, -65654.39, -65654.39, 0.0, 2.5004723, 2.498785 
1.2502372e+0, 3.3730054e+1, -64711.605, -573174.56, -24.100119, 0.0000771213, 0.002073676, -64711.605, -64711.605, 0.0, 2.5004723, 2.4987888 
1.2502381e+0, 3.622883e+1, -64786.03, -573210.1, -243.69293, 0.00018119167, 0.00058630464, -64785.914, -64785.914, 0.0, 2.500472, 2.4987888 
1.2502392e+0, 3.8727605e+1, -64860.785, -573245.9, -463.38727, 0.00028457688, -0.0009010348, -64860.363, -64860.363, 0.0, 2.500472, 2.4987888 
1.2502389e+0, 4.1226465e+1, -25129.957, -491202.72, -358.80408, 0.00023708378, -0.0006167796, -25129.682, -25129.682, 0.0, 2.5004725, 2.4989293 
1.2502372e+0, 4.372541e+1, -23293.404, -488118.38, -154.34703, 0.00003636332, 0.00038564042, -23293.352, -23293.352, 0.0, 2.5004733, 2.4989343 
1.2502356e+0, 4.6224353e+1, -22836.863, -487898.25, 65.83446, -0.00016521878, 0.0013832834, -22836.854, -22836.854, 0.0, 2.5004742, 2.4989343 
1.250234e+0, 4.87233e+1, -22380.918, -487678.4, 285.27216, -0.0003676633, 0.002380913, -22380.742, -22380.742, 0.0, 2.500475, 2.4989343 
1.250234e+0, 5.122232e+1, 20179.215, -399564.16, 208.50458, -0.00038480008, 0.0033681644, 20179.318, 20179.318, 0.0, 2.5004752, 2.4990852 
1.2502357e+0, 5.372141e+1, 21582.2, -396152.84, -41.227024, -0.00017201345, 0.0029073558, 21582.203, 21582.203, 0.0, 2.5004747, 2.4990914 
1.2502377e+0, 5.6220496e+1, 21269.365, -396303.06, -274.96686, 0.000039754148, 0.0024388146, 21269.547, 21269.547, 0.0, 2.5004742, 2.4990914 
1.2502395e+0, 5.871958e+1, 20955.701, -396453.7, -507.91962, 0.00025028115, 0.0019700883, 20956.318, 20956.318, 0.0, 2.5004737, 2.4990914 
1.25024e+0, 6.1218745e+1, 61370.695, -312724.03, -510.33957, 0.000297385, 0.0023291546, 61371.395, 61371.395, 0.0, 2.500474, 2.499235 
1.2502392e+0, 6.3717985e+1, 63852.62, -308161.4, -541.13586, 0.00017071654, 0.0019111445, 63853.41, 63853.41, 0.0, 2.5004745, 2.4992425 
1.2502381e+0, 6.6217226e+1, 64222.73, -307982.5, -557.09753, 0.00004233689, 0.0014831771, 64223.566, 64223.566, 0.0, 2.5004752, 2.4992425 
1.2502372e+0, 6.871646e+1, 64592.195, -307803.9, -573.9557, -0.0000877155, 0.0010549558, 64593.082, 64593.082, 0.0, 2.500476, 2.4992425 
1.2502366e+0, 7.1215785e+1, 104423.75, -225656.69, -484.6877, -0.00017430619, 0.0018075838, 104424.46, 104424.46, 0.0, 2.5004764, 2.4993832 
1.2502371e+0, 7.3715174e+1, 106924.14, -220594.72, -304.27853, -0.00014398342, 0.0016377415, 106924.43, 106924.43, 0.0, 2.5004766, 2.4993918 
1.2502375e+0, 7.6214564e+1, 107005.8, -220553.88, -104.62569, -0.000116088166, 0.0014531051, 107005.83, 107005.83, 0.0, 2.5004768, 2.4993918 
1.2502378e+0, 7.8713953e+1, 107087.586, -220512.95, 97.19444, -0.000091095986, 0.0012676908, 107087.62, 107087.62, 0.0, 2.5004768, 2.4993918 
1.2502384e+0, 8.1213415e+1, 148576.97, -134658.95, -9.589788, -0.00004806005, 0.0016905579, 148576.97, 148576.97, 0.0, 2.5004773, 2.499539 
1.2502389e+0, 8.3712965e+1, 151406.02, -128734.59, -528.00964, 0.0000009621307, 0.0011394462, 151407.02, 151407.02, 0.0, 2.500477, 2.4995492 
1.2502393e+0, 8.621251e+1, 151374.03, -128747.59, -1021.9354, 0.00004589208, 0.0005760821, 151377.77, 151377.77, 0.0, 2.500477, 2.4995492 
1.2502399e+0, 8.871205e+1, 151340.98, -128761.09, -1515.0033, 0.00008683368, 0.000011805729, 151349.17, 151349.17, 0.0, 2.500477, 2.4995492 
1.2502389e+0, 9.121168e+1, 188063.63, -53610.418, -1334.7914, -0.00007516661, 0.002198947, 188070.98, 188070.98, 0.0, 2.5004783, 2.4996777 
1.2502393e+0, 9.371137e+1, 192499.84, -46254.266, -835.69696, -0.00015342054, 0.0025289236, 192502.77, 192502.77, 0.0, 2.5004802, 2.4996893 
1.2502396e+0, 9.621107e+1, 193665.75, -45692.72, -316.3786, -0.00023876548, 0.002823634, 193666.16, 193666.16, 0.0, 2.5004823, 2.4996893 
1.2502399e+0, 9.8710763e+1, 194836.0, -45129.07, 205.11153, -0.0003334575, 0.00311801, 194836.17, 194836.17, 0.0, 2.5004842, 2.4996893 
3.7506968e+0, 1.2491701e+0, -193450.61, -837999.7, 4.114996, -0.0009274939, 0.00010273737, -193450.61, -193450.61, 0.0, 2.5004694, 2.4983358 
3.7507024e+0, 3.74751e+0, -193601.14, -838398.8, -68.91355, -0.00037576776, 0.00030867133, -193601.14, -193601.14, 0.0, 2.5004694, 2.4983351 
3.7507078e+0, 6.2458503e+0, -193547.06, -838372.2, -124.7174, 0.00017433365, 0.0005152183, -193547.05, -193547.05, 0.0, 2.5004697, 2.4983351 
3.7507135e+0, 8.7441903e+0, -193493.36, -838345.8, -180.35826, 0.00072281033, 0.00072237814, -193493.31, -193493.31, 0.0, 2.5004697, 2.4983351 
3.750714e+0, 1.1242605e+1, -151446.9, -751133.75, -160.23161, 0.00076170237, 0.0010137731, -151446.86, -151446.86, 0.0, 2.50047, 2.4984846 
3.7507096e+0, 1.3741092e+1, -151063.31, -750402.2, -96.50829, 0.00028789398, 0.0009354836, -151063.3, -151063.3, 0.0, 2.50047, 2.4984858 
3.7507048e+0, 1.623958e+1, -151022.64, -750381.7, -15.195239, -0.00018692977, 0.00085787626, -151022.64, -151022.64, 0.0, 2.50047, 2.4984858 
3.7507e+0, 1.8738067e+1, -150982.67, -750361.56, 66.38081, -0.00066276436, 0.0007815007, -150982.67, -150982.67, 0.0, 2.5004702, 2.4984858 
3.750699e+0, 2.1236633e+1, -109508.43, -664567.94, 253.16774, -0.00083859806, 0.001257605, -109508.32, -109508.32, 0.0, 2.5004704, 2.498633 
3.7507012e+0, 2.3735271e+1, -108529.695, -662973.75, 247.26045, -0.00066122797, 0.0015286532, -108529.586, -108529.586, 0.0, 2.5004709, 2.4986353 
3.7507036e+0, 2.6233912e+1, -108255.336, -662840.4, 272.12296, -0.00048543466, 0.0017995255, -108255.2, -108255.2, 0.0, 2.5004714, 2.4986353 
3.750706e+0, 2.873255e+1, -107982.21, -662707.6, 297.36734, -0.0003113456, 0.002072067, -107982.05, -107982.05, 0.0, 2.5004718, 2.4986353 
3.7507087e+0, 3.1231263e+1, -66162.195, -576109.0, 94.44601, -0.00008015116, 0.002357191, -66162.18, -66162.18, 0.0, 2.500472, 2.4987838 
3.7507117e+0, 3.3730048e+1, -65228.79, -574064.8, -153.95619, 0.00023377694, 0.0016866102, -65228.742, -65228.742, 0.0, 2.500472, 2.4987874 
3.7507147e+0, 3.622883e+1, -65296.355, -574096.56, -373.53076, 0.0005457351, 0.001012748, -65296.082, -65296.082, 0.0, 2.500472, 2.4987874 
3.7507173e+0, 3.872761e+1, -65365.715, -574129.2, -592.9201, 0.00085563783, 0.00033898203, -65365.027, -65365.027, 0.0, 2.5004718, 2.4987874 
3.7507167e+0, 4.1226473e+1, -24761.523, -490280.84, -323.84833, 0.00071219675, 0.00073418766, -24761.299, -24761.299, 0.0, 2.5004723, 2.498931 
3.7507117e+0, 4.3725413e+1, -22964.658, -487290.34, -148.89473, 0.0001102138, 0.0011508578, -22964.611, -22964.611, 0.0, 2.5004733, 2.4989357 
3.750707e+0, 4.622436e+1, -22502.611, -487067.25, 74.960846, -0.00049434556, 0.0015627746, -22502.6, -22502.6, 0.0, 2.500474, 2.4989357 
3.7507018e+0, 4.8723298e+1, -22043.023, -486845.38, 298.9819, -0.0011014923, 0.0019746507, -22042.832, -22042.832, 0.0, 2.5004747, 2.4989357 
3.7507018e+0, 5.122231e+1, 19732.05, -400371.22, 56.539646, -0.0011511053, 0.002763586, 19732.059, 19732.059, 0.0, 2.5004752, 2.499084 
3.7507075e+0, 5.3721404e+1, 21100.873, -397036.44, -213.61516, -0.0005129043, 0.0025835976, 21100.98, 21100.98, 0.0, 2.5004747, 2.49909 
3.750713e+0, 5.6220496e+1, 20789.59, -397184.94, -436.4639, 0.00012222008, 0.0023959095, 20790.045, 20790.045, 0.0, 2.500474, 2.49909 
3.7507182e+0, 5.871958e+1, 20475.107, -397334.94, -659.1071, 0.00075362273, 0.0022076662, 20476.146, 20476.146, 0.0, 2.5004735, 2.49909 
3.7507203e+0, 6.1218745e+1, 61345.99, -312654.75, -448.49573, 0.000894114, 0.0026888356, 61346.523, 61346.523, 0.0, 2.5004737, 2.4992352 
3.7507173e+0, 6.3717985e+1, 63777.832, -308201.16, -496.79538, 0.0005131498, 0.0022941954, 63778.496, 63778.496, 0.0, 2.5004745, 2.4992423 
3.7507147e+0, 6.6217226e+1, 64148.477, -308020.75, -499.24783, 0.00012706313, 0.0018894238, 64149.145, 64149.145, 0.0, 2.500475, 2.4992425 
3.7507117e+0, 6.871646e+1, 64515.066, -307842.28, -501.50626, -0.00026404174, 0.0014838906, 64515.742, 64515.742, 0.0, 2.5004756, 2.4992425 
3.75071e+0, 7.1215785e+1, 104799.67, -224741.2, -436.7918, -0.00051477784, 0.0021305126, 104800.25, 104800.25, 0.0, 2.5004764, 2.4993849 
3.750711e+0, 7.3715174e+1, 107249.38, -219778.75, -269.3579, -0.00042642758, 0.0018044787, 107249.6, 107249.6, 0.0, 2.5004764, 2.4993932 
3.7507123e+0, 7.6214564e+1, 107323.7, -219738.38, -48.406, -0.00034548636, 0.0014625762, 107323.71, 107323.71, 0.0, 2.5004766, 2.4993932 
3.7507135e+0, 7.8713953e+1, 107392.23, -219700.8, 172.55122, -0.00027325438, 0.0011183397, 107392.31, 107392.31, 0.0, 2.5004766, 2.4993932 
3.7507156e+0, 8.1213415e+1, 147639.47, -136393.72, 86.74421, -0.00013691408, 0.0014676139, 147639.5, 147639.5, 0.0, 2.500477, 2.499536 
3.750717e+0, 8.371296e+1, 150376.19, -130652.51, -459.38998, 0.0000063721104, 0.0010592685, 150376.94, 150376.94, 0.0, 2.5004768, 2.499546 
3.7507182e+0, 8.6212504e+1, 150334.5, -130665.36, -938.10046, 0.00013726336, 0.0006377528, 150337.63, 150337.63, 0.0, 2.5004768, 2.499546 
3.7507194e+0, 8.871204e+1, 150284.48, -130682.21, -1416.7416, 0.00025618952, 0.00021350024, 150291.63, 150291.63, 0.0, 2.5004768, 2.499546 
3.750717e+0, 9.1211677e+1, 188898.89, -51535.254, -862.1187, -0.00020427693, 0.002331273, 188901.98, 188901.98, 0.0, 2.500478, 2.4996815 
3.750718e+0, 9.3711364e+1, 193280.8, -44220.1, -343.79996, -0.0004401375, 0.0024293284, 193281.3, 193281.3, 0.0, 2.50048, 2.4996932 
3.7507188e+0, 9.621106e+1, 194383.13, -43689.004, 220.17278, -0.0006976852, 0.0024917815, 194383.33, 194383.33, 0.0, 2.5004818, 2.4996932 
3.7507197e+0, 9.871075e+1, 195470.19, -43165.254, 784.1295, -0.0009832741, 0.0025532302, 195472.77, 195472.77, 0.0, 2.5004835, 2.4996932 
6.251161e+0, 1.24916896e+0, -193548.69, -838203.0, 25.370337, -0.0015461226, 0.000016049235, -193548.69, -193548.69, 0.0, 2.5004694, 2.4983356 
6.2511706e+0, 3.7475067e+0, -193697.63, -838597.94, -57.974697, -0.0006271781, 0.00004891337, -193697.61, -193697.61, 0.0, 2.5004694, 2.498335 
6.25118e+0, 6.245845e+0, -193643.84, -838571.2, -113.102974, 0.00028905855, 0.000082799095, -193643.83, -193643.83, 0.0, 2.5004697, 2.498335 
6.251189e+0, 8.7441826e+0, -193590.45, -838544.56, -168.06827, 0.0012025874, 0.000117706266, -193590.4, -193590.4, 0.0, 2.5004697, 2.498335 
6.2511903e+0, 1.1242598e+1, -151289.38, -750802.5, -147.20003, 0.0012710736, 0.0005137082, -151289.34, -151289.34, 0.0, 2.50047, 2.4984853 
6.2511826e+0, 1.3741091e+1, -150906.83, -750072.1, -93.192665, 0.0004804449, 0.0008260381, -150906.81, -150906.81, 0.0, 2.50047, 2.4984865 
6.251174e+0, 1.6239582e+1, -150866.39, -750051.1, -10.362279, -0.00031188433, 0.0011398786, -150866.39, -150866.39, 0.0, 2.50047, 2.4984865 
6.251167e+0, 1.8738075e+1, -150826.69, -750030.5, 72.7311, -0.0011058982, 0.0014557722, -150826.67, -150826.67, 0.0, 2.5004702, 2.4984865 
6.2511647e+0, 2.1236639e+1, -109428.734, -664394.06, 332.91043, -0.0013951489, 0.0018169177, -109428.54, -109428.54, 0.0, 2.5004704, 2.4986331 
6.251169e+0, 2.3735273e+1, -108483.08, -662866.0, 308.5062, -0.0011001844, 0.001476404, -108482.91, -108482.91, 0.0, 2.5004709, 2.4986355 
6.2511724e+0, 2.623391e+1, -108209.85, -662732.44, 334.96225, -0.00080786576, 0.0011368579, -108209.65, -108209.65, 0.0, 2.5004714, 2.4986355 
6.2511766e+0, 2.873254e+1, -107937.86, -662599.4, 361.8002, -0.0005183876, 0.0008000941, -107937.625, -107937.625, 0.0, 2.5004718, 2.4986355 
6.2511814e+0, 3.1231254e+1, -66568.9, -576943.6, 86.65796, -0.00012916976, 0.0011632508, -66568.88, -66568.88, 0.0, 2.500472, 2.4987824 
6.251186e+0, 3.3730042e+1, -65637.39, -574903.44, -180.40472, 0.00039364997, 0.0013021156, -65637.33, -65637.33, 0.0, 2.500472, 2.498786 
6.251191e+0, 3.6228833e+1, -65704.65, -574934.5, -398.5567, 0.0009131588, 0.0014378899, -65704.336, -65704.336, 0.0, 2.5004718, 2.498786 
6.2511957e+0, 3.872762e+1, -65773.695, -574966.4, -616.52344, 0.0014292418, 0.0015738247, -65772.95, -65772.95, 0.0, 2.5004718, 2.498786 
6.2511945e+0, 4.1226482e+1, -24318.6, -489349.3, -183.06561, 0.0011885704, 0.0020885055, -24318.527, -24318.527, 0.0, 2.5004723, 2.4989326 
6.251186e+0, 4.3725422e+1, -22553.176, -486423.16, -38.905132, 0.00018556276, 0.0019151554, -22553.172, -22553.172, 0.0, 2.5004733, 2.4989371 
6.2511784e+0, 4.622436e+1, -22091.541, -486200.0, 186.50067, -0.00082172465, 0.0017369835, -22091.465, -22091.465, 0.0, 2.500474, 2.4989371 
6.2511694e+0, 4.8723292e+1, -21632.365, -485978.0, 412.07196, -0.0018333243, 0.0015587438, -21632.0, -21632.0, 0.0, 2.5004747, 2.4989371 
6.2511694e+0, 5.1222306e+1, 19335.238, -401184.25, -1.624502, -0.0019130169, 0.0021673702, 19335.238, 19335.238, 0.0, 2.5004752, 2.4990826 
6.251179e+0, 5.3721404e+1, 20684.535, -397889.8, -301.20987, -0.0008496137, 0.0022628303, 20684.752, 20684.752, 0.0, 2.5004745, 2.4990883 
6.2511885e+0, 5.622049e+1, 20373.705, -398037.1, -521.8725, 0.00020862956, 0.0023504077, 20374.357, 20374.357, 0.0, 2.500474, 2.4990883 
6.2511975e+0, 5.871958e+1, 20059.678, -398185.9, -742.32965, 0.0012606699, 0.0024370598, 20060.996, 20060.996, 0.0, 2.5004735, 2.4990885 
6.2512004e+0, 6.1218745e+1, 61365.016, -312598.3, -329.0183, 0.001493455, 0.0030545355, 61365.305, 61365.305, 0.0, 2.5004737, 2.4992352 
6.2511957e+0, 6.3717985e+1, 63764.797, -308212.13, -404.44272, 0.00085691665, 0.0026780153, 63765.234, 63765.234, 0.0, 2.5004745, 2.4992423 
6.251191e+0, 6.6217226e+1, 64136.74, -308029.84, -404.67654, 0.00021185937, 0.0022909867, 64137.176, 64137.176, 0.0, 2.500475, 2.4992423 
6.251186e+0, 6.871646e+1, 64504.625, -307849.5, -404.71634, -0.00044156163, 0.0019026886, 64505.063, 64505.063, 0.0, 2.5004756, 2.4992423 
6.251184e+0, 7.1215785e+1, 105224.99, -223838.31, -384.0082, -0.00084439514, 0.0024614846, 105225.445, 105225.445, 0.0, 2.5004764, 2.4993863 
6.2511855e+0, 7.3715174e+1, 107652.46, -218926.6, -244.95518, -0.0007015081, 0.001973747, 107652.64, 107652.64, 0.0, 2.5004764, 2.4993947 
6.2511873e+0, 7.6214564e+1, 107731.57, -218880.88, -20.814075, -0.0005711803, 0.0014687836, 107731.57, 107731.57, 0.0, 2.5004766, 2.4993947 
6.2511885e+0, 7.8713953e+1, 107804.88, -218837.94, 203.33234, -0.00045536796, 0.00095993, 107805.01, 107805.01, 0.0, 2.5004766, 2.4993947 
6.2511927e+0, 8.1213415e+1, 146800.69, -138117.34, 117.95964, -0.00021607998, 0.0012505191, 146800.73, 146800.73, 0.0, 2.500477, 2.4995332 
6.2511945e+0, 8.3712953e+1, 149475.36, -132509.6, -462.0931, 0.000016429763, 0.0009795104, 149476.13, 149476.13, 0.0, 2.5004768, 2.499543 
6.251197e+0, 8.621249e+1, 149439.67, -132514.73, -937.48, 0.00022808419, 0.0006941537, 149442.78, 149442.78, 0.0, 2.5004768, 2.499543 
6.251199e+0, 8.8712037e+1, 149395.66, -132523.88, -1412.7975, 0.00041979682, 0.00040423544, 149402.73, 149402.73, 0.0, 2.5004768, 2.499543 
6.251195e+0, 9.1211665e+1, 189915.83, -49406.336, -520.6823, -0.00030509004, 0.0024710698, 189916.95, 189916.95, 0.0, 2.5004778, 2.499685 
6.251197e+0, 9.3711364e+1, 194310.88, -42067.49, -11.98996, -0.0007000222, 0.0023297206, 194310.88, 194310.88, 0.0, 2.50048, 2.4996967 
6.251198e+0, 9.621106e+1, 195415.7, -41535.027, 560.5293, -0.0011317896, 0.002152101, 195417.03, 195417.03, 0.0, 2.5004818, 2.4996967 
6.2512e+0, 9.871075e+1, 196505.27, -41009.91, 1133.0325, -0.0016102925, 0.0019728076, 196510.67, 196510.67, 0.0, 2.5004835, 2.4996967 
8.751626e+0, 1.2491679e+0, -193840.28, -838499.2, 52.115005, -0.0021649352, -0.00007127757, -193840.28, -193840.28, 0.0, 2.5004692, 2.4983351 
8.7516385e+0, 3.7475038e+0, -193947.75, -838871.6, -29.646135, -0.0008792675, -0.00021276192, -193947.75, -193947.75, 0.0, 2.5004692, 2.4983344 
8.7516516e+0, 6.2458396e+0, -193880.1, -838837.8, -72.656815, 0.0004026189, -0.00035281785, -193880.1, -193880.1, 0.0, 2.5004694, 2.4983344 
8.7516654e+0, 8.744176e+0, -193839.17, -838816.94, -115.681786, 0.001680724, -0.0004914455, -193839.16, -193839.16, 0.0, 2.5004694, 2.4983344 
8.751666e+0, 1.1242593e+1, -151300.42, -750572.3, -82.40009, 0.0017817387, 0.000019528845, -151300.42, -151300.42, 0.0, 2.5004697, 2.4984858 
8.751656e+0, 1.374109e+1, -150894.69, -749812.56, -24.820469, 0.00067352597, 0.00071769796, -150894.69, -150894.69, 0.0, 2.5004697, 2.498487 
8.751644e+0, 1.6239586e+1, -150855.42, -749791.5, 72.825516, -0.00043707472, 0.0014181727, -150855.4, -150855.4, 0.0, 2.5004697, 2.498487 
8.751634e+0, 1.873808e+1, -150830.28, -749777.3, 171.00648, -0.0015500297, 0.002121518, -150830.23, -150830.23, 0.0, 2.5004697, 2.498487 
8.751631e+0, 2.1236645e+1, -109524.01, -664336.1, 518.1074, -0.0019496558, 0.002381096, -109523.52, -109523.52, 0.0, 2.5004702, 2.4986334 
8.751637e+0, 2.3735273e+1, -108573.22, -662825.0, 488.88654, -0.0015376258, 0.0014245586, -108572.78, -108572.78, 0.0, 2.5004706, 2.4986358 
8.751642e+0, 2.6233903e+1, -108300.35, -662690.8, 529.9662, -0.0011293188, 0.0004700512, -108299.84, -108299.84, 0.0, 2.500471, 2.4986358 
8.751647e+0, 2.873253e+1, -108047.57, -662566.25, 571.19977, -0.000724982, -0.00048056507, -108046.984, -108046.984, 0.0, 2.5004716, 2.4986358 
8.7516534e+0, 3.1231242e+1, -67141.4, -577883.6, 236.9082, -0.00017462658, -0.000024439809, -67141.29, -67141.29, 0.0, 2.5004718, 2.4987807 
8.7516606e+0, 3.373004e+1, -66171.18, -575803.0, -37.651516, 0.00055676216, 0.00092012575, -66171.17, -66171.17, 0.0, 2.5004718, 2.4987845 
8.751667e+0, 3.6228833e+1, -66233.67, -575831.2, -242.43019, 0.0012834839, 0.001861667, -66233.555, -66233.555, 0.0, 2.5004718, 2.4987845 
8.7516737e+0, 3.872763e+1, -66318.76, -575870.3, -447.14703, 0.0020054164, 0.0028034335, -66318.37, -66318.37, 0.0, 2.5004716, 2.4987845 
8.751672e+0, 4.1226494e+1, -24026.04, -488516.47, 161.53062, 0.0016662304, 0.0034461173, -24025.982, -24025.982, 0.0, 2.500472, 2.498934 
8.7516606e+0, 4.3725425e+1, -22255.965, -485611.75, 286.3294, 0.00026242595, 0.002678479, -22255.79, -22255.79, 0.0, 2.500473, 2.4989386 
8.7516487e+0, 4.622436e+1, -21799.576, -485390.78, 526.09705, -0.0011473419, 0.001905858, -21798.979, -21798.979, 0.0, 2.5004737, 2.4989386 
8.7516373e+0, 4.872329e+1, -21371.367, -485183.4, 767.66455, -0.0025631385, 0.0011331419, -21370.096, -21370.096, 0.0, 2.5004745, 2.4989386 
8.7516373e+0, 5.1222306e+1, 18771.785, -402107.72, 192.523, -0.0026705153, 0.0015794714, 18771.873, 18771.873, 0.0, 2.500475, 2.4990811 
8.751651e+0, 5.37214e+1, 20146.064, -398803.03, -131.4666, -0.001182127, 0.0019450159, 20146.107, 20146.107, 0.0, 2.5004745, 2.4990869 
8.751663e+0, 5.6220484e+1, 19821.447, -398955.97, -343.15402, 0.0002990049, 0.0023022813, 19821.729, 19821.729, 0.0, 2.5004737, 2.4990869 
8.7516767e+0, 5.8719575e+1, 19451.965, -399130.53, -553.2189, 0.0017714658, 0.002658253, 19452.695, 19452.695, 0.0, 2.5004733, 2.4990869 
8.75168e+0, 6.1218745e+1, 61179.363, -312674.38, 75.782005, 0.002095448, 0.0034262463, 61179.38, 61179.38, 0.0, 2.5004735, 2.4992352 
8.7516737e+0, 6.3717985e+1, 63633.13, -308281.16, -11.127747, 0.0012020329, 0.0030625989, 63633.13, 63633.13, 0.0, 2.5004742, 2.4992423 
8.751667e+0, 6.6217226e+1, 64012.9, -308093.88, 0.3051504, 0.00029673637, 0.0026878656, 64012.9, 64012.9, 0.0, 2.5004747, 2.4992423 
8.7516606e+0, 6.871646e+1, 64332.066, -307935.78, 6.7168064, -0.0006202501, 0.002311358, 64332.066, 64332.066, 0.0, 2.5004754, 2.4992423 
8.7516564e+0, 7.1215785e+1, 105489.984, -223048.95, -17.279024, -0.0011631355, 0.0028005175, 105489.984, 105489.984, 0.0, 2.5004761, 2.4993877 
8.7516594e+0, 7.3715174e+1, 107985.266, -218109.56, 96.10919, -0.00096921227, 0.0021455777, 107985.3, 107985.3, 0.0, 2.5004764, 2.499396 
8.7516624e+0, 7.6214564e+1, 108033.42, -218075.72, 314.5013, -0.0007931333, 0.0014717774, 108033.72, 108033.72, 0.0, 2.5004764, 2.499396 
8.751664e+0, 7.8713953e+1, 107970.875, -218095.17, 524.88776, -0.0006373418, 0.0007925371, 107971.73, 107971.73, 0.0, 2.5004761, 2.4993963 
8.751669e+0, 8.121341e+1, 145739.73, -139984.28, 434.2076, -0.00028546946, 0.0010393625, 145740.39, 145740.39, 0.0, 2.5004766, 2.49953 
8.7516725e+0, 8.3712953e+1, 148559.34, -134375.22, -158.5816, 0.000031163352, 0.0009002652, 148559.42, 148559.42, 0.0, 2.5004768, 2.4995396 
8.7516755e+0, 8.621249e+1, 148521.69, -134376.5, -631.401, 0.00031838042, 0.0007453922, 148523.1, 148523.1, 0.0, 2.5004768, 2.4995396 
8.7516785e+0, 8.871203e+1, 148283.83, -134474.2, -1120.5641, 0.0005777367, 0.0005841429, 148288.27, 148288.27, 0.0, 2.5004764, 2.4995396 
8.7516737e+0, 9.121165e+1, 190704.11, -47421.21, 67.06025, -0.0003775254, 0.0026184935, 190704.13, 190704.13, 0.0, 2.5004776, 2.4996886 
8.7516755e+0, 9.371136e+1, 195321.81, -39925.566, 542.2061, -0.00093303586, 0.002230275, 195323.06, 195323.06, 0.0, 2.5004797, 2.4997005 
8.7516785e+0, 9.621105e+1, 196344.77, -39432.37, 1093.1559, -0.0015409943, 0.0018047874, 196349.84, 196349.84, 0.0, 2.5004816, 2.4997005 
8.75168e+0, 9.8710746e+1, 197079.61, -39077.92, 1645.386, -0.002214292, 0.0013769577, 197091.06, 197091.06, 0.0, 2.5004828, 2.4997005 
1.1252101e+1, 1.2491678e+0, -193309.88, -838208.94, 119.29775, -0.0017274406, -0.00008937891, -193309.86, -193309.86, 0.0, 2.50047, 2.4983354 
1.12521105e+1, 3.7475032e+0, -193455.56, -838594.25, 108.836296, -0.00076351064, -0.00026841866, -193455.55, -193455.55, 0.0, 2.5004702, 2.4983346 
1.1252121e+1, 6.2458384e+0, -193404.06, -838567.5, 146.5173, 0.0002069655, -0.00044783356, -193404.02, -193404.02, 0.0, 2.5004702, 2.4983346 
1.12521306e+1, 8.744174e+0, -193354.08, -838541.5, 184.31592, 0.0011839877, -0.0006276238, -193354.03, -193354.03, 0.0, 2.5004702, 2.4983346 
1.1252132e+1, 1.1242591e+1, -150732.25, -750262.9, 199.54477, 0.0012633257, -0.00012387044, -150732.19, -150732.19, 0.0, 2.5004706, 2.4984858 
1.1252124e+1, 1.3741088e+1, -150169.63, -749428.56, 39.78901, 0.00043644305, 0.0005927103, -150169.63, -150169.63, 0.0, 2.5004709, 2.498487 
1.12521164e+1, 1.6239583e+1, -149958.34, -749322.1, -69.301895, -0.00038867418, 0.0013075377, -149958.33, -149958.33, 0.0, 2.5004714, 2.498487 
1.1252108e+1, 1.873808e+1, -149748.17, -749216.2, -177.50943, -0.0012120283, 0.0020211856, -149748.13, -149748.13, 0.0, 2.5004716, 2.498487 
1.1252107e+1, 2.1236645e+1, -108570.89, -663813.44, 29.212702, -0.0015504147, 0.0022618114, -108570.89, -108570.89, 0.0, 2.5004718, 2.4986334 
1.12521105e+1, 2.3735271e+1, -108040.75, -662528.3, -110.61693, -0.0013074379, 0.0012622705, -108040.73, -108040.73, 0.0, 2.5004716, 2.4986358 
1.1252114e+1, 2.62339e+1, -108155.4, -662579.25, -165.39844, -0.0010613346, 0.0002601944, -108155.35, -108155.35, 0.0, 2.5004714, 2.4986358 
1.1252118e+1, 2.8732526e+1, -108271.78, -662631.0, -219.49199, -0.0008123451, -0.00074257376, -108271.695, -108271.695, 0.0, 2.500471, 2.4986358 
1.1252124e+1, 3.123124e+1, -67207.35, -577975.5, -322.2048, -0.0003768802, -0.00028600634, -67207.15, -67207.15, 0.0, 2.5004718, 2.4987807 
1.12521306e+1, 3.373004e+1, -65536.45, -575587.0, -321.2134, 0.00029514966, 0.000723342, -65536.25, -65536.25, 0.0, 2.500473, 2.4987843 
1.1252137e+1, 3.6228833e+1, -64857.504, -575255.0, -223.55905, 0.0009702091, 0.0017303707, -64857.406, -64857.406, 0.0, 2.5004742, 2.4987843 
1.1252144e+1, 3.8727626e+1, -64180.406, -574923.9, -125.21932, 0.0016481258, 0.0027383012, -64180.375, -64180.375, 0.0, 2.5004754, 2.4987843 
1.1252143e+1, 4.1226494e+1, -21921.01, -487210.13, 389.39386, 0.0013648527, 0.0033839121, -21920.686, -21920.686, 0.0, 2.5004754, 2.4989347 
1.12521335e+1, 4.3725425e+1, -21398.758, -484946.78, 138.99641, 0.00014818192, 0.002559459, -21398.717, -21398.717, 0.0, 2.5004742, 2.4989393 
1.1252124e+1, 4.622436e+1, -22137.12, -485296.03, 27.991121, -0.0010660266, 0.0017304799, -22137.117, -22137.117, 0.0, 2.5004728, 2.4989393 
1.1252114e+1, 4.872329e+1, -22878.39, -485646.72, -82.38799, -0.0022779678, 0.00090183446, -22878.375, -22878.375, 0.0, 2.5004716, 2.4989393 
1.1252114e+1, 5.12223e+1, 17201.363, -402910.84, -468.29095, -0.0023904967, 0.0013389945, 17201.885, 17201.885, 0.0, 2.500472, 2.499081 
1.1252126e+1, 5.372139e+1, 19945.213, -398990.13, -516.2887, -0.0011104641, 0.0017505388, 19945.848, 19945.848, 0.0, 2.5004742, 2.4990869 
1.1252137e+1, 5.6220484e+1, 21059.201, -398445.0, -421.4661, 0.00017542239, 0.002156131, 21059.625, 21059.625, 0.0, 2.500476, 2.4990869 
1.12521484e+1, 5.8719575e+1, 22169.324, -397901.75, -325.957, 0.0014656987, 0.0025627166, 22169.576, 22169.576, 0.0, 2.5004778, 2.4990869 
1.1252152e+1, 6.1218745e+1, 64142.875, -311169.88, 339.0243, 0.0017264946, 0.0033505852, 64143.18, 64143.18, 0.0, 2.5004785, 2.4992354 
1.1252147e+1, 6.3717985e+1, 65322.625, -307471.56, 137.84245, 0.0009592581, 0.0030112448, 65322.676, 65322.676, 0.0, 2.500477, 2.4992423 
1.1252142e+1, 6.6217226e+1, 64534.473, -307849.8, 70.69699, 0.00020028016, 0.0026639493, 64534.484, 64534.484, 0.0, 2.5004756, 2.4992423 
1.12521365e+1, 6.871646e+1, 63738.883, -308231.63, 5.0011444, -0.00055062585, 0.0023177858, 63738.883, 63738.883, 0.0, 2.5004745, 2.4992423 
1.12521335e+1, 7.1215785e+1, 104536.07, -223447.28, -96.41691, -0.0010515366, 0.002828689, 104536.1, 104536.1, 0.0, 2.5004742, 2.499388 
1.12521365e+1, 7.3715174e+1, 107312.91, -218454.9, -532.02844, -0.00087930233, 0.0022134248, 107313.77, 107313.77, 0.0, 2.5004752, 2.499396 
1.125214e+1, 7.6214564e+1, 107788.94, -218225.22, -826.8548, -0.00068837526, 0.001586441, 107791.04, 107791.04, 0.0, 2.500476, 2.499396 
1.1252143e+1, 7.8713953e+1, 108256.94, -217999.42, -1120.173, -0.00048156508, 0.0009609891, 108260.78, 108260.78, 0.0, 2.5004768, 2.499396 
1.12521484e+1, 8.121341e+1, 146336.53, -139801.55, -1039.4805, -0.000106492145, 0.0012484009, 146340.31, 146340.31, 0.0, 2.5004778, 2.4995298 
1.12521514e+1, 8.3712953e+1, 149107.58, -134333.7, -963.81, 0.00011556004, 0.0011560273, 149110.86, 149110.86, 0.0, 2.500478, 2.4995391 
1.12521544e+1, 8.6212486e+1, 149272.92, -134258.19, -713.8921, 0.00036990474, 0.0010587454, 149274.72, 149274.72, 0.0, 2.5004783, 2.4995391 
1.12521574e+1, 8.871203e+1, 149427.05, -134188.06, -464.61685, 0.0006588663, 0.00096580805, 149427.8, 149427.8, 0.0, 2.5004785, 2.4995391 
1.1252151e+1, 9.121165e+1, 191672.83, -46554.063, 842.656, -0.00056117435, 0.0029223918, 191675.8, 191675.8, 0.0, 2.5004787, 2.4996896 
1.1252154e+1, 9.371135e+1, 194056.11, -40202.098, 328.24036, -0.0011176221, 0.0024457194, 194056.58, 194056.58, 0.0, 2.5004773, 2.4997013 
1.12521574e+1, 9.621105e+1, 193124.13, -40643.883, -71.24703, -0.0016376385, 0.0019330705, 193124.14, 193124.14, 0.0, 2.5004756, 2.4997013 
1.1252161e+1, 9.8710746e+1, 192138.44, -41111.527, -470.04453, -0.0021383325, 0.0014182248, 192139.39, 192139.39, 0.0, 2.500474, 2.4997013 
1.3752586e+1, 1.2491685e+0, -193218.67, -838030.94, 134.98112, -0.00039062835, -0.000029768622, -193218.64, -193218.64, 0.0, 2.50047, 2.4983356 
1.3752586e+1, 3.7475055e+0, -193359.61, -838405.7, 116.925354, -0.00039090548, -0.00008911262, -193359.58, -193359.58, 0.0, 2.5004702, 2.498335 
1.3752586e+1, 6.2458426e+0, -193307.6, -838377.9, 154.47603, -0.00038945331, -0.00014819825, -193307.55, -193307.55, 0.0, 2.5004702, 2.498335 
1.3752586e+1, 8.7441796e+0, -193256.66, -838350.6, 192.16264, -0.00038627186, -0.00020702566, -193256.6, -193256.6, 0.0, 2.5004702, 2.498335 
1.3752587e+1, 1.12425946e+1, -150895.78, -750608.1, 245.82825, -0.0003827834, 0.00018043644, -150895.69, -150895.69, 0.0, 2.5004706, 2.4984853 
1.3752589e+1, 1.3741088e+1, -150352.3, -749811.6, 77.4689, -0.00031696935, 0.000559272, -150352.3, -150352.3, 0.0, 2.5004709, 2.4984865 
1.3752589e+1, 1.623958e+1, -150141.42, -749704.1, -31.716953, -0.00025246394, 0.00093877263, -150141.4, -150141.4, 0.0, 2.5004714, 2.4984865 
1.3752592e+1, 1.8738072e+1, -149931.66, -749597.2, -140.14108, -0.00018935293, 0.0013194967, -149931.63, -149931.63, 0.0, 2.5004716, 2.4984865 
1.3752592e+1, 2.1236636e+1, -108629.74, -663945.9, -16.237967, -0.00028669275, 0.0016320377, -108629.74, -108629.74, 0.0, 2.5004718, 2.4986334 
1.3752592e+1, 2.3735267e+1, -108121.89, -662706.9, -166.3022, -0.0004786325, 0.0011516458, -108121.84, -108121.84, 0.0, 2.5004716, 2.4986355 
1.375259e+1, 2.62339e+1, -108235.19, -662755.75, -222.02127, -0.0006709118, 0.0006703886, -108235.09, -108235.09, 0.0, 2.5004714, 2.4986355 
1.375259e+1, 2.8732535e+1, -108349.88, -662805.25, -277.1568, -0.0008636987, 0.00019001593, -108349.74, -108349.74, 0.0, 2.500471, 2.4986355 
1.3752592e+1, 3.1231245e+1, -66957.43, -577459.6, -154.25761, -0.00081526476, 0.0005545319, -66957.38, -66957.38, 0.0, 2.5004718, 2.4987817 
1.3752598e+1, 3.3730033e+1, -65343.832, -575187.2, -184.83891, -0.00044863485, 0.00088241516, -65343.766, -65343.766, 0.0, 2.500473, 2.498785 
1.3752602e+1, 3.6228824e+1, -64666.086, -574854.5, -88.2852, -0.00008275644, 0.0012091118, -64666.074, -64666.074, 0.0, 2.5004742, 2.498785 
1.3752607e+1, 3.8727614e+1, -63990.28, -574522.7, 8.850636, 0.000282106, 0.0015377312, -63990.28, -63990.28, 0.0, 2.5004754, 2.498785 
1.3752608e+1, 4.122648e+1, -22066.313, -487523.56, 170.3525, 0.00022064158, 0.002056436, -22066.25, -22066.25, 0.0, 2.5004754, 2.4989343 
1.3752605e+1, 4.3725413e+1, -21592.492, -485355.44, -101.99141, -0.00019386745, 0.0017063863, -21592.47, -21592.47, 0.0, 2.5004742, 2.4989386 
1.3752602e+1, 4.622435e+1, -22333.193, -485704.94, -213.81662, -0.00061068754, 0.0013530165, -22333.096, -22333.096, 0.0, 2.5004728, 2.4989386 
1.3752598e+1, 4.8723286e+1, -23076.617, -486055.72, -324.99353, -0.0010301734, 0.0010010225, -23076.389, -23076.389, 0.0, 2.5004716, 2.4989386 
1.3752599e+1, 5.12223e+1, 17441.188, -402398.34, -206.33589, -0.0011365986, 0.0015606341, 17441.29, 17441.29, 0.0, 2.500472, 2.4990819 
1.3752605e+1, 5.372139e+1, 20118.838, -398609.56, -287.14746, -0.00068114075, 0.001773237, 20119.033, 20119.033, 0.0, 2.500474, 2.4990873 
1.375261e+1, 5.6220484e+1, 21229.998, -398066.34, -191.31192, -0.00022715317, 0.001981046, 21230.086, 21230.086, 0.0, 2.500476, 2.4990873 
1.3752615e+1, 5.8719575e+1, 22337.297, -397525.0, -94.880356, 0.00022402144, 0.0021908076, 22337.318, 22337.318, 0.0, 2.5004778, 2.4990873 
1.3752617e+1, 6.121874e+1, 64100.586, -311239.6, 104.17683, 0.0002884173, 0.002847509, 64100.617, 64100.617, 0.0, 2.5004783, 2.4992354 
1.3752615e+1, 6.3717973e+1, 65188.96, -307726.9, -127.74414, 0.00009408092, 0.0025373402, 65189.008, 65189.008, 0.0, 2.500477, 2.499242 
1.3752614e+1, 6.6217214e+1, 64401.043, -308101.6, -195.24417, -0.0001017109, 0.002219764, 64401.15, 64401.15, 0.0, 2.5004756, 2.499242 
1.3752612e+1, 6.8716455e+1, 63608.06, -308478.7, -262.3311, -0.00029978988, 0.0019033198, 63608.246, 63608.246, 0.0, 2.5004742, 2.499242 
1.3752612e+1, 7.121577e+1, 104070.62, -224389.25, -19.729298, -0.0005798722, 0.0024933042, 104070.62, 104070.62, 0.0, 2.5004742, 2.4993863 
1.3752615e+1, 7.371516e+1, 106752.7, -219594.47, -481.3149, -0.0004677031, 0.0020904578, 106753.414, 106753.414, 0.0, 2.5004752, 2.4993942 
1.3752618e+1, 7.621455e+1, 107229.625, -219365.53, -775.27295, -0.0003540083, 0.0016763984, 107231.47, 107231.47, 0.0, 2.500476, 2.4993942 
1.3752623e+1, 7.871394e+1, 107699.125, -219140.17, -1068.7332, -0.00024201215, 0.0012638327, 107702.62, 107702.62, 0.0, 2.5004768, 2.4993942 
1.3752629e+1, 8.121341e+1, 146907.11, -138616.34, -1030.6412, 0.00008377261, 0.0016305969, 146910.83, 146910.83, 0.0, 2.5004778, 2.499532 
1.3752632e+1, 8.371294e+1, 149597.1, -133320.55, -1006.3098, 0.00019620088, 0.0014916878, 149600.67, 149600.67, 0.0, 2.500478, 2.4995408 
1.3752633e+1, 8.6212486e+1, 149765.94, -133236.25, -751.1355, 0.00030974593, 0.0013445681, 149767.94, 149767.94, 0.0, 2.5004783, 2.4995408 
1.3752635e+1, 8.871203e+1, 149922.34, -133157.95, -496.4289, 0.00042753186, 0.0011984262, 149923.22, 149923.22, 0.0, 2.5004785, 2.4995408 
1.3752626e+1, 9.121165e+1, 191064.9, -47754.414, 592.66693, -0.001067633, 0.002976075, 191066.38, 191066.38, 0.0, 2.5004787, 2.4996874 
1.3752629e+1, 9.371135e+1, 193330.4, -41646.293, 34.030132, -0.0013335731, 0.0025360982, 193330.4, 193330.4, 0.0, 2.500477, 2.4996986 
1.3752635e+1, 9.6211034e+1, 192433.61, -42067.723, -331.40387, -0.001605617, 0.0020607577, 192434.08, 192434.08, 0.0, 2.5004756, 2.4996989 
1.375264e+1, 9.8710734e+1, 191518.4, -42498.008, -696.5639, -0.0019060161, 0.0015812374, 191520.48, 191520.48, 0.0, 2.500474, 2.4996989 
1.6253069e+1, 1.24916926e+0, -193135.25, -837857.2, 150.7889, 0.0009457289, 0.00002916476, -193135.22, -193135.22, 0.0, 2.50047, 2.4983358 
1.625306e+1, 3.7475076e+0, -193272.38, -838223.0, 127.5638, -0.000019661617, 0.00008816265, -193272.34, -193272.34, 0.0, 2.5004702, 2.4983351 
1.6253051e+1, 6.2458456e+0, -193220.47, -838194.44, 166.7318, -0.0009881398, 0.0001480524, -193220.42, -193220.42, 0.0, 2.5004702, 2.4983351 
1.6253042e+1, 8.7441844e+0, -193169.64, -838166.44, 206.03574, -0.0019597055, 0.00020883384, -193169.58, -193169.58, 0.0, 2.5004702, 2.4983351 
1.6253042e+1, 1.1242598e+1, -151078.7, -750976.2, 297.94983, -0.002025718, 0.00048444507, -151078.56, -151078.56, 0.0, 2.5004704, 2.4984846 
1.6253054e+1, 1.3741086e+1, -150548.52, -750202.8, 124.29588, -0.0010683293, 0.00052241544, -150548.5, -150548.5, 0.0, 2.5004709, 2.4984858 
1.6253063e+1, 1.6239575e+1, -150339.7, -750095.1, 16.938751, -0.00011533771, 0.00056345476, -150339.7, -150339.7, 0.0, 2.500471, 2.4984858 
1.6253072e+1, 1.8738064e+1, -150132.02, -749988.0, -89.65665, 0.0008331019, 0.00060812023, -150132.0, -150132.0, 0.0, 2.5004716, 2.4984858 
1.6253076e+1, 2.1236628e+1, -108719.57, -664115.4, -44.587177, 0.0009817719, 0.0010030953, -108719.56, -108719.56, 0.0, 2.5004718, 2.498633 
1.625307e+1, 2.3735265e+1, -108222.195, -662895.75, -204.15466, 0.00035348567, 0.0010393265, -108222.125, -108222.125, 0.0, 2.5004716, 2.4986353 
1.6253068e+1, 2.6233903e+1, -108336.15, -662943.5, -258.27542, -0.00027862942, 0.0010763003, -108336.02, -108336.02, 0.0, 2.5004714, 2.4986353 
1.6253062e+1, 2.873254e+1, -108451.5, -662991.9, -311.81265, -0.000914646, 0.0011157353, -108451.33, -108451.33, 0.0, 2.500471, 2.4986353 
1.625306e+1, 3.123125e+1, -66744.836, -576983.2, 37.38651, -0.0012497482, 0.0013933954, -66744.836, -66744.836, 0.0, 2.5004718, 2.4987824 
1.6253063e+1, 3.3730033e+1, -65175.484, -574799.9, -19.980808, -0.0011890503, 0.001037469, -65175.484, -65175.484, 0.0, 2.500473, 2.4987855 
1.6253065e+1, 3.6228818e+1, -64498.66, -574466.3, 78.25136, -0.0011329096, 0.00068144273, -64498.65, -64498.65, 0.0, 2.5004742, 2.4987857 
1.6253069e+1, 3.87276e+1, -63823.777, -574133.7, 177.06564, -0.0010816582, 0.00032836015, -63823.715, -63823.715, 0.0, 2.5004754, 2.4987857 
1.6253072e+1, 4.1226465e+1, -22245.252, -487871.7, -9.567916, -0.0009126876, 0.0007321113, -22245.252, -22245.252, 0.0, 2.5004754, 2.4989336 
1.6253076e+1, 4.3725404e+1, -21807.844, -485775.38, -303.15524, -0.0005241995, 0.0008539466, -21807.646, -21807.646, 0.0, 2.5004742, 2.4989378 
1.6253078e+1, 4.6224347e+1, -22550.484, -486124.88, -412.9258, -0.00014287663, 0.0009735432, -22550.117, -22550.117, 0.0, 2.5004728, 2.4989378 
1.6253082e+1, 4.8723286e+1, -23295.846, -486475.7, -522.0481, 0.00023084735, 0.0010955575, -23295.258, -23295.258, 0.0, 2.5004716, 2.4989378 
1.6253084e+1, 5.12223e+1, 17648.53, -401925.03, 104.62663, 0.00011557976, 0.0017844774, 17648.557, 17648.557, 0.0, 2.500472, 2.4990826 
1.6253082e+1, 5.372139e+1, 20275.395, -398238.3, -7.8171363, -0.00025239124, 0.0017950656, 20275.395, 20275.395, 0.0, 2.500474, 2.499088 
1.6253082e+1, 5.622048e+1, 21384.107, -397696.8, 90.8631, -0.00062898715, 0.0018019303, 21384.127, 21384.127, 0.0, 2.500476, 2.499088 
1.6253081e+1, 5.8719563e+1, 22488.957, -397157.16, 190.13934, -0.001015599, 0.0018117055, 22489.045, 22489.045, 0.0, 2.5004778, 2.499088 
1.6253081e+1, 6.121873e+1, 64029.336, -311345.44, -75.01383, -0.0011314494, 0.0023491932, 64029.35, 64029.35, 0.0, 2.5004783, 2.4992352 
1.6253084e+1, 6.3717973e+1, 65041.15, -307990.6, -334.30753, -0.00075436453, 0.0020649487, 65041.445, 65041.445, 0.0, 2.500477, 2.4992416 
1.6253088e+1, 6.621721e+1, 64254.52, -308361.2, -397.88516, -0.00038864647, 0.0017736774, 64254.945, 64254.945, 0.0, 2.5004756, 2.4992416 
1.625309e+1, 6.871645e+1, 63462.824, -308734.22, -461.04965, -0.00003557493, 0.0014835383, 63463.4, 63463.4, 0.0, 2.5004742, 2.4992416 
1.6253091e+1, 7.1215767e+1, 103580.516, -225360.52, 129.16965, -0.000097297656, 0.0021592337, 103580.57, 103580.57, 0.0, 2.5004742, 2.4993846 
1.6253096e+1, 7.3715156e+1, 106178.73, -220741.81, -353.22006, -0.000045727174, 0.001967173, 106179.11, 106179.11, 0.0, 2.5004752, 2.4993923 
1.6253099e+1, 7.6214546e+1, 106656.05, -220513.86, -641.6947, -0.000009758514, 0.001764292, 106657.31, 106657.31, 0.0, 2.500476, 2.4993923 
1.6253102e+1, 7.8713936e+1, 107125.945, -220289.48, -929.67145, 0.000006929684, 0.0015628666, 107128.586, 107128.586, 0.0, 2.5004766, 2.4993923 
1.625311e+1, 8.12134e+1, 147454.86, -137454.73, -929.247, 0.0002891856, 0.0020113473, 147457.89, 147457.89, 0.0, 2.5004778, 2.499534 
1.6253111e+1, 8.371294e+1, 150073.66, -132315.14, -949.4835, 0.0002852366, 0.0018226517, 150076.84, 150076.84, 0.0, 2.500478, 2.4995427 
1.6253111e+1, 8.6212486e+1, 150251.95, -132219.23, -684.15656, 0.0002511379, 0.001622384, 150253.61, 150253.61, 0.0, 2.5004783, 2.4995427 
1.6253111e+1, 8.871202e+1, 150417.81, -132129.31, -419.29736, 0.00019090467, 0.0014197266, 150418.44, 150418.44, 0.0, 2.5004785, 2.4995427 
1.6253099e+1, 9.1211647e+1, 190448.75, -49001.21, 429.73666, -0.0015174525, 0.003040366, 190449.52, 190449.52, 0.0, 2.5004787, 2.4996853 
1.6253108e+1, 9.371134e+1, 192626.31, -43081.152, -173.01268, -0.0014968623, 0.002632371, 192626.44, 192626.44, 0.0, 2.500477, 2.4996963 
1.6253112e+1, 9.621103e+1, 191735.33, -43496.367, -521.17413, -0.0015259216, 0.0021892588, 191736.48, 191736.48, 0.0, 2.5004756, 2.4996963 
1.6253118e+1, 9.871072e+1, 190825.95, -43920.44, -869.0615, -0.001631023, 0.0017399827, 190829.17, 190829.17, 0.0, 2.500474, 2.4996963 
1.8753554e+1, 1.2491699e+0, -193604.08, -837949.8, 175.2683, 0.002281887, 0.00008741087, -193604.03, -193604.03, 0.0, 2.500469, 2.498336 
1.8753535e+1, 3.7475097e+0, -193702.48, -838291.2, 166.08919, 0.00035044883, 0.00026337276, -193702.45, -193702.45, 0.0, 2.5004692, 2.4983356 
1.8753515e+1, 6.24585e+0, -193654.84, -838263.9, 225.6489, -0.0015888647, 0.0004408555, -193654.77, -193654.77, 0.0, 2.5004692, 2.4983356 
1.8753499e+1, 8.744189e+0, -193648.06, -838256.3, 285.45126, -0.0035360537, 0.000619859, -193647.94, -193647.94, 0.0, 2.5004692, 2.4983356 
1.8753499e+1, 1.1242602e+1, -151838.44, -751635.75, 432.5259, -0.0036652228, 0.0007880408, -151838.13, -151838.13, 0.0, 2.5004694, 2.498484 
1.8753517e+1, 1.3741086e+1, -151269.6, -750848.5, 274.09985, -0.0018174227, 0.00048201653, -151269.47, -151269.47, 0.0, 2.50047, 2.498485 
1.8753536e+1, 1.623957e+1, -151048.17, -750733.5, 187.99902, 0.000022901511, 0.0001814398, -151048.11, -151048.11, 0.0, 2.5004704, 2.498485 
1.8753555e+1, 1.8738054e+1, -150857.64, -750633.44, 103.08243, 0.001855541, -0.00011311844, -150857.63, -150857.63, 0.0, 2.5004706, 2.498485 
1.8753563e+1, 2.123662e+1, -109342.28, -664563.7, 91.74553, 0.0022551771, 0.00037478915, -109342.266, -109342.266, 0.0, 2.5004709, 2.4986327 
1.8753551e+1, 2.3735262e+1, -108811.55, -663321.2, -58.10742, 0.001189088, 0.00092511333, -108811.54, -108811.54, 0.0, 2.5004706, 2.4986348 
1.8753542e+1, 2.6233903e+1, -108919.805, -663364.75, -90.030975, 0.0001156756, 0.0014777215, -108919.8, -108919.8, 0.0, 2.5004704, 2.4986348 
1.8753533e+1, 2.8732547e+1, -109053.734, -663420.7, -121.44715, -0.00096501404, 0.002034363, -109053.71, -109053.71, 0.0, 2.5004702, 2.4986348 
1.8753529e+1, 3.1231257e+1, -67038.62, -576772.0, 473.90787, -0.0016801675, 0.0022303583, -67038.18, -67038.18, 0.0, 2.5004709, 2.498783 
1.8753529e+1, 3.3730033e+1, -65470.477, -574636.44, 415.38986, -0.0019259639, 0.0011882824, -65470.137, -65470.137, 0.0, 2.500472, 2.4987862 
1.875353e+1, 3.622881e+1, -64793.69, -574301.6, 539.41473, -0.0021801293, 0.00014714235, -64793.117, -64793.117, 0.0, 2.5004733, 2.4987862 
1.875353e+1, 3.8727587e+1, -64147.55, -573981.6, 664.566, -0.0024430382, -0.0008900377, -64146.688, -64146.688, 0.0, 2.5004745, 2.4987862 
1.8753536e+1, 4.1226453e+1, -22916.68, -488475.38, 157.08116, -0.0020350143, -0.00058928557, -22916.627, -22916.627, 0.0, 2.5004745, 2.4989328 
1.8753548e+1, 4.3725395e+1, -22466.945, -486409.78, -132.22708, -0.00084271166, 0.0000019260654, -22466.908, -22466.908, 0.0, 2.5004733, 2.4989371 
1.8753557e+1, 4.6224338e+1, -23212.885, -486759.97, -209.98508, 0.00033751436, 0.00059185305, -23212.791, -23212.791, 0.0, 2.500472, 2.4989371 
1.8753567e+1, 4.872328e+1, -24000.31, -487130.13, -284.825, 0.0015052324, 0.0011852364, -24000.137, -24000.137, 0.0, 2.5004706, 2.4989371 
1.8753569e+1, 5.12223e+1, 17367.29, -401710.4, 872.43494, 0.0013661647, 0.0020103408, 17369.105, 17369.105, 0.0, 2.5004714, 2.4990835 
1.8753561e+1, 5.3721386e+1, 20016.516, -398068.1, 739.6864, 0.00017585924, 0.0018158752, 20017.824, 20017.824, 0.0, 2.5004733, 2.4990888 
1.8753554e+1, 5.622047e+1, 21136.684, -397521.6, 856.3387, -0.0010300219, 0.0016186616, 21138.436, 21138.436, 0.0, 2.5004752, 2.4990888 
1.8753546e+1, 5.8719563e+1, 22205.152, -397000.0, 977.69104, -0.0022530882, 0.0014253112, 22207.434, 22207.434, 0.0, 2.500477, 2.4990888 
1.8753546e+1, 6.1218727e+1, 63526.785, -311681.1, 264.76746, -0.002533031, 0.0018555667, 63526.97, 63526.97, 0.0, 2.5004776, 2.499235 
1.8753554e+1, 6.371796e+1, 64529.387, -308430.9, -9.326929, -0.0015860123, 0.0015940376, 64529.387, 64529.387, 0.0, 2.5004764, 2.499241 
1.8753561e+1, 6.62172e+1, 63728.195, -308805.03, -57.18766, -0.00066042296, 0.0013256931, 63728.203, 63728.203, 0.0, 2.500475, 2.499241 
1.8753567e+1, 6.871645e+1, 62857.773, -309212.53, -104.946625, 0.00024220669, 0.0010584798, 62857.8, 62857.8, 0.0, 2.5004735, 2.499241 
1.875357e+1, 7.121576e+1, 102691.35, -226541.25, 829.8258, 0.00039636067, 0.0018265586, 102693.445, 102693.445, 0.0, 2.5004735, 2.499383 
1.8753575e+1, 7.371515e+1, 105413.164, -221982.39, 313.0489, 0.00038670006, 0.001843701, 105413.46, 105413.46, 0.0, 2.5004747, 2.4993904 
1.8753578e+1, 7.621454e+1, 105969.6, -221717.48, 17.73493, 0.00034442512, 0.0018503014, 105969.6, 105969.6, 0.0, 2.5004756, 2.4993904 
1.8753582e+1, 7.871393e+1, 106396.54, -221514.95, -274.03296, 0.00026536305, 0.0018583189, 106396.766, 106396.766, 0.0, 2.5004764, 2.4993904 
1.875359e+1, 8.1213397e+1, 147905.11, -136352.47, -320.67453, 0.0005098516, 0.0023909314, 147905.47, 147905.47, 0.0, 2.5004776, 2.499536 
1.875359e+1, 8.3712935e+1, 150578.5, -131297.39, -394.04285, 0.00038276272, 0.0021492592, 150579.05, 150579.05, 0.0, 2.500478, 2.4995444 
1.875359e+1, 8.621248e+1, 150665.92, -131238.19, -127.93194, 0.00019430331, 0.0018926027, 150665.98, 150665.98, 0.0, 2.5004783, 2.4995444 
1.875359e+1, 8.871202e+1, 150522.22, -131290.28, 135.09143, -0.00005052952, 0.001630197, 150522.3, 150522.3, 0.0, 2.500478, 2.4995444 
1.8753575e+1, 9.1211647e+1, 189499.06, -50450.867, 696.02386, -0.0019101617, 0.0031158074, 189501.08, 189501.08, 0.0, 2.500478, 2.4996831 
1.8753582e+1, 9.3711334e+1, 191944.25, -44506.242, 6.9874644, -0.0016072146, 0.002735106, 191944.25, 191944.25, 0.0, 2.500477, 2.4996939 
1.875359e+1, 9.621102e+1, 190924.25, -44980.2, -393.12637, -0.001398172, 0.0023191734, 190924.9, 190924.9, 0.0, 2.5004754, 2.4996939 
1.8753597e+1, 9.871071e+1, 189429.98, -45682.55, -802.09875, -0.001312556, 0.0018950963, 189432.72, 189432.72, 0.0, 2.5004728, 2.4996939 
2.1254024e+1, 1.2491699e+0, -191938.84, -837088.06, 68.78621, 0.0022178825, 0.00008531379, -191938.83, -191938.83, 0.0, 2.5004718, 2.4983363 
2.1254006e+1, 3.7475097e+0, -192593.81, -837690.25, -65.0924, 0.0004142123, 0.00025502327, -192593.8, -192593.8, 0.0, 2.500471, 2.4983356 
2.1253988e+1, 6.24585e+0, -193068.77, -837914.2, -125.31407, -0.0013804495, 0.0004235093, -193068.75, -193068.75, 0.0, 2.5004702, 2.4983356 
2.1253972e+1, 8.744189e+0, -193546.44, -838139.44, -185.16069, -0.0031661028, 0.0005907718, -193546.38, -193546.38, 0.0, 2.5004694, 2.4983356 
2.1253972e+1, 1.1242602e+1, -151831.97, -751634.3, 144.03084, -0.0033106836, 0.00071306044, -151831.94, -151831.94, 0.0, 2.5004694, 2.498484 
2.1253988e+1, 1.3741085e+1, -150893.67, -750678.56, 102.459755, -0.0016577258, 0.00033239624, -150893.66, -150893.66, 0.0, 2.5004706, 2.498485 
2.1254008e+1, 1.6239569e+1, -150265.42, -750365.5, 135.40897, 0.0000016583489, -0.0000490734, -150265.39, -150265.39, 0.0, 2.5004716, 2.498485 
2.1254027e+1, 1.8738052e+1, -149638.0, -750052.9, 168.71945, 0.0016672575, -0.00043078864, -149637.95, -149637.95, 0.0, 2.5004728, 2.498485 
2.1254033e+1, 2.1236616e+1, -107932.82, -663835.2, 120.05287, 0.00205409, 0.00007591721, -107932.79, -107932.79, 0.0, 2.5004733, 2.4986327 
2.1254022e+1, 2.373526e+1, -107539.43, -662673.2, -8.45248, 0.00113695, 0.0007529702, -107539.43, -107539.43, 0.0, 2.5004728, 2.498635 
2.1254015e+1, 2.6233903e+1, -107749.586, -662762.8, -6.2943053, 0.00022317069, 0.0014292161, -107749.586, -107749.586, 0.0, 2.5004725, 2.498635 
2.1254006e+1, 2.8732547e+1, -107960.46, -662852.75, -3.6680834, -0.0006872226, 0.0021064114, -107960.46, -107960.46, 0.0, 2.500472, 2.498635 
2.1254002e+1, 3.1231257e+1, -66171.59, -576072.2, 708.8349, -0.0014137614, 0.002280712, -66170.6, -66170.6, 0.0, 2.500472, 2.4987838 
2.1254002e+1, 3.3730033e+1, -65202.05, -574273.1, 483.23453, -0.001860563, 0.0010849682, -65201.59, -65201.59, 0.0, 2.5004723, 2.498787 
2.1254002e+1, 3.622881e+1, -65060.492, -574190.75, 456.7194, -0.002304908, -0.000112427035, -65060.082, -65060.082, 0.0, 2.5004725, 2.498787 
2.1254e+1, 3.8727584e+1, -64920.555, -574109.2, 431.1797, -0.0027471557, -0.0013084941, -64920.188, -64920.188, 0.0, 2.5004728, 2.498787 
2.1254008e+1, 4.1226447e+1, -23538.871, -488825.06, -227.34036, -0.002346781, -0.0010600459, -23538.762, -23538.762, 0.0, 2.5004735, 2.4989328 
2.125402e+1, 4.3725392e+1, -21960.238, -486272.13, -530.15063, -0.0009864132, -0.0004010166, -21959.633, -21959.633, 0.0, 2.5004745, 2.498937 
2.125403e+1, 4.6224335e+1, -21498.377, -486031.53, -596.8553, 0.0003755287, 0.0002549213, -21497.61, -21497.61, 0.0, 2.5004752, 2.498937 
2.1254042e+1, 4.872328e+1, -21040.998, -485793.13, -661.8593, 0.0017386207, 0.0009124651, -21040.055, -21040.055, 0.0, 2.500476, 2.498937 
2.1254043e+1, 5.12223e+1, 20251.29, -400079.16, 579.16223, 0.0015942211, 0.0017587502, 20252.088, 20252.088, 0.0, 2.500476, 2.499084 
2.1254036e+1, 5.3721386e+1, 21158.027, -397371.06, 215.8888, 0.00022881108, 0.0015758795, 21158.139, 21158.139, 0.0, 2.5004752, 2.499089 
2.1254027e+1, 5.622047e+1, 20648.832, -397600.78, 121.38427, -0.0011321848, 0.0013866631, 20648.867, 20648.867, 0.0, 2.5004742, 2.499089 
2.125402e+1, 5.8719563e+1, 20138.973, -397830.8, 27.305273, -0.002490549, 0.0011975174, 20138.975, 20138.975, 0.0, 2.5004733, 2.499089 
2.125402e+1, 6.121872e+1, 61406.566, -312563.7, -787.87103, -0.00279226, 0.0016469301, 61408.227, 61408.227, 0.0, 2.5004737, 2.4992352 
2.1254027e+1, 6.371796e+1, 63909.563, -308710.8, -1057.4806, -0.0017527845, 0.0014597066, 63912.563, 63912.563, 0.0, 2.5004752, 2.499241 
2.1254034e+1, 6.62172e+1, 64760.066, -308281.88, -1076.2739, -0.00070787285, 0.0012651042, 64763.17, 64763.17, 0.0, 2.5004766, 2.499241 
2.1254043e+1, 6.871645e+1, 65602.195, -307857.0, -1092.3467, 0.00034099023, 0.001070843, 65605.39, 65605.39, 0.0, 2.500478, 2.499241 
2.1254048e+1, 7.121576e+1, 105816.44, -225011.44, 177.98344, 0.00048792802, 0.0018411302, 105816.54, 105816.54, 0.0, 2.5004787, 2.499383 
2.125405e+1, 7.371515e+1, 107377.914, -221164.27, 53.926765, 0.00035833934, 0.0018803034, 107377.92, 107377.92, 0.0, 2.5004783, 2.49939 
2.1254054e+1, 7.621454e+1, 106994.45, -221343.22, 176.75108, 0.00024079267, 0.0019093087, 106994.55, 106994.55, 0.0, 2.5004776, 2.4993901 
2.1254057e+1, 7.871393e+1, 106607.81, -221523.7, 300.80508, 0.0001308736, 0.0019394868, 106608.086, 106608.086, 0.0, 2.5004768, 2.4993901 
2.1254064e+1, 8.1213397e+1, 147833.39, -136072.02, 376.375, 0.0004158343, 0.002541606, 147833.89, 147833.89, 0.0, 2.500477, 2.4995368 
2.1254067e+1, 8.3712935e+1, 150326.9, -131275.17, -254.68095, 0.00034379808, 0.0024357939, 150327.14, 150327.14, 0.0, 2.5004776, 2.4995446 
2.1254069e+1, 8.6212486e+1, 150575.53, -131135.84, -511.0887, 0.00029045556, 0.0023195732, 150576.45, 150576.45, 0.0, 2.5004778, 2.4995446 
2.125407e+1, 8.871203e+1, 150822.95, -130997.09, -765.36847, 0.00026135345, 0.002202099, 150825.03, 150825.03, 0.0, 2.5004783, 2.4995449 
2.1254057e+1, 9.1211647e+1, 190173.28, -50370.574, -195.95168, -0.0016442926, 0.0036618977, 190173.44, 190173.44, 0.0, 2.5004795, 2.4996827 
2.1254063e+1, 9.3711334e+1, 192779.8, -44513.758, -582.6807, -0.001451548, 0.0033425908, 192781.22, 192781.22, 0.0, 2.500479, 2.499693 
2.125407e+1, 9.621102e+1, 192435.5, -44678.39, -593.7588, -0.0011876094, 0.0029918805, 192436.98, 192436.98, 0.0, 2.5004785, 2.499693 
2.1254076e+1, 9.871071e+1, 192029.52, -44872.73, -604.361, -0.0008830483, 0.0026348275, 192031.05, 192031.05, 0.0, 2.5004778, 2.499693 
2.3754479e+1, 1.24916926e+0, -192000.13, -837278.94, -59.72661, 0.00041874422, 0.00003533882, -192000.11, -192000.11, 0.0, 2.5004718, 2.4983358 
2.3754473e+1, 3.7475076e+0, -192652.36, -837871.0, -200.14853, -0.00012533786, 0.00010588724, -192652.3, -192652.3, 0.0, 2.500471, 2.4983354 
2.3754467e+1, 6.245846e+0, -193128.61, -838095.6, -263.74905, -0.00066592183, 0.00017626403, -193128.52, -193128.52, 0.0, 2.5004702, 2.4983354 
2.3754461e+1, 8.7441844e+0, -193606.03, -838320.8, -326.97504, -0.0012030076, 0.00024646908, -193605.88, -193605.88, 0.0, 2.5004694, 2.4983354 
2.3754461e+1, 1.12425976e+1, -151704.17, -751433.4, 278.71246, -0.0013179121, 0.00040888783, -151704.05, -151704.05, 0.0, 2.5004697, 2.4984844 
2.3754469e+1, 1.3741083e+1, -150772.72, -750496.8, 232.60353, -0.00088078174, 0.00023202089, -150772.63, -150772.63, 0.0, 2.5004706, 2.4984853 
2.3754475e+1, 1.6239569e+1, -150140.56, -750180.5, 263.40118, -0.00044031604, 0.00005565263, -150140.44, -150140.44, 0.0, 2.5004718, 2.4984853 
2.3754482e+1, 1.8738054e+1, -149509.27, -749864.6, 294.6618, 0.0000033107626, -0.000119690885, -149509.11, -149509.11, 0.0, 2.5004728, 2.4984853 
2.3754486e+1, 2.1236618e+1, -107846.45, -663728.7, 26.99172, 0.00012780099, 0.0003574146, -107846.45, -107846.45, 0.0, 2.5004733, 2.498633 
2.3754486e+1, 2.373526e+1, -107473.49, -662614.9, -113.189514, -0.000021260921, 0.0007787799, -107473.47, -107473.47, 0.0, 2.500473, 2.498635 
2.3754483e+1, 2.62339e+1, -107679.01, -662700.3, -113.741066, -0.0001705242, 0.0012006131, -107678.984, -107678.984, 0.0, 2.5004725, 2.498635 
2.3754482e+1, 2.873254e+1, -107885.87, -662786.4, -113.57355, -0.0003201109, 0.0016246514, -107885.84, -107885.84, 0.0, 2.500472, 2.498635 
2.3754482e+1, 3.123125e+1, -66112.35, -576042.25, 687.6645, -0.0006788752, 0.0018474782, -66111.42, -66111.42, 0.0, 2.5004723, 2.4987838 
2.3754482e+1, 3.373003e+1, -65183.53, -574321.94, 452.4112, -0.001175691, 0.0010241808, -65183.13, -65183.13, 0.0, 2.5004725, 2.4987867 
2.375448e+1, 3.6228812e+1, -65044.668, -574239.5, 424.3808, -0.0016734614, 0.00020062327, -65044.316, -65044.316, 0.0, 2.5004728, 2.4987867 
2.375448e+1, 3.8727593e+1, -64907.426, -574157.75, 397.14075, -0.002172467, -0.00062027236, -64907.117, -64907.117, 0.0, 2.5004728, 2.4987867 
2.3754483e+1, 4.1226453e+1, -23554.982, -488920.97, -164.46208, -0.0020231218, -0.00037585883, -23554.924, -23554.924, 0.0, 2.5004737, 2.4989326 
2.3754492e+1, 4.3725392e+1, -22043.564, -486491.44, -492.25568, -0.001101534, -0.00006313642, -22043.043, -22043.043, 0.0, 2.5004745, 2.4989364 
2.37545e+1, 4.6224335e+1, -21590.191, -486254.4, -560.53815, -0.00018276, 0.00024837998, -21589.514, -21589.514, 0.0, 2.5004752, 2.4989364 
2.3754509e+1, 4.8723274e+1, -21139.111, -486018.47, -627.99634, 0.0007327189, 0.00056320353, -21138.262, -21138.262, 0.0, 2.500476, 2.4989364 
2.375451e+1, 5.122229e+1, 20192.254, -400230.38, 363.94116, 0.0006328326, 0.0012916839, 20192.57, 20192.57, 0.0, 2.500476, 2.4990838 
2.3754506e+1, 5.372138e+1, 20996.463, -397725.16, -10.855095, -0.00019021776, 0.0012895587, 20996.463, 20996.463, 0.0, 2.5004752, 2.4990885 
2.3754501e+1, 5.6220466e+1, 20480.467, -397956.9, -106.5909, -0.0010142145, 0.0012827808, 20480.494, 20480.494, 0.0, 2.5004742, 2.4990885 
2.3754497e+1, 5.871956e+1, 19961.742, -398189.97, -201.44318, -0.0018409143, 0.0012774057, 19961.84, 19961.84, 0.0, 2.5004733, 2.4990885 
2.37545e+1, 6.121872e+1, 61450.516, -312461.78, -656.6826, -0.0020412486, 0.0018341845, 61451.668, 61451.668, 0.0, 2.5004737, 2.4992354 
2.3754506e+1, 6.371796e+1, 63857.215, -308802.03, -942.13776, -0.0013613724, 0.0017150667, 63859.594, 63859.594, 0.0, 2.5004752, 2.4992409 
2.375451e+1, 6.62172e+1, 64702.92, -308376.78, -965.48596, -0.00068217074, 0.0015902491, 64705.42, 64705.42, 0.0, 2.5004766, 2.499241 
2.3754519e+1, 6.8716437e+1, 65545.18, -307953.22, -988.2003, -0.000005025056, 0.0014672367, 65547.79, 65547.79, 0.0, 2.500478, 2.499241 
2.375452e+1, 7.121576e+1, 106163.26, -224295.14, -13.760848, -0.000058856076, 0.0020941894, 106163.26, 106163.26, 0.0, 2.5004787, 2.4993844 
2.3754522e+1, 7.371515e+1, 107595.02, -220708.23, -176.23233, -0.00021930833, 0.0019008333, 107595.12, 107595.12, 0.0, 2.5004783, 2.4993908 
2.3754524e+1, 7.621453e+1, 107207.11, -220888.97, -58.386402, -0.00037740884, 0.0016987743, 107207.12, 107207.12, 0.0, 2.5004776, 2.4993908 
2.3754527e+1, 7.871392e+1, 106814.41, -221072.02, 59.740585, -0.00053753855, 0.0014984743, 106814.42, 106814.42, 0.0, 2.5004768, 2.4993908 
2.3754536e+1, 8.1213385e+1, 147507.17, -136749.03, 301.482, -0.0001472172, 0.0020914197, 147507.48, 147507.48, 0.0, 2.500477, 2.4995356 
2.3754542e+1, 8.371293e+1, 149848.08, -132249.47, -358.2298, 0.00005335933, 0.00222966, 149848.53, 149848.53, 0.0, 2.5004776, 2.499543 
2.3754545e+1, 8.621248e+1, 150075.75, -132124.17, -616.9994, 0.0002580952, 0.00235818, 150077.11, 150077.11, 0.0, 2.5004778, 2.499543 
2.375455e+1, 8.871202e+1, 150296.92, -132002.02, -875.4105, 0.0004724083, 0.0024859805, 150299.63, 150299.63, 0.0, 2.5004783, 2.4995432 
2.3754537e+1, 9.121164e+1, 190274.52, -50065.633, -322.4587, -0.0013928518, 0.003963234, 190274.94, 190274.94, 0.0, 2.5004795, 2.4996831 
2.3754542e+1, 9.3711334e+1, 192736.6, -44473.484, -819.65063, -0.0013964599, 0.0037226018, 192739.42, 192739.42, 0.0, 2.500479, 2.4996932 
2.3754548e+1, 9.621102e+1, 192414.33, -44620.285, -810.66895, -0.001364806, 0.00344868, 192417.11, 192417.11, 0.0, 2.5004783, 2.4996932 
2.375455e+1, 9.871071e+1, 192075.17, -44775.227, -801.80585, -0.0013281651, 0.0031643072, 192077.89, 192077.89, 0.0, 2.5004778, 2.4996932 
2.6254934e+1, 1.2491685e+0, -192102.44, -837490.4, -186.8614, -0.0013803187, -0.000015439877, -192102.39, -192102.39, 0.0, 2.5004718, 2.4983356 
2.6254937e+1, 3.7475055e+0, -192751.48, -838073.5, -327.58218, -0.00066460966, -0.00004566008, -192751.33, -192751.33, 0.0, 2.500471, 2.498335 
2.6254943e+1, 6.2458426e+0, -193229.19, -838298.9, -389.3203, 0.0000490866, -0.00007500021, -193228.95, -193228.95, 0.0, 2.5004702, 2.498335 
2.625495e+1, 8.7441796e+0, -193708.06, -838524.8, -450.68387, 0.00076077005, -0.0001034604, -193707.75, -193707.75, 0.0, 2.5004694, 2.498335 
2.6254952e+1, 1.1242593e+1, -151629.84, -751272.1, 436.87073, 0.00067531795, 0.00010423245, -151629.52, -151629.52, 0.0, 2.5004697, 2.4984846 
2.625495e+1, 1.374108e+1, -150702.66, -750341.8, 389.27713, -0.00010442448, 0.00012772868, -150702.4, -150702.4, 0.0, 2.5004706, 2.4984856 
2.6254943e+1, 1.6239569e+1, -150071.31, -750024.56, 421.74268, -0.00088392076, 0.00015301032, -150071.02, -150071.02, 0.0, 2.5004718, 2.4984856 
2.625494e+1, 1.8738057e+1, -149440.81, -749707.75, 454.67114, -0.00166331, 0.00018058656, -149440.47, -149440.47, 0.0, 2.5004728, 2.4984856 
2.6254943e+1, 2.123662e+1, -107838.26, -663682.0, -31.094496, -0.0017931014, 0.00063740485, -107838.26, -107838.26, 0.0, 2.5004733, 2.498633 
2.625495e+1, 2.3735258e+1, -107478.52, -662592.56, -175.42873, -0.0011754846, 0.0008000103, -107478.47, -107478.47, 0.0, 2.5004728, 2.498635 
2.6254952e+1, 2.6233897e+1, -107684.75, -662676.4, -174.277, -0.00056167104, 0.00096430274, -107684.695, -107684.695, 0.0, 2.5004725, 2.498635 
2.6254958e+1, 2.8732535e+1, -107892.32, -662760.9, -172.40619, 0.00004810941, 0.0011320561, -107892.266, -107892.266, 0.0, 2.500472, 2.498635 
2.6254964e+1, 3.1231248e+1, -66146.53, -576076.9, 720.64233, 0.00006174771, 0.0014097454, -66145.51, -66145.51, 0.0, 2.500472, 2.4987838 
2.625496e+1, 3.373003e+1, -65245.71, -574411.06, 478.53662, -0.00048531962, 0.0009565522, -65245.26, -65245.26, 0.0, 2.5004723, 2.4987864 
2.6254958e+1, 3.6228812e+1, -65108.297, -574327.9, 451.94763, -0.0010367882, 0.00050443044, -65107.9, -65107.9, 0.0, 2.5004725, 2.4987867 
2.6254958e+1, 3.8727596e+1, -64972.504, -574245.44, 426.149, -0.0015928255, 0.00005630463, -64972.145, -64972.145, 0.0, 2.5004728, 2.4987867 
2.625496e+1, 4.1226456e+1, -23658.783, -489080.25, -36.373985, -0.0016950214, 0.00030648024, -23658.781, -23658.781, 0.0, 2.5004735, 2.4989324 
2.6254964e+1, 4.3725395e+1, -22195.307, -486745.06, -384.95258, -0.0012111978, 0.00027014661, -22194.986, -22194.986, 0.0, 2.5004742, 2.498936 
2.625497e+1, 4.6224332e+1, -21744.838, -486508.9, -451.3001, -0.0007345696, 0.00023438985, -21744.398, -21744.398, 0.0, 2.5004752, 2.4989362 
2.6254976e+1, 4.8723266e+1, -21296.662, -486273.84, -516.8233, -0.0002656817, 0.00020364128, -21296.088, -21296.088, 0.0, 2.500476, 2.4989362 
2.6254976e+1, 5.122228e+1, 20065.17, -400433.47, 231.30656, -0.00031604688, 0.00082116877, 20065.297, 20065.297, 0.0, 2.500476, 2.4990833 
2.6254976e+1, 5.372137e+1, 20781.418, -398106.25, -153.09174, -0.0005959422, 0.0009967326, 20781.475, 20781.475, 0.0, 2.500475, 2.4990878 
2.6254976e+1, 5.622046e+1, 20263.135, -398337.84, -246.71149, -0.0008821947, 0.0011692485, 20263.281, 20263.281, 0.0, 2.5004742, 2.4990878 
2.6254976e+1, 5.871955e+1, 19742.121, -398570.75, -339.44772, -0.0011764847, 0.0013444994, 19742.396, 19742.396, 0.0, 2.5004733, 2.4990878 
2.625498e+1, 6.1218715e+1, 61438.84, -312415.84, -429.93796, -0.001283424, 0.0020223516, 61439.336, 61439.336, 0.0, 2.5004737, 2.4992356 
2.6254985e+1, 6.3717955e+1, 63768.29, -308912.28, -728.0252, -0.0009608311, 0.001967771, 63769.71, 63769.71, 0.0, 2.5004752, 2.4992409 
2.6254988e+1, 6.62172e+1, 64610.383, -308490.16, -748.71576, -0.0006449146, 0.0019089793, 64611.883, 64611.883, 0.0, 2.5004766, 2.4992409 
2.625499e+1, 6.8716437e+1, 65449.016, -308069.7, -768.77246, -0.00033706182, 0.001853456, 65450.598, 65450.598, 0.0, 2.500478, 2.4992409 
2.6254994e+1, 7.121575e+1, 106456.875, -223628.97, -78.17821, -0.00058819656, 0.0023471247, 106456.9, 106456.9, 0.0, 2.5004787, 2.4993856 
2.6254997e+1, 7.371514e+1, 107777.4, -220269.86, -276.1729, -0.00077764783, 0.0019189015, 107777.63, 107777.63, 0.0, 2.500478, 2.4993916 
2.6254997e+1, 7.621453e+1, 107387.38, -220451.27, -154.97174, -0.0009744767, 0.0014832811, 107387.46, 107387.46, 0.0, 2.5004776, 2.4993916 
2.6254997e+1, 7.871391e+1, 106992.59, -220634.97, -33.489525, -0.0011829912, 0.0010500058, 106992.59, 106992.59, 0.0, 2.5004768, 2.4993916 
2.6255006e+1, 8.121338e+1, 147144.48, -137468.45, 388.88776, -0.0007000354, 0.0016414706, 147145.02, 147145.02, 0.0, 2.500477, 2.4995344 
2.6255015e+1, 8.3712924e+1, 149358.44, -133230.17, -296.05725, -0.0002234178, 0.0020213865, 149358.73, 149358.73, 0.0, 2.5004776, 2.4995413 
2.6255023e+1, 8.621247e+1, 149581.75, -133110.9, -550.0915, 0.00024302572, 0.0023921381, 149582.81, 149582.81, 0.0, 2.5004778, 2.4995413 
2.625503e+1, 8.871201e+1, 149798.56, -132994.8, -803.7674, 0.0007043839, 0.0027627028, 149800.84, 149800.84, 0.0, 2.5004783, 2.4995415 
2.625502e+1, 9.121164e+1, 190421.7, -49765.813, -256.77185, -0.0011101477, 0.004275347, 190421.98, 190421.98, 0.0, 2.5004795, 2.4996836 
2.6255023e+1, 9.371133e+1, 192780.3, -44393.098, -881.827, -0.0013140755, 0.004108366, 192783.58, 192783.58, 0.0, 2.500479, 2.4996932 
2.6255023e+1, 9.6211016e+1, 192464.86, -44529.4, -859.049, -0.0015188372, 0.0039058907, 192467.97, 192467.97, 0.0, 2.5004783, 2.4996932 
2.6255026e+1, 9.8710704e+1, 192132.52, -44673.844, -836.38965, -0.0017542724, 0.0036888565, 192135.47, 192135.47, 0.0, 2.5004778, 2.4996932 
2.8755388e+1, 1.2491678e+0, -193232.53, -838197.6, -304.4097, -0.0031785993, -0.000067042456, -193232.38, -193232.38, 0.0, 2.5004702, 2.4983351 
2.8755406e+1, 3.7475032e+0, -193821.73, -838746.06, -423.8526, -0.0012029803, -0.00019968057, -193821.45, -193821.45, 0.0, 2.5004694, 2.4983346 
2.8755423e+1, 6.245839e+0, -194279.44, -838961.8, -462.85065, 0.0007651568, -0.00033038892, -194279.11, -194279.11, 0.0, 2.5004687, 2.4983346 
2.8755438e+1, 8.744175e+0, -194774.4, -839195.56, -501.49304, 0.002725812, -0.0004591677, -194774.02, -194774.02, 0.0, 2.5004678, 2.4983346 
2.875544e+1, 1.1242588e+1, -152533.53, -751595.9, 687.7213, 0.0026695882, -0.00020109417, -152532.73, -152532.73, 0.0, 2.500468, 2.4984848 
2.8755426e+1, 1.3741079e+1, -151586.67, -750648.6, 653.98596, 0.0006719036, 0.00001930324, -151585.95, -151585.95, 0.0, 2.500469, 2.4984858 
2.8755412e+1, 1.6239569e+1, -150956.56, -750330.6, 702.95264, -0.0013286105, 0.00024275454, -150955.73, -150955.73, 0.0, 2.5004702, 2.4984858 
2.8755397e+1, 1.8738058e+1, -150344.36, -750021.3, 751.02606, -0.0033320598, 0.00046976903, -150343.42, -150343.42, 0.0, 2.500471, 2.498486 
2.8755397e+1, 2.1236622e+1, -108807.1, -664128.2, 61.47101, -0.003708104, 0.00091559044, -108807.09, -108807.09, 0.0, 2.5004716, 2.4986331 
2.875541e+1, 2.3735258e+1, -108419.65, -663022.94, -60.896385, -0.002325257, 0.00081634824, -108419.64, -108419.64, 0.0, 2.5004714, 2.498635 
2.8755423e+1, 2.6233894e+1, -108622.14, -663103.0, -34.342934, -0.00094982533, 0.0007199566, -108622.14, -108622.14, 0.0, 2.5004709, 2.498635 
2.8755435e+1, 2.873253e+1, -108850.445, -663195.5, -6.5496435, 0.00041789282, 0.0006282817, -108850.445, -108850.445, 0.0, 2.5004704, 2.4986353 
2.875544e+1, 3.1231242e+1, -67140.22, -576593.06, 1002.8192, 0.0008085449, 0.0009671542, -67138.25, -67138.25, 0.0, 2.5004706, 2.4987838 
2.8755438e+1, 3.373003e+1, -66224.88, -574943.1, 780.0662, 0.00021093668, 0.00088170735, -66223.69, -66223.69, 0.0, 2.5004709, 2.4987864 
2.8755438e+1, 3.6228812e+1, -66075.445, -574852.75, 782.2098, -0.00039453388, 0.00079860206, -66074.24, -66074.24, 0.0, 2.500471, 2.4987864 
2.8755438e+1, 3.87276e+1, -65946.18, -574772.0, 786.54877, -0.0010078863, 0.0007208255, -65944.97, -65944.97, 0.0, 2.500471, 2.4987864 
2.8755438e+1, 4.1226465e+1, -24670.03, -489697.53, 455.7968, -0.0013621696, 0.0009865743, -24669.584, -24669.584, 0.0, 2.500472, 2.4989321 
2.8755438e+1, 4.3725395e+1, -23212.479, -487416.75, 125.44943, -0.0013151448, 0.0005984807, -23212.445, -23212.445, 0.0, 2.5004728, 2.4989357 
2.8755438e+1, 4.6224326e+1, -22759.24, -487178.72, 96.25797, -0.0012796557, 0.00021263768, -22759.22, -22759.22, 0.0, 2.5004735, 2.4989357 
2.8755438e+1, 4.872326e+1, -22331.879, -486953.13, 64.84266, -0.0012563174, -0.00016650233, -22331.87, -22331.87, 0.0, 2.5004742, 2.4989357 
2.8755444e+1, 5.1222277e+1, 19082.38, -401067.66, 598.70306, -0.0012521753, 0.00034694973, 19083.234, 19083.234, 0.0, 2.5004745, 2.499083 
2.8755447e+1, 5.372136e+1, 19801.918, -398856.6, 228.03648, -0.000988186, 0.00069717463, 19802.041, 19802.041, 0.0, 2.5004737, 2.499087 
2.875545e+1, 5.6220454e+1, 19326.916, -399066.06, 161.61491, -0.0007359792, 0.0010458744, 19326.979, 19326.979, 0.0, 2.5004728, 2.4990873 
2.8755456e+1, 5.8719546e+1, 18813.23, -399294.16, 97.16818, -0.0004971086, 0.0013986478, 18813.252, 18813.252, 0.0, 2.5004718, 2.4990873 
2.8755462e+1, 6.1218715e+1, 60742.094, -312728.78, 390.04507, -0.000518641, 0.002211331, 60742.504, 60742.504, 0.0, 2.5004725, 2.4992356 
2.8755462e+1, 6.3717955e+1, 63091.97, -309306.56, 85.39503, -0.0005510441, 0.0022177764, 63091.99, 63091.99, 0.0, 2.500474, 2.4992406 
2.8755465e+1, 6.6217196e+1, 63990.344, -308858.7, 70.45116, -0.0005959885, 0.0022213105, 63990.355, 63990.355, 0.0, 2.5004756, 2.4992406 
2.8755465e+1, 6.8716437e+1, 64862.563, -308423.44, 52.48358, -0.00065497635, 0.0022295786, 64862.566, 64862.566, 0.0, 2.500477, 2.4992409 
2.8755465e+1, 7.121575e+1, 106330.72, -223189.16, 453.25046, -0.0010999463, 0.0026000831, 106331.34, 106331.34, 0.0, 2.500478, 2.4993865 
2.8755465e+1, 7.371513e+1, 107681.445, -219966.11, 199.11536, -0.001316545, 0.001934729, 107681.56, 107681.56, 0.0, 2.5004776, 2.4993923 
2.8755465e+1, 7.621452e+1, 107372.266, -220108.2, 311.57898, -0.001550247, 0.0012631245, 107372.56, 107372.56, 0.0, 2.500477, 2.4993923 
2.8755465e+1, 7.8713906e+1, 107015.49, -220273.22, 429.55734, -0.0018052486, 0.0005944494, 107016.055, 107016.055, 0.0, 2.5004764, 2.4993923 
2.8755477e+1, 8.121337e+1, 146693.66, -138254.8, 1034.2135, -0.0012423514, 0.0011922128, 146697.4, 146697.4, 0.0, 2.5004768, 2.499533 
2.875549e+1, 8.3712924e+1, 148918.64, -134187.63, 318.13416, -0.00048626887, 0.0018115296, 148919.0, 148919.0, 0.0, 2.5004776, 2.4995396 
2.87555e+1, 8.621246e+1, 149209.73, -134039.66, 72.94367, 0.00024555824, 0.002422107, 149209.75, 149209.75, 0.0, 2.500478, 2.4995396 
2.875551e+1, 8.8712007e+1, 149440.58, -133920.7, -169.55753, 0.0009576897, 0.0030330291, 149440.67, 149440.67, 0.0, 2.5004783, 2.4995396 
2.8755504e+1, 9.121163e+1, 190722.8, -49418.676, 344.03372, -0.000795675, 0.004599094, 190723.3, 190723.3, 0.0, 2.5004797, 2.499684 
2.87555e+1, 9.3711317e+1, 192971.1, -44243.113, -501.38824, -0.0012037222, 0.0045008375, 192972.16, 192972.16, 0.0, 2.5004792, 2.4996934 
2.87555e+1, 9.6211004e+1, 192490.53, -44451.684, -551.2989, -0.0016486994, 0.0043645776, 192491.81, 192491.81, 0.0, 2.5004783, 2.4996934 
2.8755498e+1, 9.8710704e+1, 191841.97, -44741.15, -605.4403, -0.0021598628, 0.0042096665, 191843.53, 191843.53, 0.0, 2.500477, 2.4996934 
3.1255856e+1, 1.2491675e+0, -193497.92, -838315.4, -206.31914, -0.0033066722, -0.00010279024, -193497.86, -193497.86, 0.0, 2.5004697, 2.4983354 
3.1255877e+1, 3.747502e+0, -192613.67, -838146.94, -287.1559, -0.0011213577, -0.00030771137, -192613.55, -192613.55, 0.0, 2.5004714, 2.4983346 
3.1255895e+1, 6.245837e+0, -191566.77, -837638.0, -288.585, 0.0010726671, -0.00051175273, -191566.64, -191566.64, 0.0, 2.5004733, 2.4983346 
3.1255916e+1, 8.744172e+0, -190521.44, -837129.9, -289.9988, 0.003275402, -0.00071491435, -190521.31, -190521.31, 0.0, 2.500475, 2.4983346 
3.125592e+1, 1.12425864e+1, -148373.67, -749477.9, 744.81104, 0.003248766, -0.00042112317, -148372.75, -148372.75, 0.0, 2.500475, 2.498485 
3.12559e+1, 1.3741077e+1, -149248.94, -749412.9, 635.2787, 0.0010503326, -0.000053505126, -149248.27, -149248.27, 0.0, 2.500473, 2.498486 
3.1255883e+1, 1.6239569e+1, -150422.39, -749966.4, 610.49036, -0.0011461376, 0.00031590287, -150421.77, -150421.77, 0.0, 2.5004709, 2.498486 
3.1255865e+1, 1.873806e+1, -151596.31, -750520.2, 585.7969, -0.0033407386, 0.00068760815, -151595.75, -151595.75, 0.0, 2.500469, 2.4984863 
3.1255865e+1, 2.1236625e+1, -110257.37, -664772.2, 49.95199, -0.0037995372, 0.0011020845, -110257.36, -110257.36, 0.0, 2.500469, 2.4986331 
3.1255877e+1, 2.3735258e+1, -108409.99, -662989.3, -149.8181, -0.0023835523, 0.00080496, -108409.95, -108409.95, 0.0, 2.500471, 2.498635 
3.1255895e+1, 2.6233894e+1, -107109.96, -662342.75, -202.59663, -0.0009638701, 0.0005104932, -107109.88, -107109.88, 0.0, 2.5004735, 2.4986353 
3.1255907e+1, 2.8732526e+1, -105810.15, -661696.25, -255.40157, 0.0004592021, 0.00022052159, -105810.03, -105810.03, 0.0, 2.5004756, 2.4986353 
3.1255916e+1, 3.1231236e+1, -63823.47, -574955.1, 474.65216, 0.0009387902, 0.0005420041, -63823.027, -63823.027, 0.0, 2.5004761, 2.4987838 
3.1255916e+1, 3.3730027e+1, -63846.48, -573783.6, 189.9575, 0.00043561027, 0.0006184439, -63846.41, -63846.41, 0.0, 2.500475, 2.4987864 
3.1255913e+1, 3.6228812e+1, -64596.0, -574119.2, 131.01476, -0.000068277026, 0.00069679884, -64595.97, -64595.97, 0.0, 2.5004735, 2.4987864 
3.1255913e+1, 3.8727605e+1, -65346.105, -574455.0, 72.58225, -0.0005727936, 0.0007800759, -65346.094, -65346.094, 0.0, 2.5004723, 2.4987864 
3.1255913e+1, 4.1226465e+1, -24371.594, -489320.63, -0.70384896, -0.0010127354, 0.0010888415, -24371.594, -24371.594, 0.0, 2.5004723, 2.4989326 
3.125591e+1, 4.3725395e+1, -22770.76, -487052.0, -258.36063, -0.0012397958, 0.000646976, -22770.615, -22770.615, 0.0, 2.5004733, 2.498936 
3.125591e+1, 4.6224326e+1, -22097.346, -486702.47, -204.57507, -0.0014660993, 0.00020530715, -22097.256, -22097.256, 0.0, 2.5004745, 2.498936 
3.125591e+1, 4.872326e+1, -21429.346, -486355.53, -146.0434, -0.0016922907, -0.00023182848, -21429.299, -21429.299, 0.0, 2.5004756, 2.4989362 
3.1255913e+1, 5.1222277e+1, 20284.316, -400241.22, 292.0722, -0.0016973374, 0.0002345619, 20284.52, 20284.52, 0.0, 2.5004761, 2.4990835 
3.125592e+1, 5.372136e+1, 21197.21, -398060.25, 37.97536, -0.0012249803, 0.0005835553, 21197.215, 21197.215, 0.0, 2.500476, 2.4990876 
3.1255925e+1, 5.6220454e+1, 21031.688, -398116.47, 94.83488, -0.00075178454, 0.0009346109, 21031.709, 21031.709, 0.0, 2.5004756, 2.4990876 
3.125593e+1, 5.8719546e+1, 20865.469, -398173.0, 151.43181, -0.0002791362, 0.0012931658, 20865.523, 20865.523, 0.0, 2.5004752, 2.4990876 
3.1255937e+1, 6.1218715e+1, 62623.863, -311657.25, 759.7521, -0.00027681116, 0.0021060833, 62625.406, 62625.406, 0.0, 2.5004756, 2.4992359 
3.1255937e+1, 6.3717955e+1, 64084.113, -308801.94, 388.84598, -0.00048836414, 0.0021361264, 64084.52, 64084.52, 0.0, 2.5004756, 2.4992406 
3.1255937e+1, 6.6217196e+1, 64199.46, -308724.94, 335.49753, -0.00070352276, 0.0021632125, 64199.76, 64199.76, 0.0, 2.500476, 2.4992409 
3.125594e+1, 6.8716437e+1, 64310.188, -308650.16, 286.46274, -0.00092388334, 0.0021947864, 64310.406, 64310.406, 0.0, 2.5004761, 2.4992409 
3.125594e+1, 7.121575e+1, 105741.59, -223006.95, 506.24423, -0.0014095948, 0.0025681714, 105742.375, 105742.375, 0.0, 2.5004766, 2.4993877 
3.125594e+1, 7.371514e+1, 107183.71, -219910.69, 98.66615, -0.0015849586, 0.0019793895, 107183.74, 107183.74, 0.0, 2.5004764, 2.499393 
3.125594e+1, 7.621452e+1, 107129.445, -219918.33, 87.90289, -0.0017637649, 0.0013834186, 107129.47, 107129.47, 0.0, 2.5004764, 2.499393 
3.125594e+1, 7.871391e+1, 107074.53, -219926.28, 75.92792, -0.0019498514, 0.00078880857, 107074.555, 107074.555, 0.0, 2.5004761, 2.499393 
3.1255952e+1, 8.121338e+1, 146827.98, -138121.34, 991.0803, -0.0014138403, 0.0013815209, 146831.44, 146831.44, 0.0, 2.500477, 2.4995332 
3.1255963e+1, 8.3712924e+1, 149046.58, -134242.58, 566.8023, -0.0006994056, 0.0019471762, 149047.72, 149047.72, 0.0, 2.5004778, 2.4995394 
3.1255975e+1, 8.621246e+1, 149514.55, -133994.1, 641.2421, 0.0000059785816, 0.0025045753, 149516.0, 149516.0, 0.0, 2.5004785, 2.4995394 
3.1255987e+1, 8.8712007e+1, 149985.06, -133744.39, 716.92194, 0.0007062437, 0.0030625805, 149986.88, 149986.88, 0.0, 2.5004795, 2.4995396 
3.1255978e+1, 9.121163e+1, 191225.25, -48559.184, 1386.8173, -0.0008621355, 0.0046035564, 191233.27, 191233.27, 0.0, 2.50048, 2.4996855 
3.1255978e+1, 9.3711317e+1, 192251.52, -44187.844, 590.845, -0.0010600173, 0.004771267, 192253.0, 192253.0, 0.0, 2.5004776, 2.499694 
3.1255978e+1, 9.6211016e+1, 190832.66, -44843.89, 743.7516, -0.0012622208, 0.004907963, 190835.0, 190835.0, 0.0, 2.500475, 2.4996943 
3.1255978e+1, 9.871071e+1, 189397.9, -45507.598, 902.6524, -0.0014963802, 0.0050310683, 189401.38, 189401.38, 0.0, 2.5004725, 2.4996943 
3.3756337e+1, 1.2491673e+0, -193363.58, -838252.06, 52.793156, -0.0023950501, -0.00010661182, -193363.58, -193363.58, 0.0, 2.50047, 2.4983351 
3.375635e+1, 3.747502e+0, -192473.14, -838071.25, -33.277824, -0.0009617093, -0.0003189909, -192473.14, -192473.14, 0.0, 2.5004716, 2.4983346 
3.3756363e+1, 6.2458366e+0, -191424.94, -837561.2, -42.82877, 0.00047600357, -0.00053024327, -191424.94, -191424.94, 0.0, 2.5004735, 2.4983346 
3.3756378e+1, 8.744171e+0, -190377.64, -837051.6, -52.193035, 0.0019180884, -0.000740369, -190377.64, -190377.64, 0.0, 2.5004752, 2.4983346 
3.375638e+1, 1.12425864e+1, -148265.88, -749473.7, 389.45074, 0.0019224924, -0.0003955226, -148265.63, -148265.63, 0.0, 2.5004752, 2.4984848 
3.375637e+1, 1.3741079e+1, -149145.5, -749421.3, 276.9416, 0.00055644586, 0.000090655674, -149145.38, -149145.38, 0.0, 2.5004733, 2.498486 
3.375636e+1, 1.623957e+1, -150316.06, -749972.4, 246.29689, -0.00080957345, 0.00057915016, -150315.95, -150315.95, 0.0, 2.500471, 2.498486 
3.3756348e+1, 1.8738064e+1, -151487.23, -750523.75, 216.13167, -0.002175665, 0.0010704615, -151487.16, -151487.16, 0.0, 2.5004692, 2.498486 
3.3756348e+1, 2.1236628e+1, -110162.93, -664797.8, 307.1067, -0.0025346223, 0.0014556759, -110162.76, -110162.76, 0.0, 2.5004692, 2.498633 
3.3756354e+1, 2.373526e+1, -108354.67, -663094.06, 109.61793, -0.0017656811, 0.0010425386, -108354.65, -108354.65, 0.0, 2.5004714, 2.4986348 
3.3756366e+1, 2.623389e+1, -107055.95, -662446.8, 56.867645, -0.0009958433, 0.0006327633, -107055.95, -107055.95, 0.0, 2.5004737, 2.4986348 
3.3756378e+1, 2.8732523e+1, -105758.445, -661800.06, 4.7778172, -0.00022538929, 0.00022802988, -105758.445, -105758.445, 0.0, 2.500476, 2.498635 
3.375638e+1, 3.1231236e+1, -63771.625, -575043.5, 193.09491, 0.000068005276, 0.00047035297, -63771.555, -63771.555, 0.0, 2.5004764, 2.4987836 
3.375638e+1, 3.373002e+1, -63827.223, -573932.2, -88.15058, -0.00015022291, 0.0005173535, -63827.207, -63827.207, 0.0, 2.5004752, 2.498786 
3.375638e+1, 3.622881e+1, -64580.418, -574267.9, -147.92479, -0.0003714824, 0.00056708854, -64580.375, -64580.375, 0.0, 2.5004737, 2.4987862 
3.3756387e+1, 3.8727596e+1, -65334.848, -574604.2, -206.85909, -0.0005956703, 0.0006225292, -65334.766, -65334.766, 0.0, 2.5004723, 2.4987862 
3.3756387e+1, 4.122646e+1, -24092.742, -488892.0, 74.357475, -0.00092336093, 0.0009911624, -24092.73, -24092.73, 0.0, 2.5004723, 2.4989333 
3.3756387e+1, 4.3725395e+1, -22579.756, -486787.7, -168.87953, -0.0012185362, 0.00075821165, -22579.693, -22579.693, 0.0, 2.5004735, 2.4989364 
3.375638e+1, 4.6224326e+1, -21914.098, -486439.88, -114.75677, -0.0015174095, 0.0005257899, -21914.07, -21914.07, 0.0, 2.5004747, 2.4989364 
3.375638e+1, 4.8723263e+1, -21250.475, -486093.03, -59.83825, -0.0018205951, 0.00029796653, -21250.467, -21250.467, 0.0, 2.5004756, 2.4989364 
3.3756387e+1, 5.1222277e+1, 20532.262, -399818.3, 152.2264, -0.0018802171, 0.00075253943, 20532.316, 20532.316, 0.0, 2.5004764, 2.4990842 
3.375639e+1, 5.372137e+1, 21354.918, -397813.34, -104.87892, -0.0014714438, 0.00089691224, 21354.945, 21354.945, 0.0, 2.500476, 2.4990878 
3.3756396e+1, 5.6220454e+1, 21182.393, -397870.94, -48.873432, -0.0010666704, 0.0010433382, 21182.398, 21182.398, 0.0, 2.5004756, 2.4990878 
3.3756402e+1, 5.8719546e+1, 21007.78, -397929.5, 7.8893347, -0.0006671004, 0.001197112, 21007.78, 21007.78, 0.0, 2.5004754, 2.499088 
3.3756405e+1, 6.1218715e+1, 62661.28, -311621.53, 701.8774, -0.00068438065, 0.0018226006, 62662.598, 62662.598, 0.0, 2.5004756, 2.4992359 
3.3756408e+1, 6.371795e+1, 63986.336, -309026.94, 311.4031, -0.0008719056, 0.0017788016, 63986.598, 63986.598, 0.0, 2.5004756, 2.4992404 
3.3756408e+1, 6.6217184e+1, 64096.047, -308949.38, 252.20334, -0.0010681589, 0.0017316944, 64096.22, 64096.22, 0.0, 2.500476, 2.4992404 
3.375641e+1, 6.871643e+1, 64203.2, -308873.03, 193.5836, -0.001274685, 0.0016881452, 64203.3, 64203.3, 0.0, 2.5004761, 2.4992404 
3.375641e+1, 7.121574e+1, 105829.89, -222822.22, 373.0673, -0.0016419152, 0.002127772, 105830.31, 105830.31, 0.0, 2.5004766, 2.499388 
3.375641e+1, 7.371513e+1, 107139.38, -219991.25, -66.73303, -0.0016902707, 0.0018531226, 107139.4, 107139.4, 0.0, 2.5004764, 2.499393 
3.3756417e+1, 7.621452e+1, 107076.21, -220001.27, -84.03464, -0.0017499685, 0.0015709515, 107076.234, 107076.234, 0.0, 2.5004764, 2.499393 
3.3756417e+1, 7.871391e+1, 107009.836, -220012.83, -100.918465, -0.001824176, 0.0012891758, 107009.87, 107009.87, 0.0, 2.5004761, 2.499393 
3.375643e+1, 8.121338e+1, 147063.94, -137574.83, 959.1515, -0.0014419957, 0.001794112, 147067.16, 147067.16, 0.0, 2.500477, 2.4995341 
3.3756435e+1, 8.3712924e+1, 149121.13, -133985.67, 497.24002, -0.0010843806, 0.0019302621, 149122.0, 149122.0, 0.0, 2.5004778, 2.4995399 
3.3756444e+1, 8.6212456e+1, 149558.92, -133747.27, 568.8295, -0.0007435062, 0.0020581377, 149560.06, 149560.06, 0.0, 2.5004785, 2.49954 
3.3756456e+1, 8.8712e+1, 149992.9, -133510.7, 640.59534, -0.00041602782, 0.002186091, 149994.36, 149994.36, 0.0, 2.5004792, 2.49954 
3.375645e+1, 9.1211617e+1, 191520.77, -47695.945, 941.7283, -0.0017237752, 0.0035498745, 191524.47, 191524.47, 0.0, 2.5004797, 2.4996872 
3.375645e+1, 9.3711317e+1, 192349.31, -43692.777, 34.63247, -0.0014156379, 0.0040866314, 192349.31, 192349.31, 0.0, 2.5004773, 2.4996953 
3.3756456e+1, 9.6211016e+1, 190914.86, -44355.406, 194.58246, -0.0011353089, 0.0045941593, 190915.02, 190915.02, 0.0, 2.5004747, 2.4996953 
3.375646e+1, 9.871071e+1, 189469.98, -45023.05, 354.72562, -0.0009072374, 0.0050877794, 189470.52, 189470.52, 0.0, 2.5004723, 2.4996953 
3.6256817e+1, 1.2491672e+0, -193365.45, -838255.44, 316.179, -0.0014835601, -0.000111231275, -193365.3, -193365.3, 0.0, 2.50047, 2.4983351 
3.6256826e+1, 3.747502e+0, -192470.67, -838064.7, 235.112, -0.0008023569, -0.00033266455, -192470.58, -192470.58, 0.0, 2.5004716, 2.4983346 
3.6256832e+1, 6.245836e+0, -191422.75, -837554.25, 226.9726, -0.00012112004, -0.0005527249, -191422.67, -191422.67, 0.0, 2.5004735, 2.4983346 
3.625684e+1, 8.744171e+0, -190375.72, -837044.3, 219.01987, 0.0005601505, -0.0007714123, -190375.66, -190375.66, 0.0, 2.5004752, 2.4983346 
3.6256844e+1, 1.12425864e+1, -148308.94, -749553.8, 74.69203, 0.00059759413, -0.00037159977, -148308.92, -148308.92, 0.0, 2.5004752, 2.4984848 
3.625684e+1, 1.3741079e+1, -149190.92, -749504.1, -32.236668, 0.00006367024, 0.0002299803, -149190.92, -149190.92, 0.0, 2.5004733, 2.4984858 
3.6256832e+1, 1.6239573e+1, -150362.2, -750054.44, -61.710613, -0.0004721676, 0.00083438866, -150362.19, -150362.19, 0.0, 2.500471, 2.4984858 
3.625683e+1, 1.8738066e+1, -151534.1, -750605.1, -90.70508, -0.0010100191, 0.0014421328, -151534.08, -151534.08, 0.0, 2.5004692, 2.4984858 
3.625683e+1, 2.123663e+1, -110235.34, -664920.94, 629.3634, -0.0012666968, 0.0018042852, -110234.63, -110234.63, 0.0, 2.5004692, 2.498633 
3.6256835e+1, 2.373526e+1, -108457.26, -663277.2, 438.312, -0.0011448736, 0.0012725039, -108456.914, -108456.914, 0.0, 2.5004714, 2.4986346 
3.625684e+1, 2.623389e+1, -107159.375, -662628.94, 386.7856, -0.0010249671, 0.00074474595, -107159.11, -107159.11, 0.0, 2.5004737, 2.4986346 
3.6256847e+1, 2.873252e+1, -105862.7, -661981.3, 335.91968, -0.0009072186, 0.00022257582, -105862.5, -105862.5, 0.0, 2.500476, 2.4986346 
3.625685e+1, 3.123123e+1, -63882.613, -575225.94, -18.421125, -0.00079883606, 0.0003902296, -63882.613, -63882.613, 0.0, 2.5004764, 2.4987833 
3.625685e+1, 3.3730018e+1, -63960.254, -574156.2, -291.693, -0.0007318568, 0.00040553836, -63960.09, -63960.09, 0.0, 2.500475, 2.4987857 
3.6256856e+1, 3.6228806e+1, -64715.055, -574491.0, -350.41202, -0.0006702398, 0.000424358, -64714.813, -64714.813, 0.0, 2.5004737, 2.4987857 
3.6256856e+1, 3.8727593e+1, -65471.09, -574826.44, -408.29114, -0.00061385066, 0.00044966675, -65470.76, -65470.76, 0.0, 2.5004723, 2.498786 
3.625686e+1, 4.1226456e+1, -23962.7, -488552.28, 224.17223, -0.0008259356, 0.0008845892, -23962.592, -23962.592, 0.0, 2.5004723, 2.4989338 
3.625686e+1, 4.3725392e+1, -22517.941, -486587.22, -4.1369896, -0.0011893518, 0.00085836754, -22517.941, -22517.941, 0.0, 2.5004735, 2.4989367 
3.625686e+1, 4.6224326e+1, -21852.564, -486237.5, 51.68323, -0.0015609483, 0.00083293597, -21852.559, -21852.559, 0.0, 2.5004745, 2.498937 
3.625686e+1, 4.8723266e+1, -21189.219, -485888.75, 108.29919, -0.0019412824, 0.0008121694, -21189.193, -21189.193, 0.0, 2.5004756, 2.498937 
3.625686e+1, 5.1222277e+1, 20655.543, -399476.38, 96.3407, -0.0020528408, 0.001261038, 20655.566, 20655.566, 0.0, 2.5004761, 2.499085 
3.6256862e+1, 5.372137e+1, 21405.959, -397619.13, -157.43896, -0.0017079868, 0.0011983403, 21406.02, 21406.02, 0.0, 2.500476, 2.4990883 
3.625687e+1, 5.6220454e+1, 21233.232, -397674.8, -99.589005, -0.0013719973, 0.0011376067, 21233.256, 21233.256, 0.0, 2.5004756, 2.4990883 
3.6256874e+1, 5.8719546e+1, 21058.418, -397731.53, -40.981766, -0.0010458676, 0.0010840702, 21058.422, 21058.422, 0.0, 2.5004752, 2.4990883 
3.6256877e+1, 6.121871e+1, 62599.4, -311661.7, 739.6853, -0.0010771432, 0.0015338494, 62600.863, 62600.863, 0.0, 2.5004754, 2.4992359 
3.6256877e+1, 6.3717943e+1, 63818.5, -309287.0, 333.8343, -0.0012421672, 0.0014126663, 63818.8, 63818.8, 0.0, 2.5004756, 2.49924 
3.6256883e+1, 6.6217184e+1, 63930.082, -309205.25, 277.18216, -0.0014211136, 0.0012876604, 63930.285, 63930.285, 0.0, 2.500476, 2.49924 
3.6256883e+1, 6.8716425e+1, 64039.1, -309124.75, 221.11003, -0.0016154042, 0.0011652823, 64039.234, 64039.234, 0.0, 2.500476, 2.4992402 
3.6256886e+1, 7.1215737e+1, 105845.42, -222709.8, 370.8622, -0.0018534567, 0.0016868439, 105845.836, 105845.836, 0.0, 2.5004764, 2.4993882 
3.6256889e+1, 7.371513e+1, 107052.6, -220093.19, -89.12915, -0.0017764566, 0.0017229993, 107052.625, 107052.625, 0.0, 2.5004764, 2.4993927 
3.6256889e+1, 7.621452e+1, 106991.65, -220100.23, -103.418785, -0.0017188443, 0.0017510618, 106991.69, 106991.69, 0.0, 2.5004761, 2.4993927 
3.6256894e+1, 7.871391e+1, 106927.5, -220108.81, -117.29064, -0.0016829716, 0.0017785516, 106927.55, 106927.55, 0.0, 2.5004761, 2.4993927 
3.62569e+1, 8.121338e+1, 147279.2, -137077.77, 1096.9377, -0.0014554766, 0.0022066925, 147283.44, 147283.44, 0.0, 2.5004768, 2.499535 
3.625691e+1, 8.371291e+1, 149228.38, -133714.53, 604.2796, -0.0014587202, 0.0019088937, 149229.67, 149229.67, 0.0, 2.5004776, 2.4995403 
3.6256915e+1, 8.6212456e+1, 149669.66, -133470.0, 679.54504, -0.0014863935, 0.0016026138, 149671.28, 149671.28, 0.0, 2.5004785, 2.4995406 
3.625692e+1, 8.871199e+1, 150107.13, -133227.3, 754.98676, -0.0015357414, 0.001295885, 150109.13, 150109.13, 0.0, 2.5004792, 2.4995406 
3.625692e+1, 9.121161e+1, 191936.33, -46819.363, 686.419, -0.00252705, 0.0025137356, 191938.31, 191938.31, 0.0, 2.5004797, 2.4996886 
3.6256924e+1, 9.371131e+1, 192622.77, -43114.266, -333.5133, -0.0017139341, 0.0034168286, 192623.23, 192623.23, 0.0, 2.500477, 2.4996963 
3.625693e+1, 9.6211016e+1, 191190.36, -43775.008, -165.71564, -0.00095299, 0.0042919554, 191190.47, 191190.47, 0.0, 2.5004747, 2.4996963 
3.6256936e+1, 9.871071e+1, 189747.52, -44440.77, 2.275196, -0.00026462105, 0.0051528574, 189747.52, 189747.52, 0.0, 2.500472, 2.4996963 
3.8757294e+1, 1.2491672e+0, -194820.11, -838959.8, 587.57465, -0.00057098694, -0.000116673575, -194819.58, -194819.58, 0.0, 2.5004673, 2.4983351 
3.8757297e+1, 3.7475017e+0, -193878.4, -838740.0, 529.16296, -0.0006421404, -0.00034880807, -193877.97, -193877.97, 0.0, 2.5004692, 2.4983346 
3.87573e+1, 6.245836e+0, -192818.53, -838223.4, 539.1865, -0.0007175612, -0.0005793251, -192818.08, -192818.08, 0.0, 2.500471, 2.4983346 
3.87573e+1, 8.74417e+0, -191790.7, -837722.1, 549.069, -0.00079724926, -0.00080822466, -191790.23, -191790.23, 0.0, 2.5004728, 2.4983346 
3.8757306e+1, 1.12425864e+1, -149777.25, -750332.2, -167.68149, -0.0007247851, -0.00034957644, -149777.2, -149777.2, 0.0, 2.5004728, 2.4984846 
3.8757306e+1, 1.374108e+1, -150628.19, -750260.1, -254.57268, -0.00042692, 0.00036421797, -150628.08, -150628.08, 0.0, 2.5004706, 2.4984858 
3.875731e+1, 1.6239575e+1, -151785.19, -750802.5, -269.66837, -0.00013289129, 0.0010813373, -151785.06, -151785.06, 0.0, 2.5004687, 2.4984858 
3.875731e+1, 1.873807e+1, -152955.73, -751351.44, -284.39865, 0.00015720577, 0.0018023095, -152955.6, -152955.6, 0.0, 2.5004668, 2.4984858 
3.875731e+1, 2.1236631e+1, -111685.414, -665724.94, 1074.1608, 0.0000051992142, 0.0021475742, -111683.336, -111683.336, 0.0, 2.5004668, 2.4986327 
3.8757312e+1, 2.373526e+1, -109919.63, -664117.7, 901.64734, -0.0005202418, 0.0014944971, -109918.164, -109918.164, 0.0, 2.500469, 2.4986343 
3.8757312e+1, 2.623389e+1, -108632.97, -663473.56, 861.54865, -0.0010503981, 0.00084605964, -108631.63, -108631.63, 0.0, 2.5004714, 2.4986343 
3.8757315e+1, 2.873252e+1, -107365.03, -662838.4, 822.128, -0.0015854606, 0.0002037528, -107363.81, -107363.81, 0.0, 2.5004735, 2.4986343 
3.8757315e+1, 3.1231228e+1, -65404.336, -576103.56, -57.636166, -0.0016609567, 0.00030123015, -65404.33, -65404.33, 0.0, 2.500474, 2.4987829 
3.875732e+1, 3.3730015e+1, -65469.813, -575045.2, -292.4625, -0.0013085913, 0.0002826291, -65469.645, -65469.645, 0.0, 2.5004725, 2.4987853 
3.8757324e+1, 3.6228803e+1, -66214.81, -575373.7, -322.09906, -0.00096389465, 0.00026827224, -66214.61, -66214.61, 0.0, 2.5004714, 2.4987855 
3.8757327e+1, 3.8727584e+1, -66974.79, -575709.3, -351.26578, -0.0006266944, 0.00026118814, -66974.55, -66974.55, 0.0, 2.50047, 2.4987855 
3.8757333e+1, 4.1226453e+1, -25179.1, -488878.25, 653.0089, -0.0007198858, 0.0007688363, -25178.18, -25178.18, 0.0, 2.50047, 2.4989345 
3.8757333e+1, 4.3725386e+1, -23740.05, -487006.7, 458.93283, -0.001151773, 0.00094716134, -23739.598, -23739.598, 0.0, 2.500471, 2.4989371 
3.8757333e+1, 4.6224326e+1, -23054.6, -486645.28, 530.9405, -0.0015962952, 0.0011264797, -23053.992, -23053.992, 0.0, 2.5004723, 2.4989371 
3.8757333e+1, 4.8723266e+1, -22403.537, -486300.44, 603.9438, -0.0020539253, 0.0013105449, -22402.752, -22402.752, 0.0, 2.5004733, 2.4989374 
3.8757333e+1, 5.122228e+1, 19537.11, -399753.3, 388.00912, -0.002214818, 0.0017598579, 19537.469, 19537.469, 0.0, 2.500474, 2.4990854 
3.8757336e+1, 5.372137e+1, 20334.45, -397966.78, 166.50916, -0.0019343023, 0.0014876764, 20334.516, 20334.516, 0.0, 2.500474, 2.4990885 
3.875734e+1, 5.6220454e+1, 20233.7, -397985.8, 249.31659, -0.0016674873, 0.001217297, 20233.85, 20233.85, 0.0, 2.5004737, 2.4990888 
3.8757342e+1, 5.871954e+1, 20097.533, -398021.9, 328.07132, -0.0014151351, 0.0009539717, 20097.79, 20097.79, 0.0, 2.5004735, 2.4990888 
3.8757348e+1, 6.12187e+1, 61600.234, -312181.0, 1203.2478, -0.0014548213, 0.0012398076, 61604.105, 61604.105, 0.0, 2.5004737, 2.4992359 
3.875735e+1, 6.3717943e+1, 62855.8, -309931.0, 782.4425, -0.0015989217, 0.0010377511, 62857.445, 62857.445, 0.0, 2.5004742, 2.4992394 
3.875735e+1, 6.621718e+1, 63030.34, -309815.63, 721.4043, -0.0017621146, 0.0008312153, 63031.734, 63031.734, 0.0, 2.5004745, 2.4992397 
3.8757354e+1, 6.871641e+1, 63138.85, -309732.1, 653.94653, -0.0019456284, 0.0006263993, 63140.0, 63140.0, 0.0, 2.5004747, 2.4992397 
3.875736e+1, 7.121573e+1, 105222.164, -222941.88, 768.06256, -0.0020438228, 0.0012456389, 105223.96, 105223.96, 0.0, 2.5004754, 2.4993885 
3.8757363e+1, 7.3715127e+1, 106568.51, -220387.03, 289.28046, -0.0018432545, 0.0015892816, 106568.766, 106568.766, 0.0, 2.5004756, 2.4993925 
3.8757366e+1, 7.621452e+1, 106612.99, -220341.42, 267.524, -0.0016701099, 0.0019240588, 106613.21, 106613.21, 0.0, 2.5004756, 2.4993927 
3.875737e+1, 7.871391e+1, 106536.6, -220354.03, 235.49055, -0.0015257797, 0.0022573285, 106536.77, 106536.77, 0.0, 2.5004754, 2.4993927 
3.8757378e+1, 8.121338e+1, 147264.22, -136730.61, 1602.3815, -0.0014537451, 0.0026197527, 147273.27, 147273.27, 0.0, 2.5004766, 2.4995358 
3.875738e+1, 8.371291e+1, 149324.73, -133449.69, 1096.0985, -0.0018219058, 0.0018836502, 149328.98, 149328.98, 0.0, 2.5004776, 2.4995408 
3.8757384e+1, 8.621245e+1, 149807.48, -133180.77, 1187.9532, -0.0022220071, 0.0011386734, 149812.47, 149812.47, 0.0, 2.5004785, 2.499541 
3.8757384e+1, 8.8711977e+1, 150130.14, -132988.95, 1270.2302, -0.0026518826, 0.0003927234, 150135.84, 150135.84, 0.0, 2.500479, 2.499541 
3.875739e+1, 9.12116e+1, 192367.31, -45979.313, 806.33844, -0.0032707988, 0.0014959702, 192370.03, 192370.03, 0.0, 2.5004797, 2.49969 
3.8757396e+1, 9.3711305e+1, 193164.23, -42407.258, -366.19302, -0.0019536044, 0.0027627326, 193164.81, 193164.81, 0.0, 2.5004776, 2.4996972 
3.8757405e+1, 9.6211004e+1, 191536.53, -43161.137, -234.76968, -0.0007133666, 0.0040022656, 191536.77, 191536.77, 0.0, 2.5004747, 2.4996972 
3.875741e+1, 9.8710716e+1, 189463.44, -44129.492, -104.98083, 0.00043441963, 0.0052272533, 189463.48, 189463.48, 0.0, 2.500471, 2.4996974 
4.1257775e+1, 1.24916755e+0, -191054.58, -837107.56, 596.84106, 0.0003551751, -0.0000744965, -191054.02, -191054.02, 0.0, 2.5004737, 2.4983354 
4.1257772e+1, 3.747503e+0, -192012.31, -837797.94, 505.74387, -0.00017530163, -0.00022281976, -192011.92, -192011.92, 0.0, 2.5004725, 2.498335 
4.1257772e+1, 6.2458384e+0, -192825.64, -838185.6, 477.08072, -0.000699182, -0.00037024939, -192825.3, -192825.3, 0.0, 2.500471, 2.498335 
4.1257772e+1, 8.744173e+0, -193640.63, -838574.2, 448.40698, -0.0012164658, -0.00051678554, -193640.31, -193640.31, 0.0, 2.5004697, 2.498335 
4.1257772e+1, 1.1242588e+1, -151348.1, -751101.3, -309.7056, -0.0011601147, -0.000101345526, -151347.94, -151347.94, 0.0, 2.5004702, 2.4984846 
4.1257778e+1, 1.3741082e+1, -149758.42, -749861.7, -413.35, -0.0004586123, 0.00044385536, -149758.13, -149758.13, 0.0, 2.5004723, 2.4984856 
4.125778e+1, 1.6239575e+1, -148457.75, -749220.0, -452.79437, 0.00024566945, 0.0009923329, -148457.4, -148457.4, 0.0, 2.5004745, 2.4984858 
4.1257787e+1, 1.8738066e+1, -147158.06, -748578.75, -492.3505, 0.0009526351, 0.0015446141, -147157.66, -147157.66, 0.0, 2.5004766, 2.4984858 
4.125779e+1, 2.123663e+1, -105890.67, -662901.1, 848.8446, 0.00086533104, 0.0018910788, -105889.375, -105889.375, 0.0, 2.5004768, 2.4986327 
4.125779e+1, 2.373526e+1, -106642.25, -662532.9, 734.9712, 0.000020032921, 0.0014331739, -106641.28, -106641.28, 0.0, 2.5004747, 2.4986343 
4.1257787e+1, 2.623389e+1, -107835.32, -663082.7, 739.202, -0.00082295865, 0.0009796831, -107834.336, -107834.336, 0.0, 2.5004725, 2.4986343 
4.1257787e+1, 2.873252e+1, -109030.195, -663633.4, 743.78076, -0.0016637595, 0.0005320421, -109029.195, -109029.195, 0.0, 2.5004706, 2.4986343 
4.1257787e+1, 3.123123e+1, -67307.37, -576817.06, -15.911424, -0.001857306, 0.00063126837, -67307.37, -67307.37, 0.0, 2.5004704, 2.4987833 
4.125779e+1, 3.3730015e+1, -65507.367, -574915.6, -117.85195, -0.0014280154, 0.00045494668, -65507.34, -65507.34, 0.0, 2.5004723, 2.4987857 
4.12578e+1, 3.6228803e+1, -64337.426, -574317.9, -38.07682, -0.0009982793, 0.00028354113, -64337.42, -64337.42, 0.0, 2.5004745, 2.4987857 
4.1257802e+1, 3.8727584e+1, -63171.65, -573722.2, 42.67399, -0.00056794286, 0.00011994922, -63171.645, -63171.645, 0.0, 2.5004764, 2.498786 
4.1257805e+1, 4.1226447e+1, -21163.027, -486696.7, 951.68744, -0.00057683856, 0.00054888707, -21161.082, -21161.082, 0.0, 2.5004766, 2.498935 
4.1257805e+1, 4.3725386e+1, -21346.49, -485690.06, 673.01196, -0.0009838386, 0.00074460974, -21345.516, -21345.516, 0.0, 2.5004752, 2.4989374 
4.1257805e+1, 4.6224326e+1, -22194.205, -486061.7, 644.42334, -0.0013878333, 0.000947232, -22193.31, -22193.31, 0.0, 2.5004735, 2.4989376 
4.1257805e+1, 4.8723266e+1, -23043.04, -486433.88, 616.1514, -0.0017890347, 0.0011604564, -23042.219, -23042.219, 0.0, 2.500472, 2.4989376 
4.1257808e+1, 5.122228e+1, 18633.598, -399993.94, 400.23285, -0.0019850184, 0.0016342767, 18633.98, 18633.98, 0.0, 2.5004723, 2.499086 
4.1257808e+1, 5.372137e+1, 20297.984, -397905.4, 6.3707767, -0.001845918, 0.0014204085, 20297.984, 20297.984, 0.0, 2.5004737, 2.4990888 
4.1257814e+1, 5.6220454e+1, 21167.973, -397459.66, -86.7139, -0.0017055843, 0.0012108682, 21167.99, 21167.99, 0.0, 2.5004752, 2.4990888 
4.1257817e+1, 5.871954e+1, 22032.713, -397016.47, -177.9191, -0.0015647124, 0.0010106915, 22032.79, 22032.79, 0.0, 2.5004766, 2.499089 
4.125782e+1, 6.12187e+1, 63713.695, -310843.34, 561.9698, -0.001629323, 0.0012859101, 63714.54, 63714.54, 0.0, 2.500477, 2.4992366 
4.125782e+1, 6.3717943e+1, 63896.65, -309256.78, 277.4829, -0.001750111, 0.0010384417, 63896.855, 63896.855, 0.0, 2.500476, 2.49924 
4.1257823e+1, 6.621718e+1, 63154.047, -309583.8, 378.15582, -0.0018621689, 0.0007929861, 63154.43, 63154.43, 0.0, 2.5004745, 2.49924 
4.1257823e+1, 6.871641e+1, 62407.1, -309912.9, 483.8127, -0.0019664136, 0.00055550213, 62407.73, 62407.73, 0.0, 2.5004733, 2.4992402 
4.125783e+1, 7.121573e+1, 104399.695, -223256.6, 918.1963, -0.0020155862, 0.001133624, 104402.27, 104402.27, 0.0, 2.5004737, 2.4993885 
4.1257834e+1, 7.3715127e+1, 106392.34, -220549.94, 314.52594, -0.0018598374, 0.0014767649, 106392.65, 106392.65, 0.0, 2.5004754, 2.4993925 
4.125784e+1, 7.621452e+1, 107292.42, -220102.8, 205.07431, -0.0016876957, 0.0018200377, 107292.55, 107292.55, 0.0, 2.5004768, 2.4993925 
4.1257843e+1, 7.871391e+1, 108193.44, -219655.19, 94.506454, -0.0015000434, 0.0021704994, 108193.47, 108193.47, 0.0, 2.5004785, 2.4993925 
4.1257855e+1, 8.121338e+1, 149049.98, -135110.08, 1384.143, -0.0014955939, 0.0025751663, 149056.72, 149056.72, 0.0, 2.5004787, 2.4995375 
4.1257855e+1, 8.371291e+1, 148932.73, -133036.05, 957.33136, -0.0019332173, 0.0019030157, 148936.0, 148936.0, 0.0, 2.5004764, 2.4995422 
4.1257858e+1, 8.621245e+1, 147480.6, -133707.48, 1190.2584, -0.002355722, 0.0012204647, 147485.63, 147485.63, 0.0, 2.5004737, 2.4995422 
4.1257858e+1, 8.871198e+1, 146015.23, -134385.27, 1425.2183, -0.0027617363, 0.00053537963, 146022.48, 146022.48, 0.0, 2.500471, 2.4995425 
4.1257867e+1, 9.12116e+1, 188295.23, -47717.957, 1297.4514, -0.0030509192, 0.0014551965, 188302.36, 188302.36, 0.0, 2.5004725, 2.4996905 
4.1257876e+1, 9.3711305e+1, 192197.77, -42897.035, -342.35873, -0.0016815242, 0.0024989767, 192198.27, 192198.27, 0.0, 2.500476, 2.4996972 
4.1257885e+1, 9.6211004e+1, 194267.56, -41866.438, -611.9678, -0.0002597948, 0.0035113741, 194269.16, 194269.16, 0.0, 2.5004795, 2.4996972 
4.1257897e+1, 9.871071e+1, 196341.8, -40833.71, -878.13586, 0.001203807, 0.0045035374, 196345.05, 196345.05, 0.0, 2.500483, 2.4996972 
4.3758252e+1, 1.2491685e+0, -190814.9, -837081.8, 368.03482, 0.0005121064, 0.000028644528, -190814.7, -190814.7, 0.0, 2.5004745, 2.4983351 
4.3758246e+1, 3.7475055e+0, -191774.6, -837765.3, 276.44202, -0.00014516806, 0.0000869499, -191774.48, -191774.48, 0.0, 2.500473, 2.4983346 
4.375824e+1, 6.2458426e+0, -192594.05, -838155.94, 239.33966, -0.00080026884, 0.00014661094, -192593.95, -192593.95, 0.0, 2.5004716, 2.4983346 
4.3758237e+1, 8.7441796e+0, -193414.44, -838547.06, 202.44832, -0.0014531959, 0.00020762756, -193414.38, -193414.38, 0.0, 2.5004702, 2.4983346 
4.375824e+1, 1.1242594e+1, -151138.53, -751092.06, -31.466852, -0.0014571229, 0.000506681, -151138.52, -151138.52, 0.0, 2.5004704, 2.4984844 
4.3758246e+1, 1.3741082e+1, -149571.27, -749885.4, -131.97777, -0.0007320142, 0.0006273532, -149571.23, -149571.23, 0.0, 2.5004728, 2.4984853 
4.3758255e+1, 1.6239569e+1, -148277.38, -749245.7, -176.41359, -0.000006133491, 0.00075212173, -148277.31, -148277.31, 0.0, 2.500475, 2.4984856 
4.375826e+1, 1.8738058e+1, -146984.1, -748606.25, -220.26251, 0.0007204155, 0.0008814917, -146984.02, -146984.02, 0.0, 2.500477, 2.4984856 
4.3758267e+1, 2.123662e+1, -105633.15, -662732.94, 446.5855, 0.00068690866, 0.0012667533, -105632.79, -105632.79, 0.0, 2.500477, 2.4986327 
4.375826e+1, 2.3735256e+1, -106405.86, -662394.94, 350.5795, -0.00010709911, 0.0013336035, -106405.64, -106405.64, 0.0, 2.5004752, 2.4986343 
4.3758258e+1, 2.6233894e+1, -107607.73, -662947.25, 354.94592, -0.0009013154, 0.0014055423, -107607.5, -107607.5, 0.0, 2.500473, 2.4986343 
4.3758255e+1, 2.873253e+1, -108810.5, -663500.0, 360.10995, -0.0016957585, 0.001483962, -108810.27, -108810.27, 0.0, 2.5004709, 2.4986346 
4.3758255e+1, 3.123124e+1, -66897.11, -576268.8, 174.08456, -0.001911237, 0.0016626968, -66897.05, -66897.05, 0.0, 2.5004706, 2.498784 
4.375826e+1, 3.373002e+1, -65171.11, -574499.9, 112.19339, -0.0015630466, 0.0011921999, -65171.086, -65171.086, 0.0, 2.5004728, 2.4987862 
4.3758267e+1, 3.6228806e+1, -64010.69, -573904.75, 195.93874, -0.0012168672, 0.0007269167, -64010.617, -64010.617, 0.0, 2.5004747, 2.4987864 
4.3758273e+1, 3.8727584e+1, -62851.35, -573310.2, 280.43277, -0.0008725999, 0.0002694593, -62851.2, -62851.2, 0.0, 2.5004766, 2.4987864 
4.375828e+1, 4.1226447e+1, -21034.25, -486650.47, 635.1269, -0.0007908721, 0.0004647704, -21033.383, -21033.383, 0.0, 2.5004768, 2.498935 
4.375828e+1, 4.3725383e+1, -21269.354, -485743.94, 385.8718, -0.0010078228, 0.0004894963, -21269.033, -21269.033, 0.0, 2.5004754, 2.4989374 
4.375828e+1, 4.6224323e+1, -22120.463, -486114.97, 356.1328, -0.0012262943, 0.0005205276, -22120.19, -22120.19, 0.0, 2.5004737, 2.4989374 
4.375828e+1, 4.872326e+1, -22973.021, -486486.7, 327.16013, -0.001446115, 0.00056157843, -22972.791, -22972.791, 0.0, 2.5004723, 2.4989374 
4.3758282e+1, 5.1222277e+1, 18658.102, -400133.47, 544.5371, -0.0016277905, 0.0010607678, 18658.81, 18658.81, 0.0, 2.5004725, 2.4990857 
4.3758285e+1, 5.372136e+1, 20235.387, -398209.5, 157.96027, -0.0016439991, 0.0011468054, 20235.447, 20235.447, 0.0, 2.500474, 2.4990883 
4.3758285e+1, 5.6220454e+1, 21099.39, -397762.72, 66.4387, -0.0016641174, 0.0012366484, 21099.4, 21099.4, 0.0, 2.5004754, 2.4990883 
4.3758288e+1, 5.8719546e+1, 21961.627, -397316.78, -24.379522, -0.0016888455, 0.0013349404, 21961.627, 21961.627, 0.0, 2.5004768, 2.4990883 
4.3758294e+1, 6.121871e+1, 64063.47, -310250.2, 301.83594, -0.0017856621, 0.0017102283, 64063.715, 64063.715, 0.0, 2.5004773, 2.4992375 
4.3758294e+1, 6.3717943e+1, 64146.42, -308856.47, 1.7128072, -0.001842558, 0.0014071236, 64146.42, 64146.42, 0.0, 2.500476, 2.4992406 
4.3758297e+1, 6.621718e+1, 63395.824, -309186.72, 97.95617, -0.0018987269, 0.0011058935, 63395.85, 63395.85, 0.0, 2.5004747, 2.4992406 
4.3758297e+1, 6.871641e+1, 62642.797, -309518.13, 194.90372, -0.001954803, 0.00081223197, 62642.9, 62642.9, 0.0, 2.5004733, 2.4992406 
4.3758306e+1, 7.121573e+1, 104338.21, -223463.58, 1065.2502, -0.0020267689, 0.0011694549, 104341.67, 104341.67, 0.0, 2.500474, 2.4993882 
4.375831e+1, 7.3715127e+1, 106201.48, -220980.63, 419.5499, -0.001989343, 0.0011942305, 106202.016, 106202.016, 0.0, 2.5004754, 2.4993918 
4.3758312e+1, 7.6214516e+1, 107076.82, -220537.13, 306.78055, -0.001949997, 0.0012180923, 107077.11, 107077.11, 0.0, 2.5004768, 2.4993918 
4.3758315e+1, 7.8713906e+1, 107948.305, -220095.5, 194.18314, -0.0019094667, 0.0012476417, 107948.42, 107948.42, 0.0, 2.5004783, 2.4993918 
4.3758324e+1, 8.121337e+1, 149523.63, -133990.72, 918.5608, -0.0019146319, 0.0017415275, 149526.6, 149526.6, 0.0, 2.5004785, 2.4995394 
4.3758327e+1, 8.371291e+1, 149262.16, -132138.0, 421.24377, -0.0021098785, 0.0015778167, 149262.78, 149262.78, 0.0, 2.5004761, 2.499544 
4.3758327e+1, 8.6212456e+1, 147766.86, -132827.69, 663.5125, -0.0023124025, 0.0014040293, 147768.44, 147768.44, 0.0, 2.5004735, 2.499544 
4.3758333e+1, 8.871199e+1, 146265.22, -133520.44, 906.45905, -0.0025215184, 0.0012281071, 146268.16, 146268.16, 0.0, 2.5004709, 2.4995441 
4.375834e+1, 9.121161e+1, 187810.34, -48370.035, 1691.2615, -0.0026319118, 0.0018462667, 187822.45, 187822.45, 0.0, 2.500472, 2.4996896 
4.3758348e+1, 9.3711305e+1, 191494.89, -43961.836, 49.735878, -0.0017227829, 0.0020330867, 191494.89, 191494.89, 0.0, 2.5004756, 2.4996955 
4.3758357e+1, 9.621099e+1, 193535.75, -42941.836, -203.00967, -0.00079949596, 0.002189739, 193535.92, 193535.92, 0.0, 2.500479, 2.4996955 
4.3758366e+1, 9.8710686e+1, 195567.22, -41926.363, -455.7916, 0.00013211217, 0.0023253965, 195568.1, 195568.1, 0.0, 2.5004826, 2.4996958 
4.6258724e+1, 1.2491695e+0, -190872.56, -837201.0, 143.35341, 0.00066894584, 0.00013072648, -190872.53, -190872.53, 0.0, 2.5004745, 2.498335 
4.625872e+1, 3.7475082e+0, -191829.34, -837877.4, 62.351635, -0.00011505024, 0.00039354194, -191829.34, -191829.34, 0.0, 2.500473, 2.4983344 
4.6258712e+1, 6.2458473e+0, -192649.47, -838268.3, 26.712759, -0.00090129586, 0.0006581746, -192649.47, -192649.47, 0.0, 2.5004716, 2.4983344 
4.6258706e+1, 8.744186e+0, -193470.55, -838659.7, -8.715077, -0.001689791, 0.0009246244, -193470.55, -193470.55, 0.0, 2.5004702, 2.4983344 
4.6258706e+1, 1.1242598e+1, -151210.44, -751230.1, 288.62543, -0.0017534035, 0.0011103881, -151210.3, -151210.3, 0.0, 2.5004704, 2.4984841 
4.6258718e+1, 1.3741082e+1, -149653.81, -750042.6, 199.06734, -0.0010048812, 0.0008033124, -149653.75, -149653.75, 0.0, 2.5004728, 2.498485 
4.6258727e+1, 1.6239566e+1, -148360.94, -749402.1, 155.7601, -0.00025759562, 0.0005011384, -148360.89, -148360.89, 0.0, 2.500475, 2.498485 
4.6258736e+1, 1.873805e+1, -147068.67, -748761.9, 113.03975, 0.0004883415, 0.00020436235, -147068.66, -147068.66, 0.0, 2.500477, 2.4984853 
4.625874e+1, 2.1236612e+1, -105637.29, -662708.8, 106.92548, 0.00051102147, 0.0006333269, -105637.27, -105637.27, 0.0, 2.500477, 2.498633 
4.6258736e+1, 2.3735255e+1, -106415.71, -662378.7, 32.9151, -0.00023168838, 0.0012220634, -106415.71, -106415.71, 0.0, 2.500475, 2.4986343 
4.6258733e+1, 2.6233894e+1, -107618.984, -662929.9, 38.4245, -0.0009771329, 0.0018165279, -107618.98, -107618.98, 0.0, 2.500473, 2.4986343 
4.6258724e+1, 2.8732535e+1, -108823.16, -663481.56, 44.731556, -0.0017252226, 0.0024181039, -108823.16, -108823.16, 0.0, 2.5004709, 2.4986346 
4.6258727e+1, 3.1231248e+1, -66717.06, -575848.4, 430.34842, -0.0019584396, 0.002683793, -66716.7, -66716.7, 0.0, 2.5004706, 2.498785 
4.6258733e+1, 3.3730027e+1, -65044.39, -574187.5, 406.30856, -0.0016915101, 0.0019165328, -65044.066, -65044.066, 0.0, 2.5004725, 2.498787 
4.625874e+1, 3.6228806e+1, -63884.445, -573590.7, 491.2388, -0.0014290805, 0.0011547138, -63883.97, -63883.97, 0.0, 2.5004745, 2.498787 
4.6258748e+1, 3.8727587e+1, -62725.58, -572994.3, 576.9177, -0.0011710759, 0.00040073355, -62724.926, -62724.926, 0.0, 2.5004766, 2.498787 
4.625875e+1, 4.1226447e+1, -21111.535, -486731.3, 371.93738, -0.0010025543, 0.00036790926, -21111.238, -21111.238, 0.0, 2.5004768, 2.498935 
4.625875e+1, 4.3725383e+1, -21379.11, -485889.84, 156.32549, -0.0010299226, 0.00021913898, -21379.057, -21379.057, 0.0, 2.5004752, 2.4989371 
4.6258754e+1, 4.622432e+1, -22230.191, -486258.6, 128.22736, -0.0010633013, 0.000076016964, -22230.156, -22230.156, 0.0, 2.5004737, 2.4989371 
4.6258754e+1, 4.8723257e+1, -23082.72, -486628.03, 100.89549, -0.0011021721, -0.000057667694, -23082.7, -23082.7, 0.0, 2.5004723, 2.4989374 
4.625876e+1, 5.122227e+1, 18495.494, -400389.28, 751.20557, -0.001254731, 0.00047938203, 18496.842, 18496.842, 0.0, 2.5004723, 2.4990852 
4.625876e+1, 5.3721356e+1, 20010.018, -398593.88, 374.85175, -0.0014274239, 0.0008626184, 20010.354, 20010.354, 0.0, 2.5004737, 2.4990876 
4.6258762e+1, 5.6220454e+1, 20875.271, -398142.56, 285.52518, -0.0016093317, 0.0012489812, 20875.465, 20875.465, 0.0, 2.5004752, 2.4990876 
4.6258762e+1, 5.8719546e+1, 21738.758, -397692.1, 196.90192, -0.0018009975, 0.0016428785, 21738.852, 21738.852, 0.0, 2.5004766, 2.4990878 
4.6258765e+1, 6.121871e+1, 64250.6, -309765.22, 110.6163, -0.0019388547, 0.0021249992, 64250.637, 64250.637, 0.0, 2.500477, 2.4992385 
4.6258765e+1, 6.3717943e+1, 64260.836, -308522.8, -200.20036, -0.0019330146, 0.001763973, 64260.945, 64260.945, 0.0, 2.500476, 2.499241 
4.625877e+1, 6.621718e+1, 63510.797, -308852.2, -101.10591, -0.0019343388, 0.0014045774, 63510.824, 63510.824, 0.0, 2.5004745, 2.4992414 
4.625877e+1, 6.871641e+1, 62758.33, -309182.72, -1.3072591, -0.0019432914, 0.001052346, 62758.33, 62758.33, 0.0, 2.5004733, 2.4992414 
4.6258774e+1, 7.121573e+1, 104154.75, -223764.08, 1315.3489, -0.0020161374, 0.0012037887, 104160.03, 104160.03, 0.0, 2.5004737, 2.4993877 
4.625878e+1, 7.371512e+1, 105940.234, -221447.08, 638.69977, -0.0021046433, 0.00090630306, 105941.48, 105941.48, 0.0, 2.5004754, 2.4993908 
4.6258786e+1, 7.621451e+1, 106823.31, -220991.6, 531.5542, -0.0022059989, 0.0006066235, 106824.18, 106824.18, 0.0, 2.5004768, 2.499391 
4.625879e+1, 7.871389e+1, 107702.55, -220537.97, 424.58054, -0.002320497, 0.0003111295, 107703.09, 107703.09, 0.0, 2.5004783, 2.499391 
4.6258795e+1, 8.1213355e+1, 150013.75, -132909.22, 582.43427, -0.0023075186, 0.0009073116, 150014.95, 150014.95, 0.0, 2.5004785, 2.4995413 
4.62588e+1, 8.3712906e+1, 149687.94, -131194.67, 21.53298, -0.0022663984, 0.001248996, 149687.94, 149687.94, 0.0, 2.500476, 2.4995456 
4.62588e+1, 8.6212456e+1, 148196.97, -131879.77, 272.11115, -0.0022553871, 0.0015807098, 148197.23, 148197.23, 0.0, 2.5004735, 2.4995456 
4.62588e+1, 8.8712007e+1, 146699.66, -132567.9, 523.36707, -0.0022740627, 0.0019106889, 146700.64, 146700.64, 0.0, 2.5004709, 2.4995458 
4.6258813e+1, 9.1211617e+1, 187518.63, -48976.984, 2223.1245, -0.002191362, 0.0022607697, 187539.52, 187539.52, 0.0, 2.500472, 2.4996886 
4.625882e+1, 9.37113e+1, 191044.31, -44906.586, 565.9039, -0.0017486676, 0.0015860148, 191045.66, 191045.66, 0.0, 2.5004756, 2.4996939 
4.6258828e+1, 9.621098e+1, 193091.64, -43880.15, 325.41, -0.001330192, 0.0008817614, 193092.08, 193092.08, 0.0, 2.500479, 2.499694 
4.6258834e+1, 9.871066e+1, 195129.56, -42858.24, 84.87974, -0.0009369284, 0.00015574612, 195129.6, 195129.6, 0.0, 2.5004826, 2.499694 
4.87592e+1, 1.2491703e+0, -192734.03, -838191.2, -79.25006, 0.00082761253, 0.00023173878, -192734.02, -192734.02, 0.0, 2.5004714, 2.4983346 
4.8759192e+1, 3.747511e+0, -193628.23, -838833.6, -142.92188, -0.0000831757, 0.00069692236, -193628.2, -193628.2, 0.0, 2.50047, 2.4983342 
4.8759183e+1, 6.2458515e+0, -194423.28, -839212.44, -171.41617, -0.0010005719, 0.0011643812, -194423.23, -194423.23, 0.0, 2.5004685, 2.4983342 
4.8759174e+1, 8.744192e+0, -195254.7, -839608.8, -199.7933, -0.001924576, 0.0016341151, -195254.64, -195254.64, 0.0, 2.500467, 2.4983342 
4.8759174e+1, 1.12426035e+1, -153015.34, -752214.94, 633.1587, -0.0020473173, 0.00170967, -153014.67, -153014.67, 0.0, 2.5004675, 2.498484 
4.8759186e+1, 1.3741082e+1, -151447.3, -751027.94, 560.9186, -0.001275652, 0.00097161863, -151446.77, -151446.77, 0.0, 2.5004697, 2.4984848 
4.87592e+1, 1.6239561e+1, -150162.3, -750389.9, 523.47363, -0.00050719595, 0.00023924813, -150161.84, -150161.84, 0.0, 2.5004718, 2.4984848 
4.8759213e+1, 1.8738039e+1, -148901.06, -749763.3, 486.08447, 0.00025793098, -0.0004869407, -148900.67, -148900.67, 0.0, 2.500474, 2.4984848 
4.8759216e+1, 2.1236604e+1, -107393.625, -663546.94, -190.6139, 0.00033911713, -0.000009378764, -107393.56, -107393.56, 0.0, 2.5004742, 2.498633 
4.875921e+1, 2.373525e+1, -108128.516, -663185.94, -235.11833, -0.00035242492, 0.0010983917, -108128.414, -108128.414, 0.0, 2.500472, 2.4986343 
4.87592e+1, 2.6233897e+1, -109312.99, -663726.4, -222.90971, -0.0010491994, 0.0022124895, -109312.91, -109312.91, 0.0, 2.50047, 2.4986346 
4.8759198e+1, 2.8732544e+1, -110516.7, -664276.1, -209.9534, -0.0017509988, 0.0033343243, -110516.62, -110516.62, 0.0, 2.500468, 2.4986346 
4.8759198e+1, 3.1231257e+1, -68222.016, -576256.75, 749.28357, -0.0019978387, 0.0036944211, -68220.91, -68220.91, 0.0, 2.5004678, 2.4987857 
4.8759204e+1, 3.3730033e+1, -66587.12, -574682.0, 763.2794, -0.0018124297, 0.002627821, -66585.97, -66585.97, 0.0, 2.5004697, 2.4987874 
4.8759213e+1, 3.622881e+1, -65439.742, -574089.25, 848.73486, -0.0016340014, 0.0015668225, -65438.324, -65438.324, 0.0, 2.5004716, 2.4987874 
4.875922e+1, 3.8727587e+1, -64309.348, -573504.7, 933.98413, -0.001462472, 0.00051367906, -64307.637, -64307.637, 0.0, 2.5004735, 2.4987876 
4.8759225e+1, 4.1226447e+1, -22887.969, -487658.5, 167.79031, -0.0012110658, 0.0002582177, -22887.908, -22887.908, 0.0, 2.5004737, 2.4989347 
4.8759228e+1, 4.372538e+1, -23097.895, -486812.88, -4.8190913, -0.001049441, -0.00006653937, -23097.895, -23097.895, 0.0, 2.5004723, 2.498937 
4.8759228e+1, 4.622431e+1, -23903.998, -487157.75, -29.259619, -0.00089821394, -0.00038635338, -23903.996, -23903.996, 0.0, 2.5004709, 2.498937 
4.8759228e+1, 4.8723248e+1, -24739.885, -487516.97, -56.480972, -0.0007565559, -0.00069729605, -24739.877, -24739.877, 0.0, 2.5004694, 2.4989371 
4.875923e+1, 5.1222265e+1, 16825.773, -401397.28, 1023.2926, -0.00086523796, -0.00010987797, 16828.277, 16828.277, 0.0, 2.5004697, 2.4990847 
4.8759234e+1, 5.3721356e+1, 18386.89, -399653.44, 658.6603, -0.0011956943, 0.0005678412, 18387.928, 18387.928, 0.0, 2.5004714, 2.4990869 
4.8759234e+1, 5.622045e+1, 19316.557, -399167.16, 571.2039, -0.001540757, 0.0012478657, 19317.338, 19317.338, 0.0, 2.5004728, 2.499087 
4.875924e+1, 5.8719546e+1, 20215.592, -398695.63, 483.88055, -0.0019006496, 0.0019345256, 20216.15, 20216.15, 0.0, 2.5004745, 2.499087 
4.8759243e+1, 6.121871e+1, 63221.78, -309895.8, -16.970772, -0.0020884152, 0.0025302565, 63221.78, 63221.78, 0.0, 2.500475, 2.4992392 
4.8759243e+1, 6.3717943e+1, 63341.45, -308688.53, -341.39636, -0.0020211153, 0.0021090223, 63341.766, 63341.766, 0.0, 2.500474, 2.4992418 
4.875924e+1, 6.6217184e+1, 62709.07, -308960.63, -245.721, -0.0019686753, 0.001689076, 62709.234, 62709.234, 0.0, 2.5004728, 2.4992418 
4.875924e+1, 6.8716425e+1, 62019.63, -309260.22, -151.0163, -0.0019315009, 0.0012758957, 62019.69, 62019.69, 0.0, 2.5004716, 2.4992418 
4.8759246e+1, 7.121573e+1, 103221.766, -224460.19, 1605.3976, -0.0019832917, 0.0012367135, 103229.63, 103229.63, 0.0, 2.5004725, 2.499387 
4.8759252e+1, 7.371511e+1, 105104.69, -222191.84, 893.2432, -0.002205293, 0.00061312533, 105107.125, 105107.125, 0.0, 2.5004742, 2.4993901 
4.8759258e+1, 7.621449e+1, 106049.805, -221698.25, 782.4838, -0.0024550508, -0.0000141715955, 106051.67, 106051.67, 0.0, 2.500476, 2.4993901 
4.875926e+1, 7.8713876e+1, 106883.79, -221258.17, 667.57697, -0.0027321186, -0.00063878705, 106885.15, 106885.15, 0.0, 2.5004773, 2.4993904 
4.875927e+1, 8.121335e+1, 150061.2, -132086.42, 250.8981, -0.0026731985, 0.0000727849, 150061.44, 150061.44, 0.0, 2.5004778, 2.4995432 
4.8759273e+1, 8.3712906e+1, 150016.22, -130299.195, -365.8673, -0.0024018926, 0.00091682374, 150016.69, 150016.69, 0.0, 2.5004756, 2.4995472 
4.8759273e+1, 8.6212456e+1, 148679.1, -130907.7, -112.36361, -0.002183602, 0.0017508116, 148679.14, 148679.14, 0.0, 2.5004735, 2.4995472 
4.8759273e+1, 8.871201e+1, 147159.67, -131604.02, 134.93976, -0.0020177413, 0.0025834988, 147159.73, 147159.73, 0.0, 2.5004709, 2.4995472 
4.8759288e+1, 9.121162e+1, 187341.11, -49576.32, 2756.5693, -0.0017272638, 0.0026991114, 187373.19, 187373.19, 0.0, 2.5004723, 2.4996874 
4.8759294e+1, 9.37113e+1, 190905.9, -45701.934, 1096.9236, -0.0017570133, 0.0011581412, 190910.98, 190910.98, 0.0, 2.5004761, 2.4996922 
4.87593e+1, 9.621097e+1, 192825.38, -44733.77, 895.70435, -0.0018492031, -0.00041219196, 192828.75, 192828.75, 0.0, 2.5004795, 2.4996924 
4.8759305e+1, 9.871064e+1, 194397.3, -43932.977, 695.74835, -0.0019997645, -0.002005048, 194399.33, 194399.33, 0.0, 2.500482, 2.4996924 
5.125967e+1, 1.2491703e+0, -190854.8, -837370.25, -217.48055, 0.0006534836, 0.00023808157, -190854.73, -190854.73, 0.0, 2.5004745, 2.4983344 
5.125966e+1, 3.747511e+0, -191141.61, -837716.8, -285.57843, 0.000013842555, 0.00071511813, -191141.47, -191141.47, 0.0, 2.5004742, 2.498334 
5.1259655e+1, 6.2458515e+0, -191296.42, -837786.8, -328.77597, -0.0006176521, 0.0011933199, -191296.25, -191296.25, 0.0, 2.500474, 2.4983342 
5.125965e+1, 8.744192e+0, -191452.75, -837857.5, -371.85767, -0.0012410003, 0.0016726867, -191452.53, -191452.53, 0.0, 2.5004737, 2.4983342 
5.125965e+1, 1.12426035e+1, -149588.58, -750569.0, 733.82367, -0.0013827743, 0.0017750451, -149587.69, -149587.69, 0.0, 2.5004735, 2.498484 
5.125966e+1, 1.3741082e+1, -149551.2, -750134.06, 723.10956, -0.00096536573, 0.0010943568, -149550.33, -149550.33, 0.0, 2.500473, 2.4984848 
5.125967e+1, 1.6239561e+1, -149765.3, -750219.56, 734.8137, -0.00054318353, 0.00041647395, -149764.4, -149764.4, 0.0, 2.5004725, 2.4984848 
5.125968e+1, 1.873804e+1, -149981.0, -750305.75, 746.8597, -0.00011633471, -0.0002581221, -149980.08, -149980.08, 0.0, 2.5004723, 2.4984848 
5.1259685e+1, 2.1236604e+1, -108306.04, -663847.5, -112.9274, -0.0000481444, 0.0002022116, -108306.016, -108306.016, 0.0, 2.5004723, 2.4986331 
5.125968e+1, 2.373525e+1, -107366.516, -662699.2, -81.4104, -0.00043590518, 0.0012351569, -107366.51, -107366.51, 0.0, 2.5004733, 2.4986346 
5.125967e+1, 2.6233897e+1, -106845.61, -662415.44, -24.70605, -0.000820693, 0.0022739738, -106845.6, -106845.6, 0.0, 2.5004742, 2.4986348 
5.125967e+1, 2.873254e+1, -106329.35, -662133.94, 32.361, -0.0012022684, 0.0033200465, -106329.35, -106329.35, 0.0, 2.500475, 2.4986348 
5.125967e+1, 3.1231257e+1, -64000.844, -574210.44, 1054.0227, -0.0013883044, 0.0036722776, -63998.664, -63998.664, 0.0, 2.500475, 2.4987857 
5.125968e+1, 3.3730033e+1, -63887.65, -573417.2, 903.9912, -0.0014525285, 0.002687961, -63886.043, -63886.043, 0.0, 2.5004745, 2.4987874 
5.1259685e+1, 3.6228812e+1, -64211.563, -573530.9, 786.1568, -0.0015150972, 0.0017108012, -64210.348, -64210.348, 0.0, 2.5004737, 2.4987874 
5.125969e+1, 3.8727587e+1, -64539.29, -573646.4, 669.28357, -0.0015757582, 0.00074298785, -64538.41, -64538.41, 0.0, 2.5004733, 2.4987874 
5.125969e+1, 4.1226447e+1, -23138.275, -487712.28, -329.5838, -0.0013704564, 0.0005054578, -23138.041, -23138.041, 0.0, 2.5004733, 2.498935 
5.1259696e+1, 4.372538e+1, -22107.684, -486321.22, -423.9893, -0.0010573637, 0.00016741228, -22107.297, -22107.297, 0.0, 2.500474, 2.498937 
5.12597e+1, 4.6224317e+1, -21613.613, -486042.63, -402.5388, -0.0007405885, -0.00016183405, -21613.264, -21613.264, 0.0, 2.500475, 2.498937 
5.12597e+1, 4.8723248e+1, -21122.215, -485765.3, -380.04715, -0.00041931865, -0.00047851165, -21121.904, -21121.904, 0.0, 2.5004756, 2.4989371 
5.12597e+1, 5.1222265e+1, 20385.885, -399686.1, 888.64484, -0.00046567482, 0.00005979439, 20387.766, 20387.766, 0.0, 2.500476, 2.4990847 
5.125971e+1, 5.3721356e+1, 20516.621, -398695.56, 654.60516, -0.00094610656, 0.00063616585, 20517.643, 20517.643, 0.0, 2.5004752, 2.4990869 
5.125971e+1, 5.622045e+1, 20091.848, -398857.66, 685.52026, -0.0014230356, 0.0012183994, 20092.97, 20092.97, 0.0, 2.5004742, 2.4990869 
5.125971e+1, 5.871954e+1, 19665.05, -399020.75, 717.0205, -0.0018961703, 0.0018108638, 19666.28, 19666.28, 0.0, 2.5004735, 2.4990869 
5.1259714e+1, 6.121871e+1, 62788.71, -309973.88, 172.95355, -0.0021373986, 0.0024035615, 62788.79, 62788.79, 0.0, 2.500474, 2.4992394 
5.1259714e+1, 6.3717943e+1, 64158.56, -308252.66, -337.8582, -0.0020653787, 0.0021041217, 64158.863, 64158.863, 0.0, 2.5004754, 2.4992418 
5.1259714e+1, 6.6217184e+1, 64881.723, -307871.72, -412.19998, -0.0019878834, 0.0018074866, 64882.18, 64882.18, 0.0, 2.5004766, 2.499242 
5.1259714e+1, 6.8716425e+1, 65613.48, -307486.63, -485.67307, -0.0019053152, 0.001518947, 65614.11, 65614.11, 0.0, 2.5004778, 2.499242 
5.125972e+1, 7.1215737e+1, 106611.72, -222638.7, 1380.8, -0.0018700067, 0.0014757902, 106617.51, 106617.51, 0.0, 2.500478, 2.4993875 
5.1259726e+1, 7.371511e+1, 106412.14, -221466.55, 900.3196, -0.0020889342, 0.0007055417, 106414.62, 106414.62, 0.0, 2.5004764, 2.4993904 
5.125973e+1, 7.621449e+1, 105431.73, -221905.98, 1060.9059, -0.0022985775, -0.00007029764, 105435.164, 105435.164, 0.0, 2.5004747, 2.4993904 
5.125973e+1, 7.8713876e+1, 104455.6, -222343.33, 1221.307, -0.0024976053, -0.00084527704, 104460.164, 104460.164, 0.0, 2.500473, 2.4993906 
5.1259744e+1, 8.121335e+1, 147507.19, -133452.06, 698.0234, -0.002516418, -0.00017959466, 147508.92, 147508.92, 0.0, 2.5004735, 2.499543 
5.1259744e+1, 8.37129e+1, 149445.23, -130816.85, -670.78314, -0.002357027, 0.0006983551, 149446.83, 149446.83, 0.0, 2.500475, 2.4995468 
5.1259744e+1, 8.6212456e+1, 150317.92, -130375.06, -1106.6805, -0.0021665893, 0.0015721094, 150322.3, 150322.3, 0.0, 2.5004766, 2.4995468 
5.1259744e+1, 8.8712007e+1, 151189.5, -129933.81, -1544.3961, -0.0019451806, 0.00245066, 151197.98, 151197.98, 0.0, 2.500478, 2.4995468 
5.125977e+1, 9.121162e+1, 191002.38, -47362.668, 1293.6882, -0.0012029232, 0.002581829, 191009.39, 191009.39, 0.0, 2.500478, 2.4996884 
5.1259774e+1, 9.3711287e+1, 190592.77, -45564.9, 159.89813, -0.0011897937, 0.0010684186, 190592.86, 190592.86, 0.0, 2.5004752, 2.499693 
5.125978e+1, 9.621096e+1, 188927.95, -46324.508, 505.95642, -0.0011547907, -0.00047175275, 188929.05, 188929.05, 0.0, 2.5004723, 2.499693 
5.1259786e+1, 9.871063e+1, 187272.77, -47079.477, 847.32245, -0.0010878359, -0.0020320974, 187275.83, 187275.83, 0.0, 2.5004694, 2.4996932 
5.376013e+1, 1.2491693e+0, -190577.58, -837374.1, -275.21295, -0.0008408624, 0.000155714, -190577.47, -190577.47, 0.0, 2.5004752, 2.4983342 
5.376013e+1, 3.747508e+0, -190866.64, -837718.4, -334.8481, -0.0007377164, 0.00046816614, -190866.47, -190866.47, 0.0, 2.500475, 2.4983337 
5.376013e+1, 6.245847e+0, -191024.52, -837788.4, -380.4571, -0.0006314584, 0.0007819843, -191024.3, -191024.3, 0.0, 2.5004747, 2.4983337 
5.376013e+1, 8.7441856e+0, -191183.44, -837858.94, -425.85107, -0.00052208843, 0.0010971684, -191183.16, -191183.16, 0.0, 2.5004745, 2.4983337 
5.376013e+1, 1.12425976e+1, -149221.64, -750346.94, 637.28955, -0.0006259739, 0.0013711086, -149220.97, -149220.97, 0.0, 2.500474, 2.498484 
5.376013e+1, 1.3741083e+1, -149210.28, -749941.06, 640.6979, -0.00089660875, 0.0012321642, -149209.6, -149209.6, 0.0, 2.5004735, 2.4984848 
5.3760135e+1, 1.6239567e+1, -149438.8, -750032.3, 651.60815, -0.0011656919, 0.001096812, -149438.08, -149438.08, 0.0, 2.5004733, 2.4984848 
5.376014e+1, 1.8738052e+1, -149668.14, -750124.0, 663.1114, -0.0014332875, 0.00096549105, -149667.4, -149667.4, 0.0, 2.5004728, 2.498485 
5.376014e+1, 2.1236616e+1, -107898.695, -663445.1, -52.948784, -0.0014181734, 0.0013555693, -107898.695, -107898.695, 0.0, 2.5004728, 2.4986336 
5.376014e+1, 2.3735256e+1, -107003.09, -662362.7, 15.810795, -0.0011836047, 0.0017221124, -107003.09, -107003.09, 0.0, 2.5004737, 2.498635 
5.376015e+1, 2.6233894e+1, -106494.234, -662082.75, 73.46934, -0.0009492235, 0.002095187, -106494.23, -106494.23, 0.0, 2.5004745, 2.498635 
5.3760153e+1, 2.8732535e+1, -105986.27, -661803.25, 131.72853, -0.00071485975, 0.002476124, -105986.24, -105986.24, 0.0, 2.5004754, 2.4986353 
5.3760153e+1, 3.1231248e+1, -63989.195, -574537.9, 884.8467, -0.00072368287, 0.0027199972, -63987.66, -63987.66, 0.0, 2.5004754, 2.498785 
5.3760153e+1, 3.373003e+1, -63898.207, -573776.75, 781.17255, -0.0011488951, 0.0021900684, -63897.01, -63897.01, 0.0, 2.5004747, 2.4987864 
5.3760153e+1, 3.622881e+1, -64229.105, -573891.4, 666.50836, -0.0015761753, 0.0016675412, -64228.234, -64228.234, 0.0, 2.5004742, 2.4987867 
5.376016e+1, 3.8727593e+1, -64560.98, -574006.56, 552.55963, -0.0020049238, 0.001154624, -64560.38, -64560.38, 0.0, 2.5004735, 2.4987867 
5.3760165e+1, 4.1226453e+1, -22859.275, -487454.72, -269.44467, -0.0019239974, 0.0011716913, -22859.12, -22859.12, 0.0, 2.5004735, 2.4989352 
5.3760165e+1, 4.3725386e+1, -21878.818, -486159.8, -330.73834, -0.0014270197, 0.0009780483, -21878.584, -21878.584, 0.0, 2.5004745, 2.498937 
5.376017e+1, 4.6224323e+1, -21387.615, -485879.13, -307.5638, -0.0009307482, 0.0007924559, -21387.412, -21387.412, 0.0, 2.5004752, 2.4989371 
5.3760177e+1, 4.872326e+1, -20897.754, -485599.1, -283.65884, -0.00043465933, 0.00061826204, -20897.58, -20897.58, 0.0, 2.500476, 2.4989371 
5.376018e+1, 5.122227e+1, 20621.604, -399458.97, 716.8226, -0.00037995467, 0.0009996959, 20622.826, 20622.826, 0.0, 2.5004761, 2.499085 
5.376018e+1, 5.3721356e+1, 20717.332, -398528.72, 502.4549, -0.0009405712, 0.0010804563, 20717.934, 20717.934, 0.0, 2.5004754, 2.4990869 
5.376018e+1, 5.622045e+1, 20284.666, -398693.06, 535.3694, -0.0015022404, 0.0011655102, 20285.352, 20285.352, 0.0, 2.5004745, 2.499087 
5.376018e+1, 5.8719534e+1, 19850.734, -398858.03, 568.6794, -0.0020640774, 0.0012594081, 19851.506, 19851.506, 0.0, 2.5004737, 2.499087 
5.376018e+1, 6.12187e+1, 62824.67, -310120.3, 333.4342, -0.002330626, 0.0017234529, 62824.973, 62824.973, 0.0, 2.5004742, 2.4992392 
5.376018e+1, 6.3717943e+1, 64135.17, -308510.03, -195.00371, -0.002238118, 0.0017232315, 64135.273, 64135.273, 0.0, 2.5004754, 2.4992414 
5.376018e+1, 6.621718e+1, 64850.246, -308130.38, -270.63907, -0.0021444906, 0.0017258764, 64850.445, 64850.445, 0.0, 2.5004766, 2.4992414 
5.376019e+1, 6.8716425e+1, 65564.125, -307751.28, -345.7643, -0.002050056, 0.0017364081, 65564.445, 65564.445, 0.0, 2.5004778, 2.4992416 
5.3760195e+1, 7.1215737e+1, 107027.016, -221904.16, 1101.1411, -0.0018930702, 0.0018495981, 107030.7, 107030.7, 0.0, 2.5004783, 2.4993887 
5.37602e+1, 7.371512e+1, 106737.4, -220847.98, 579.29095, -0.001984855, 0.0010780742, 106738.43, 106738.43, 0.0, 2.5004764, 2.4993913 
5.3760207e+1, 7.62145e+1, 105712.0, -221310.3, 740.5655, -0.0020754437, 0.00030167776, 105713.68, 105713.68, 0.0, 2.5004747, 2.4993916 
5.376021e+1, 7.871388e+1, 104684.766, -221773.5, 902.0553, -0.0021627557, -0.00047304344, 104687.26, 104687.26, 0.0, 2.5004728, 2.4993916 
5.376022e+1, 8.121335e+1, 146698.23, -134990.9, 900.40173, -0.0024194093, -0.000027078773, 146701.11, 146701.11, 0.0, 2.5004735, 2.4995403 
5.376022e+1, 8.371289e+1, 148499.7, -132547.03, -522.88275, -0.0026022969, 0.00041460004, 148500.67, 148500.67, 0.0, 2.5004747, 2.499544 
5.376021e+1, 8.621244e+1, 149318.33, -132128.94, -954.8367, -0.0027659296, 0.00085110863, 149321.56, 149321.56, 0.0, 2.5004761, 2.499544 
5.376021e+1, 8.871199e+1, 150133.16, -131712.67, -1386.8516, -0.0029121637, 0.00129138, 150139.97, 150139.97, 0.0, 2.5004776, 2.499544 
5.3760237e+1, 9.12116e+1, 191496.0, -45885.95, 834.6261, -0.001654918, 0.001681888, 191498.94, 191498.94, 0.0, 2.5004776, 2.4996912 
5.376025e+1, 9.3711287e+1, 191009.66, -44224.57, -326.80887, -0.0011369, 0.0011001956, 191010.11, 191010.11, 0.0, 2.5004747, 2.4996955 
5.3760254e+1, 9.621097e+1, 189350.72, -44978.05, 47.393875, -0.0006243109, 0.0004878128, 189350.73, 189350.73, 0.0, 2.5004718, 2.4996955 
5.3760266e+1, 9.8710656e+1, 187685.42, -45734.594, 421.09473, -0.0001002518, -0.0001482295, 187686.19, 187686.19, 0.0, 2.500469, 2.4996958 
5.626059e+1, 1.2491683e+0, -190665.19, -837555.56, -330.7446, -0.0023357414, 0.00007213868, -190665.02, -190665.02, 0.0, 2.5004752, 2.498334 
5.62606e+1, 3.747505e+0, -190954.25, -837898.7, -378.03906, -0.0014905573, 0.00021759098, -190954.03, -190954.03, 0.0, 2.500475, 2.4983335 
5.6260604e+1, 6.2458414e+0, -191111.94, -837967.2, -421.91824, -0.0006472964, 0.00036461034, -191111.67, -191111.67, 0.0, 2.5004747, 2.4983335 
5.626061e+1, 8.744179e+0, -191270.67, -838036.25, -465.58246, 0.00019404164, 0.0005131967, -191270.33, -191270.33, 0.0, 2.5004745, 2.4983335 
5.626061e+1, 1.1242593e+1, -149210.3, -750310.44, 556.3911, 0.00013349764, 0.00096275104, -149209.78, -149209.78, 0.0, 2.500474, 2.4984841 
5.626061e+1, 1.3741083e+1, -149204.75, -749913.7, 578.54596, -0.00082566286, 0.0013612667, -149204.2, -149204.2, 0.0, 2.5004735, 2.4984848 
5.6260604e+1, 1.6239573e+1, -149434.42, -750004.4, 591.2083, -0.0017865081, 0.001764144, -149433.83, -149433.83, 0.0, 2.5004733, 2.498485 
5.62606e+1, 1.8738064e+1, -149664.9, -750095.44, 604.46356, -0.002749046, 0.0021717967, -149664.3, -149664.3, 0.0, 2.5004728, 2.498485 
5.6260604e+1, 2.1236628e+1, -107801.21, -663216.4, 34.0, -0.002788365, 0.0025007664, -107801.2, -107801.2, 0.0, 2.5004728, 2.498634 
5.626061e+1, 2.373526e+1, -106922.23, -662165.6, 140.99548, -0.0019323614, 0.0021970135, -106922.19, -106922.19, 0.0, 2.5004737, 2.4986353 
5.626062e+1, 2.6233894e+1, -106413.875, -661883.94, 200.31433, -0.0010797004, 0.0019003937, -106413.8, -106413.8, 0.0, 2.5004745, 2.4986355 
5.6260633e+1, 2.8732526e+1, -105906.42, -661602.7, 260.23383, -0.00023028886, 0.0016122434, -105906.305, -105906.305, 0.0, 2.5004754, 2.4986355 
5.6260633e+1, 3.1231236e+1, -64250.945, -575024.75, 740.6621, -0.000054479555, 0.0017561836, -64249.87, -64249.87, 0.0, 2.5004754, 2.498784 
5.6260633e+1, 3.373002e+1, -64159.484, -574259.7, 686.2897, -0.0008416871, 0.0016775323, -64158.56, -64158.56, 0.0, 2.5004747, 2.4987857 
5.626063e+1, 3.622881e+1, -64490.66, -574372.1, 573.26, -0.0016347419, 0.001606454, -64490.016, -64490.016, 0.0, 2.500474, 2.4987857 
5.626063e+1, 3.8727593e+1, -64822.81, -574485.06, 460.94577, -0.002432643, 0.00154525, -64822.395, -64822.395, 0.0, 2.5004735, 2.498786 
5.626063e+1, 4.1226456e+1, -22830.215, -487341.47, -182.25616, -0.0024724556, 0.0018258904, -22830.145, -22830.145, 0.0, 2.5004735, 2.4989355 
5.6260633e+1, 4.3725395e+1, -21882.059, -486112.53, -212.33882, -0.001793162, 0.0017732098, -21881.963, -21881.963, 0.0, 2.5004745, 2.4989371 
5.6260645e+1, 4.6224332e+1, -21389.498, -485827.72, -187.01086, -0.0011189983, 0.0017277254, -21389.424, -21389.424, 0.0, 2.5004752, 2.4989371 
5.626065e+1, 4.8723266e+1, -20898.28, -485543.53, -160.95245, -0.0004496957, 0.0016924675, -20898.225, -20898.225, 0.0, 2.500476, 2.4989374 
5.626066e+1, 5.1222277e+1, 20609.316, -399396.22, 566.46594, -0.0002932594, 0.0019322134, 20610.08, 20610.08, 0.0, 2.5004761, 2.4990852 
5.626066e+1, 5.372136e+1, 20704.166, -398466.97, 377.91577, -0.0009340539, 0.0015134551, 20704.508, 20704.508, 0.0, 2.5004752, 2.499087 
5.626066e+1, 5.622044e+1, 20272.166, -398629.47, 413.01447, -0.0015804712, 0.0010972332, 20272.572, 20272.572, 0.0, 2.5004745, 2.499087 
5.626065e+1, 5.871953e+1, 19838.896, -398792.56, 448.50864, -0.0022310186, 0.00068846886, 19839.377, 19839.377, 0.0, 2.5004737, 2.4990873 
5.626066e+1, 6.121869e+1, 62651.516, -310400.94, 523.3353, -0.0025163575, 0.0010355839, 62652.25, 62652.25, 0.0, 2.5004742, 2.4992387 
5.626066e+1, 6.371793e+1, 63928.89, -308857.1, -21.427387, -0.0024038453, 0.0013317416, 63928.895, 63928.895, 0.0, 2.5004754, 2.4992409 
5.626066e+1, 6.621718e+1, 64644.01, -308474.8, -95.11802, -0.0022946547, 0.0016306555, 64644.04, 64644.04, 0.0, 2.5004766, 2.4992409 
5.6260663e+1, 6.8716425e+1, 65357.934, -308093.1, -168.29854, -0.0021889217, 0.0019372468, 65358.01, 65358.01, 0.0, 2.5004778, 2.4992409 
5.6260675e+1, 7.1215737e+1, 107295.86, -221274.28, 866.3728, -0.0019158821, 0.0022198234, 107298.15, 107298.15, 0.0, 2.500478, 2.49939 
5.6260675e+1, 7.371512e+1, 106981.43, -220269.77, 301.90674, -0.0018807383, 0.0014448441, 106981.71, 106981.71, 0.0, 2.5004764, 2.4993925 
5.626068e+1, 7.62145e+1, 105955.164, -220733.72, 465.91638, -0.0018524037, 0.0006655116, 105955.83, 105955.83, 0.0, 2.5004745, 2.4993925 
5.626069e+1, 7.871388e+1, 104927.06, -221198.56, 630.1413, -0.0018281346, -0.00011133121, 104928.28, 104928.28, 0.0, 2.5004728, 2.4993925 
5.626069e+1, 8.121335e+1, 145928.2, -136547.73, 1155.8514, -0.0023174812, 0.00012407296, 145932.92, 145932.92, 0.0, 2.5004733, 2.4995377 
5.626069e+1, 8.371289e+1, 147676.19, -134219.5, -325.0362, -0.002845862, 0.00012639434, 147676.56, 147676.56, 0.0, 2.5004747, 2.499541 
5.626068e+1, 8.6212426e+1, 148498.86, -133797.13, -751.6556, -0.003366851, 0.00012241342, 148500.86, 148500.86, 0.0, 2.5004761, 2.499541 
5.6260675e+1, 8.8711965e+1, 149317.72, -133376.58, -1178.3359, -0.003884021, 0.000121158795, 149322.63, 149322.63, 0.0, 2.5004776, 2.499541 
5.6260705e+1, 9.121159e+1, 192238.58, -44342.742, 427.84613, -0.002105297, 0.00080985343, 192239.36, 192239.36, 0.0, 2.5004776, 2.4996939 
5.6260717e+1, 9.371128e+1, 191727.39, -42741.332, -774.9123, -0.0010860908, 0.001153442, 191729.95, 191729.95, 0.0, 2.5004747, 2.499698 
5.626073e+1, 9.6210974e+1, 190075.44, -43488.145, -391.97656, -0.000099725534, 0.0014617834, 190076.1, 190076.1, 0.0, 2.5004718, 2.4996982 
5.626074e+1, 9.871067e+1, 188417.1, -44238.02, -9.542722, 0.000877632, 0.0017429839, 188417.1, 188417.1, 0.0, 2.500469, 2.4996982 
5.876105e+1, 1.2491673e+0, -192624.53, -838641.2, -391.17755, -0.0038290378, -0.000012630133, -192624.28, -192624.28, 0.0, 2.500472, 2.4983337 
5.8761066e+1, 3.747502e+0, -192864.0, -838961.56, -435.90958, -0.002242674, -0.000036563975, -192863.7, -192863.7, 0.0, 2.5004718, 2.4983332 
5.8761084e+1, 6.2458366e+0, -193010.89, -839023.5, -489.15155, -0.0006631858, -0.000058728732, -193010.53, -193010.53, 0.0, 2.5004716, 2.4983332 
5.8761096e+1, 8.744171e+0, -193199.19, -839105.4, -543.3258, 0.00090942637, -0.000079124504, -193198.73, -193198.73, 0.0, 2.500471, 2.4983332 
5.8761096e+1, 1.1242587e+1, -151044.3, -751177.9, 427.01456, 0.00089763856, 0.00055009284, -151043.98, -151043.98, 0.0, 2.5004709, 2.4984841 
5.8761084e+1, 1.3741083e+1, -150994.4, -750755.75, 465.81757, -0.0007506813, 0.001481789, -150994.05, -150994.05, 0.0, 2.5004704, 2.498485 
5.876107e+1, 1.6239578e+1, -151210.72, -750838.8, 476.15396, -0.0024038777, 0.0024186042, -151210.34, -151210.34, 0.0, 2.5004702, 2.498485 
5.876106e+1, 1.8738075e+1, -151457.45, -750936.56, 487.0504, -0.0040618884, 0.0033609425, -151457.06, -151457.06, 0.0, 2.5004697, 2.498485 
5.876106e+1, 2.1236637e+1, -109518.016, -663886.6, 54.13913, -0.0041570766, 0.0036379704, -109518.016, -109518.016, 0.0, 2.5004697, 2.4986343 
5.876108e+1, 2.3735264e+1, -108634.695, -662836.44, 186.4459, -0.0026806593, 0.002660043, -108634.63, -108634.63, 0.0, 2.5004706, 2.4986358 
5.8761096e+1, 2.6233894e+1, -108146.3, -662562.4, 233.29744, -0.0012106694, 0.0016897813, -108146.2, -108146.2, 0.0, 2.5004714, 2.4986358 
5.876111e+1, 2.873252e+1, -107686.18, -662301.94, 278.6497, 0.00025290047, 0.00072858616, -107686.04, -107686.04, 0.0, 2.500472, 2.498636 
5.8761114e+1, 3.1231228e+1, -66379.35, -576439.06, 468.31592, 0.0006206671, 0.00078100496, -66378.92, -66378.92, 0.0, 2.500472, 2.4987833 
5.876111e+1, 3.3730018e+1, -66218.05, -575611.6, 454.00156, -0.00052971987, 0.0011505062, -66217.65, -66217.65, 0.0, 2.5004716, 2.498785 
5.87611e+1, 3.6228806e+1, -66532.56, -575713.75, 326.78378, -0.0016897026, 0.0015276739, -66532.35, -66532.35, 0.0, 2.5004709, 2.498785 
5.8761096e+1, 3.8727596e+1, -66887.65, -575835.44, 197.03525, -0.002857825, 0.0019149773, -66887.58, -66887.58, 0.0, 2.5004702, 2.498785 
5.8761096e+1, 4.122646e+1, -24595.549, -488117.03, -289.0887, -0.0030148195, 0.0024681462, -24595.37, -24595.37, 0.0, 2.5004704, 2.4989355 
5.87611e+1, 4.3725398e+1, -23597.459, -486892.88, -319.79193, -0.002154937, 0.002552983, -23597.238, -23597.238, 0.0, 2.5004714, 2.4989371 
5.8761114e+1, 4.6224338e+1, -23075.785, -486590.56, -327.14136, -0.0013045581, 0.0026440695, -23075.553, -23075.553, 0.0, 2.500472, 2.4989374 
5.8761126e+1, 4.8723274e+1, -22593.063, -486307.03, -337.08167, -0.00046363394, 0.0027442235, -22592.818, -22592.818, 0.0, 2.500473, 2.4989374 
5.876113e+1, 5.122229e+1, 18928.334, -400182.63, 82.20251, -0.0002048604, 0.0028574425, 18928.35, 18928.35, 0.0, 2.500473, 2.4990852 
5.8761126e+1, 5.372136e+1, 19161.178, -399144.78, -96.635124, -0.0009259611, 0.001935207, 19161.201, 19161.201, 0.0, 2.5004725, 2.4990873 
5.8761126e+1, 5.622044e+1, 18797.463, -399272.88, -84.71928, -0.001657164, 0.0010136045, 18797.48, 18797.48, 0.0, 2.5004718, 2.4990873 
5.876112e+1, 5.871952e+1, 18384.518, -399424.7, -76.337364, -0.0023963558, 0.00009811485, 18384.531, 18384.531, 0.0, 2.500471, 2.4990873 
5.8761126e+1, 6.121868e+1, 61091.543, -311383.47, 287.36563, -0.0026939434, 0.00034000934, 61091.76, 61091.76, 0.0, 2.5004718, 2.4992383 
5.8761126e+1, 6.371793e+1, 62499.996, -309795.06, -287.67822, -0.0025619876, 0.00092962437, 62500.22, 62500.22, 0.0, 2.5004733, 2.4992402 
5.876113e+1, 6.621717e+1, 63328.293, -309355.66, -373.0515, -0.0024378016, 0.0015217289, 63328.668, 63328.668, 0.0, 2.5004747, 2.4992404 
5.876114e+1, 6.871641e+1, 64116.844, -308935.4, -456.9912, -0.0023212603, 0.0021213146, 64117.406, 64117.406, 0.0, 2.500476, 2.4992404 
5.8761144e+1, 7.1215737e+1, 106638.7, -221124.92, 161.61082, -0.0019377717, 0.0025862753, 106638.79, 106638.79, 0.0, 2.5004766, 2.4993908 
5.876115e+1, 7.371512e+1, 106498.65, -220043.16, -452.11264, -0.0017759397, 0.0018056184, 106499.28, 106499.28, 0.0, 2.500475, 2.4993935 
5.8761156e+1, 7.62145e+1, 105611.484, -220441.34, -289.3143, -0.0016287268, 0.001020928, 105611.74, 105611.74, 0.0, 2.5004735, 2.4993935 
5.8761156e+1, 7.871389e+1, 104675.65, -220862.95, -129.23378, -0.0014928114, 0.00023954164, 104675.7, 104675.7, 0.0, 2.5004718, 2.4993935 
5.876116e+1, 8.121335e+1, 144790.6, -138318.4, 927.60004, -0.0022095435, 0.00027348573, 144793.63, 144793.63, 0.0, 2.5004728, 2.4995348 
5.8761156e+1, 8.371288e+1, 146701.0, -135966.13, -613.5682, -0.0030865225, -0.00016670082, 146702.33, 146702.33, 0.0, 2.5004745, 2.4995382 
5.8761144e+1, 8.621241e+1, 147672.6, -135469.69, -1032.7509, -0.0039679348, -0.0006144654, 147676.36, 147676.36, 0.0, 2.5004761, 2.4995382 
5.8761144e+1, 8.871195e+1, 148587.42, -135000.58, -1454.1167, -0.0048589995, -0.0010605262, 148594.89, 148594.89, 0.0, 2.5004776, 2.4995382 
5.876118e+1, 9.121157e+1, 193177.9, -42757.902, -436.39944, -0.0025519324, -0.00003487994, 193178.7, 193178.7, 0.0, 2.500478, 2.4996965 
5.876119e+1, 9.3711275e+1, 192771.11, -41102.832, -1644.4529, -0.0010346527, 0.0012274851, 192782.67, 192782.67, 0.0, 2.5004754, 2.4997005 
5.8761203e+1, 9.621098e+1, 191046.14, -41881.523, -1218.3562, 0.00042262155, 0.0024495272, 191052.5, 191052.5, 0.0, 2.5004723, 2.4997008 
5.8761215e+1, 9.8710686e+1, 189148.03, -42743.59, -795.4283, 0.0018507674, 0.0036410585, 189150.77, 189150.77, 0.0, 2.500469, 2.4997008 
6.126153e+1, 1.2491671e+0, -194582.88, -839629.25, -185.4587, -0.0033375616, -0.000030830983, -194582.83, -194582.83, 0.0, 2.5004687, 2.4983335 
6.126154e+1, 3.7475014e+0, -193285.7, -839215.44, -129.18777, -0.0019514611, -0.000091205, -193285.69, -193285.69, 0.0, 2.500471, 2.498333 
6.126155e+1, 6.245836e+0, -191853.08, -838517.75, -91.36206, -0.0005562617, -0.00014986124, -191853.08, -191853.08, 0.0, 2.5004735, 2.498333 
6.1261564e+1, 8.74417e+0, -190422.06, -837820.8, -53.51674, 0.0008480368, -0.00020679978, -190422.06, -190422.06, 0.0, 2.5004761, 2.498333 
6.1261564e+1, 1.12425864e+1, -147824.7, -749682.94, 630.4453, 0.0008584209, 0.0004577971, -147824.05, -147824.05, 0.0, 2.5004764, 2.498484 
6.126155e+1, 1.3741083e+1, -148462.66, -749594.56, 659.6371, -0.00061442086, 0.001499937, -148461.94, -148461.94, 0.0, 2.500475, 2.4984848 
6.126154e+1, 1.623958e+1, -149335.16, -749992.4, 638.63666, -0.002080798, 0.0025474515, -149334.47, -149334.47, 0.0, 2.5004733, 2.4984848 
6.1261535e+1, 1.8738078e+1, -150208.25, -750390.44, 618.08795, -0.0035406018, 0.00360074, -150207.63, -150207.63, 0.0, 2.5004718, 2.498485 
6.1261535e+1, 2.1236639e+1, -108534.58, -663517.0, 357.10928, -0.003637798, 0.0038962867, -108534.35, -108534.35, 0.0, 2.5004716, 2.498634 
6.126155e+1, 2.3735265e+1, -107530.75, -662423.94, 376.69333, -0.0023814652, 0.0028418656, -107530.49, -107530.49, 0.0, 2.5004725, 2.4986355 
6.1261564e+1, 2.6233894e+1, -106888.484, -662078.25, 277.00726, -0.0011193446, 0.001792858, -106888.34, -106888.34, 0.0, 2.5004737, 2.4986355 
6.126158e+1, 2.8732517e+1, -106248.125, -661733.56, 178.65707, 0.0001486105, 0.0007506629, -106248.06, -106248.06, 0.0, 2.5004747, 2.4986355 
6.126158e+1, 3.1231228e+1, -64758.875, -575726.56, 177.7938, 0.0005232412, 0.0007561317, -64758.813, -64758.813, 0.0, 2.500475, 2.498783 
6.126158e+1, 3.3730015e+1, -64599.348, -574897.94, 462.01163, -0.00043534825, 0.0011055205, -64598.93, -64598.93, 0.0, 2.5004745, 2.4987848 
6.1261576e+1, 3.6228806e+1, -64886.574, -574992.3, 589.3914, -0.0013877027, 0.0014618791, -64885.895, -64885.895, 0.0, 2.5004737, 2.4987848 
6.126157e+1, 3.8727593e+1, -65174.047, -575086.8, 717.76434, -0.0023322802, 0.0018277037, -65173.035, -65173.035, 0.0, 2.5004733, 2.498785 
6.126157e+1, 4.122646e+1, -23037.328, -487595.7, 489.0757, -0.00248462, 0.0024215728, -23036.814, -23036.814, 0.0, 2.5004733, 2.498935 
6.1261576e+1, 4.3725398e+1, -22105.064, -486418.47, 384.33795, -0.0019008473, 0.0026022708, -22104.746, -22104.746, 0.0, 2.5004742, 2.4989367 
6.126158e+1, 4.6224335e+1, -21601.291, -486130.16, 274.28012, -0.0013100443, 0.0027914275, -21601.129, -21601.129, 0.0, 2.500475, 2.498937 
6.1261594e+1, 4.8723274e+1, -21101.816, -485843.94, 164.03828, -0.0007119079, 0.0029919106, -21101.758, -21101.758, 0.0, 2.500476, 2.498937 
6.12616e+1, 5.122229e+1, 20815.451, -399245.1, 398.95328, -0.00048674722, 0.0031458575, 20815.83, 20815.83, 0.0, 2.5004764, 2.4990852 
6.12616e+1, 5.372136e+1, 21216.313, -398130.13, 291.483, -0.0010140514, 0.0022063572, 21216.514, 21216.514, 0.0, 2.5004761, 2.4990873 
6.1261594e+1, 5.622044e+1, 21059.152, -398164.6, 363.25803, -0.0015317993, 0.0012753659, 21059.467, 21059.467, 0.0, 2.5004756, 2.4990873 
6.1261594e+1, 5.871952e+1, 20900.697, -398199.7, 434.268, -0.0020379387, 0.00035837627, 20901.148, 20901.148, 0.0, 2.5004754, 2.4990876 
6.12616e+1, 6.121868e+1, 63062.37, -310753.66, 1048.4281, -0.0022572605, 0.00053757185, 63065.313, 63065.313, 0.0, 2.5004756, 2.4992375 
6.1261606e+1, 6.371792e+1, 63683.6, -309552.38, 469.71838, -0.0022902137, 0.0009504537, 63684.195, 63684.195, 0.0, 2.5004756, 2.4992394 
6.1261606e+1, 6.621716e+1, 63757.637, -309477.66, 394.23367, -0.0023159662, 0.001367914, 63758.05, 63758.05, 0.0, 2.5004756, 2.4992397 
6.1261606e+1, 6.8716407e+1, 63834.76, -309401.4, 316.01163, -0.0023339107, 0.0017952363, 63835.03, 63835.03, 0.0, 2.500476, 2.4992397 
6.126162e+1, 7.121573e+1, 106426.32, -221277.92, 599.3123, -0.0019541527, 0.0023072304, 106427.42, 106427.42, 0.0, 2.5004761, 2.4993908 
6.1261624e+1, 7.371511e+1, 106901.195, -219914.11, -370.69675, -0.0017407844, 0.0017602044, 106901.62, 106901.62, 0.0, 2.500476, 2.4993932 
6.126163e+1, 7.62145e+1, 106672.18, -219996.17, -518.1576, -0.0015224387, 0.0012082952, 106673.0, 106673.0, 0.0, 2.5004754, 2.4993935 
6.126163e+1, 7.871388e+1, 106445.12, -220077.3, -663.56195, -0.0012952606, 0.000659096, 106446.47, 106446.47, 0.0, 2.500475, 2.4993935 
6.1261636e+1, 8.121335e+1, 146334.38, -137612.63, 999.62714, -0.0020373226, 0.0006990924, 146337.9, 146337.9, 0.0, 2.5004754, 2.4995348 
6.126163e+1, 8.3712876e+1, 147159.55, -135810.86, 228.89728, -0.0028510566, 0.0000008118078, 147159.73, 147159.73, 0.0, 2.5004754, 2.499538 
6.1261624e+1, 8.621241e+1, 147114.88, -135805.38, 645.89453, -0.00365024, -0.0007037638, 147116.36, 147116.36, 0.0, 2.5004752, 2.499538 
6.126162e+1, 8.8711935e+1, 147073.55, -135798.27, 1063.8125, -0.0044416287, -0.0014051071, 147077.55, 147077.55, 0.0, 2.5004752, 2.4995382 
6.126166e+1, 9.121156e+1, 191678.03, -43534.996, 1834.6628, -0.0017832161, -0.0003129667, 191692.34, 191692.34, 0.0, 2.5004756, 2.4996963 
6.126167e+1, 9.371126e+1, 192403.39, -41356.2, -309.35648, -0.0004999634, 0.0011650063, 192403.8, 192403.8, 0.0, 2.5004747, 2.4997003 
6.126168e+1, 9.6210974e+1, 191964.9, -41523.746, -760.5817, 0.00078312826, 0.0026242032, 191967.39, 191967.39, 0.0, 2.500474, 2.4997005 
6.126169e+1, 9.8710686e+1, 191478.19, -41714.52, -1216.1993, 0.0021033657, 0.0040759747, 191484.53, 191484.53, 0.0, 2.500473, 2.4997005 
6.3762015e+1, 1.2491677e+0, -194203.89, -839346.25, 170.43214, -0.0018231751, 0.0000106860225, -194203.84, -194203.84, 0.0, 2.5004692, 2.4983337 
6.3762015e+1, 3.7475032e+0, -192916.72, -838943.25, 237.90146, -0.0015104705, 0.000033167278, -192916.64, -192916.64, 0.0, 2.5004716, 2.4983332 
6.376202e+1, 6.2458384e+0, -191489.6, -838247.7, 277.23987, -0.0011943636, 0.000057128025, -191489.48, -191489.48, 0.0, 2.500474, 2.4983332 
6.376202e+1, 8.744174e+0, -190063.6, -837552.6, 316.6974, -0.00087485457, 0.00008256815, -190063.44, -190063.44, 0.0, 2.5004766, 2.4983332 
6.376202e+1, 1.1242589e+1, -147574.72, -749626.5, 373.3563, -0.0008585943, 0.0006321691, -147574.48, -147574.48, 0.0, 2.5004768, 2.498484 
6.376202e+1, 1.3741082e+1, -148220.52, -749551.06, 431.2096, -0.0012371375, 0.0013648222, -148220.2, -148220.2, 0.0, 2.5004754, 2.4984846 
6.376202e+1, 1.6239576e+1, -149094.39, -749948.3, 414.265, -0.0016127458, 0.0021025976, -149094.1, -149094.1, 0.0, 2.5004737, 2.4984848 
6.376202e+1, 1.873807e+1, -149969.11, -750346.0, 397.5511, -0.0019852982, 0.0028458938, -149968.86, -149968.86, 0.0, 2.5004723, 2.4984848 
6.376202e+1, 2.1236633e+1, -108446.06, -663762.06, 486.7924, -0.0019962306, 0.003216992, -108445.63, -108445.63, 0.0, 2.500472, 2.4986334 
6.376203e+1, 2.3735264e+1, -107471.586, -662706.75, 544.06995, -0.0017308398, 0.0026652934, -107471.055, -107471.055, 0.0, 2.500473, 2.4986348 
6.3762033e+1, 2.6233894e+1, -106841.586, -662366.06, 447.5288, -0.0014634876, 0.0021200334, -106841.23, -106841.23, 0.0, 2.500474, 2.4986348 
6.3762045e+1, 2.8732526e+1, -106212.57, -662025.8, 351.49048, -0.0011939531, 0.0015825257, -106212.34, -106212.34, 0.0, 2.5004752, 2.498635 
6.3762045e+1, 3.1231233e+1, -64298.965, -575133.3, 69.932434, -0.00095936627, 0.0015863826, -64298.957, -64298.957, 0.0, 2.5004754, 2.4987838 
6.3762045e+1, 3.3730018e+1, -64147.06, -574322.25, 393.31458, -0.0010962308, 0.0014546474, -64146.754, -64146.754, 0.0, 2.5004747, 2.4987855 
6.376205e+1, 3.6228803e+1, -64430.15, -574412.8, 523.87384, -0.0012319727, 0.0013302298, -64429.61, -64429.61, 0.0, 2.5004742, 2.4987857 
6.376205e+1, 3.8727587e+1, -64714.793, -574504.06, 654.92365, -0.0013653757, 0.0012155087, -64713.95, -64713.95, 0.0, 2.5004737, 2.4987857 
6.3762057e+1, 4.1226453e+1, -23047.184, -487971.13, 576.6695, -0.0013521087, 0.0016248976, -23046.467, -23046.467, 0.0, 2.5004737, 2.4989343 
6.3762057e+1, 4.3725392e+1, -22104.963, -486771.44, 521.3912, -0.0014178748, 0.0018563475, -22104.379, -22104.379, 0.0, 2.5004745, 2.498936 
6.3762057e+1, 4.6224326e+1, -21600.791, -486480.22, 414.17554, -0.0014838835, 0.0020946146, -21600.422, -21600.422, 0.0, 2.5004754, 2.498936 
6.376206e+1, 4.8723266e+1, -21098.152, -486189.72, 307.25787, -0.0015491057, 0.0023428733, -21097.95, -21097.95, 0.0, 2.5004761, 2.4989362 
6.376207e+1, 5.1222277e+1, 21168.992, -398848.22, 366.49753, -0.0014572722, 0.0027106325, 21169.313, 21169.313, 0.0, 2.5004766, 2.4990857 
6.376207e+1, 5.372136e+1, 21538.865, -397786.66, 255.04288, -0.0014512413, 0.0022602335, 21539.021, 21539.021, 0.0, 2.5004764, 2.4990878 
6.3762075e+1, 5.622045e+1, 21379.342, -397818.56, 331.16037, -0.0014436684, 0.0018160995, 21379.604, 21379.604, 0.0, 2.5004761, 2.4990878 
6.3762075e+1, 5.871953e+1, 21217.387, -397851.7, 407.56512, -0.001433199, 0.001383183, 21217.783, 21217.783, 0.0, 2.5004756, 2.4990878 
6.376208e+1, 6.121869e+1, 63068.707, -311013.78, 1070.8102, -0.0014861937, 0.0015498449, 63071.773, 63071.773, 0.0, 2.500476, 2.4992368 
6.376208e+1, 6.3717926e+1, 63683.164, -309799.06, 492.14493, -0.0018261115, 0.0013574571, 63683.813, 63683.813, 0.0, 2.500476, 2.499239 
6.376208e+1, 6.621716e+1, 63744.223, -309728.63, 423.63235, -0.0021661338, 0.0011672699, 63744.703, 63744.703, 0.0, 2.500476, 2.499239 
6.376208e+1, 6.87164e+1, 63803.676, -309658.94, 355.08408, -0.0025049618, 0.0009850987, 63804.01, 63804.01, 0.0, 2.5004761, 2.4992392 
6.376209e+1, 7.1215713e+1, 106261.4, -221773.98, 594.80316, -0.0022495938, 0.0014301131, 106262.48, 106262.48, 0.0, 2.5004764, 2.49939 
6.37621e+1, 7.37151e+1, 106682.89, -220454.06, -403.39655, -0.0020444114, 0.0013705986, 106683.39, 106683.39, 0.0, 2.500476, 2.4993923 
6.37621e+1, 7.621449e+1, 106417.04, -220552.7, -539.6879, -0.001840962, 0.0013053165, 106417.93, 106417.93, 0.0, 2.5004754, 2.4993925 
6.37621e+1, 7.871389e+1, 106149.51, -220652.17, -676.0557, -0.0016348534, 0.0012419177, 106150.91, 106150.91, 0.0, 2.500475, 2.4993925 
6.3762105e+1, 8.121335e+1, 147033.2, -136057.55, 1080.7426, -0.002273623, 0.0015181361, 147037.33, 147037.33, 0.0, 2.5004752, 2.4995375 
6.3762105e+1, 8.371288e+1, 147782.53, -134289.31, 249.74948, -0.0026583818, 0.000768395, 147782.75, 147782.75, 0.0, 2.5004752, 2.4995406 
6.3762105e+1, 8.621242e+1, 147657.92, -134322.92, 671.1206, -0.0030338324, 0.000010370225, 147659.52, 147659.52, 0.0, 2.5004747, 2.4995408 
6.37621e+1, 8.871195e+1, 147530.72, -134357.78, 1092.1459, -0.0034081654, -0.00074616505, 147534.94, 147534.94, 0.0, 2.5004745, 2.4995408 
6.376214e+1, 9.121157e+1, 190556.94, -45326.49, 1842.0433, -0.00074747315, 0.00018381393, 190571.33, 190571.33, 0.0, 2.500475, 2.4996934 
6.376214e+1, 9.3711275e+1, 191271.25, -43188.152, -355.57022, -0.000636048, 0.0012262327, 191271.78, 191271.78, 0.0, 2.5004742, 2.4996974 
6.3762134e+1, 9.6210974e+1, 190874.98, -43337.105, -803.8016, -0.00054101594, 0.002244596, 190877.75, 190877.75, 0.0, 2.5004735, 2.4996977 
6.376213e+1, 9.871068e+1, 190473.52, -43488.566, -1252.6323, -0.00041967692, 0.0032515305, 190480.23, 190480.23, 0.0, 2.5004728, 2.4996977 
6.6262496e+1, 1.24916814e+0, -194141.83, -839217.25, 526.7568, -0.00030907523, 0.000051207553, -194141.4, -194141.4, 0.0, 2.5004692, 2.498334 
6.626249e+1, 3.7475047e+0, -192859.83, -838824.75, 605.5829, -0.0010701043, 0.00015455339, -192859.27, -192859.27, 0.0, 2.5004716, 2.4983335 
6.626249e+1, 6.245841e+0, -191432.52, -838128.5, 646.79913, -0.0018334282, 0.00025914077, -191431.86, -191431.86, 0.0, 2.500474, 2.4983335 
6.6262484e+1, 8.744178e+0, -190006.31, -837432.8, 688.13446, -0.0025990468, 0.00036496954, -190005.58, -190005.58, 0.0, 2.5004766, 2.4983335 
6.6262484e+1, 1.12425916e+1, -147628.8, -749729.7, 114.35994, -0.00257564, 0.00080322416, -147628.78, -147628.78, 0.0, 2.5004768, 2.4984837 
6.626249e+1, 1.3741082e+1, -148274.66, -749653.5, 199.77513, -0.001860417, 0.0012231388, -148274.6, -148274.6, 0.0, 2.5004754, 2.4984846 
6.6262496e+1, 1.6239573e+1, -149148.31, -750049.44, 184.4634, -0.001145793, 0.0016479121, -149148.25, -149148.25, 0.0, 2.5004737, 2.4984846 
6.626251e+1, 1.8738061e+1, -150022.83, -750445.8, 169.3823, -0.00043163076, 0.0020779558, -150022.78, -150022.78, 0.0, 2.5004723, 2.4984846 
6.6262513e+1, 2.1236628e+1, -108651.234, -664166.2, 605.4195, -0.00035427057, 0.0025294777, -108650.57, -108650.57, 0.0, 2.500472, 2.498633 
6.626251e+1, 2.3735262e+1, -107684.555, -663123.56, 700.56555, -0.0010798869, 0.0024775097, -107683.67, -107683.67, 0.0, 2.500473, 2.498634 
6.626251e+1, 2.6233897e+1, -107056.125, -662782.6, 605.64136, -0.0018073786, 0.0024329706, -107055.47, -107055.47, 0.0, 2.500474, 2.498634 
6.626251e+1, 2.873253e+1, -106428.67, -662442.1, 511.21997, -0.0025363415, 0.0023971242, -106428.195, -106428.195, 0.0, 2.5004752, 2.4986343 
6.626251e+1, 3.1231242e+1, -64100.023, -574686.56, -50.857155, -0.002442303, 0.002405905, -64100.02, -64100.02, 0.0, 2.5004752, 2.4987848 
6.6262513e+1, 3.373002e+1, -63946.676, -573870.3, 309.9799, -0.0017583584, 0.0017902085, -63946.49, -63946.49, 0.0, 2.5004747, 2.4987864 
6.6262525e+1, 3.6228803e+1, -64229.99, -573959.2, 442.78604, -0.0010783959, 0.0011821148, -64229.6, -64229.6, 0.0, 2.5004742, 2.4987864 
6.626254e+1, 3.8727584e+1, -64514.855, -574048.75, 576.0827, -0.0004015328, 0.00058394595, -64514.203, -64514.203, 0.0, 2.5004737, 2.4987867 
6.6262543e+1, 4.1226444e+1, -23332.783, -488506.53, 644.20447, -0.00021715423, 0.00081765937, -23331.893, -23331.893, 0.0, 2.5004737, 2.4989333 
6.626254e+1, 4.3725383e+1, -22363.842, -487251.38, 640.2664, -0.0009341169, 0.0010961888, -22362.959, -22362.959, 0.0, 2.5004745, 2.498935 
6.626254e+1, 4.622432e+1, -21857.861, -486956.5, 535.8553, -0.0016586502, 0.0013797971, -21857.244, -21857.244, 0.0, 2.5004754, 2.4989352 
6.6262525e+1, 4.872326e+1, -21353.414, -486662.4, 431.74213, -0.0023889448, 0.0016720635, -21353.012, -21353.012, 0.0, 2.5004761, 2.4989352 
6.626254e+1, 5.1222277e+1, 21246.168, -398620.06, 312.88504, -0.002424898, 0.0022673637, 21246.402, 21246.402, 0.0, 2.5004766, 2.4990861 
6.6262543e+1, 5.372136e+1, 21614.941, -397563.72, 201.39249, -0.0018880682, 0.002301829, 21615.037, 21615.037, 0.0, 2.5004764, 2.499088 
6.626255e+1, 5.6220454e+1, 21459.613, -397589.94, 281.3687, -0.0013577787, 0.0023401415, 21459.8, 21459.8, 0.0, 2.500476, 2.4990883 
6.6262555e+1, 5.871954e+1, 21301.854, -397617.3, 361.63214, -0.00083330524, 0.0023868852, 21302.166, 21302.166, 0.0, 2.5004756, 2.4990883 
6.626257e+1, 6.12187e+1, 62828.703, -311436.06, 1067.4119, -0.00071326364, 0.0025555007, 62831.746, 62831.746, 0.0, 2.5004756, 2.499236 
6.6262555e+1, 6.371793e+1, 63481.484, -310144.0, 490.23288, -0.0013618122, 0.0017541497, 63482.13, 63482.13, 0.0, 2.500476, 2.4992385 
6.6262555e+1, 6.621716e+1, 63545.324, -310070.28, 424.81195, -0.00201787, 0.00095241575, 63545.81, 63545.81, 0.0, 2.500476, 2.4992385 
6.6262555e+1, 6.8716395e+1, 63607.56, -309997.3, 359.35532, -0.002679346, 0.00015685518, 63607.902, 63607.902, 0.0, 2.500476, 2.4992385 
6.626257e+1, 7.121571e+1, 105939.586, -222381.33, 549.7286, -0.002549576, 0.00055062, 105940.51, 105940.51, 0.0, 2.5004764, 2.499389 
6.626257e+1, 7.37151e+1, 106372.266, -221039.23, -487.76062, -0.0023532764, 0.00097623735, 106372.99, 106372.99, 0.0, 2.500476, 2.4993913 
6.626257e+1, 7.621449e+1, 106107.734, -221136.1, -621.52795, -0.0021654211, 0.001394969, 106108.914, 106108.914, 0.0, 2.5004754, 2.4993913 
6.6262573e+1, 7.871389e+1, 105841.52, -221233.77, -755.37164, -0.0019810854, 0.0018147583, 105843.27, 105843.27, 0.0, 2.500475, 2.4993916 
6.6262573e+1, 8.1213355e+1, 147750.33, -134530.86, 1095.5869, -0.0025130047, 0.0023368339, 147754.58, 147754.58, 0.0, 2.5004752, 2.49954 
6.626258e+1, 8.371289e+1, 148525.97, -132710.58, 198.38087, -0.0024676088, 0.0015327593, 148526.11, 148526.11, 0.0, 2.500475, 2.4995434 
6.626258e+1, 8.6212426e+1, 148402.4, -132744.3, 622.56116, -0.0024182138, 0.0007182539, 148403.78, 148403.78, 0.0, 2.5004747, 2.4995434 
6.626258e+1, 8.871196e+1, 148276.25, -132779.27, 1046.3955, -0.0023743778, -0.00009650863, 148280.14, 148280.14, 0.0, 2.5004745, 2.4995434 
6.626262e+1, 9.121158e+1, 189744.89, -47013.883, 1783.3749, 0.00025984502, 0.0007019215, 189758.33, 189758.33, 0.0, 2.500475, 2.4996905 
6.62626e+1, 9.3711275e+1, 190469.0, -44862.59, -472.50174, -0.00079880113, 0.0013042846, 190469.95, 190469.95, 0.0, 2.5004742, 2.4996946 
6.626259e+1, 9.621097e+1, 190075.97, -45011.723, -915.8848, -0.0018896684, 0.0018768121, 190079.55, 190079.55, 0.0, 2.5004735, 2.4996948 
6.6262573e+1, 9.871066e+1, 189677.73, -45163.36, -1359.8673, -0.0029650927, 0.0024339, 189685.61, 189685.61, 0.0, 2.5004728, 2.4996948 
6.8762976e+1, 1.24916874e+0, -195730.84, -839885.9, 874.2965, 0.0012068724, 0.00009075606, -195729.66, -195729.66, 0.0, 2.5004663, 2.4983342 
6.876297e+1, 3.747506e+0, -194410.9, -839485.0, 944.5756, -0.00062838773, 0.00027302688, -194409.52, -194409.52, 0.0, 2.500469, 2.4983337 
6.876295e+1, 6.245844e+0, -192985.89, -838789.4, 968.16327, -0.0024715287, 0.00045630985, -192984.44, -192984.44, 0.0, 2.5004714, 2.4983337 
6.876294e+1, 8.7441814e+0, -191608.38, -838116.6, 991.5686, -0.0043225503, 0.0006406049, -191606.86, -191606.86, 0.0, 2.5004737, 2.4983337 
6.8762946e+1, 1.12425946e+1, -149364.19, -750656.9, -235.26442, -0.004290749, 0.0009712114, -149364.1, -149364.1, 0.0, 2.500474, 2.4984834 
6.8762964e+1, 1.3741082e+1, -149970.48, -750550.94, -143.29407, -0.0024824394, 0.0010751588, -149970.45, -149970.45, 0.0, 2.5004725, 2.4984844 
6.8762976e+1, 1.6239569e+1, -150837.45, -750942.5, -180.58017, -0.0006782093, 0.0011836882, -150837.39, -150837.39, 0.0, 2.500471, 2.4984844 
6.8762994e+1, 1.8738057e+1, -151730.02, -751346.4, -218.76793, 0.0011220989, 0.0012972379, -151729.94, -151729.94, 0.0, 2.5004694, 2.4984844 
6.8763e+1, 2.123662e+1, -110525.78, -665393.0, 536.93335, 0.0012897048, 0.0018340731, -110525.266, -110525.266, 0.0, 2.500469, 2.4986322 
6.876299e+1, 2.373526e+1, -109552.11, -664341.25, 646.0015, -0.00042709807, 0.002278843, -109551.36, -109551.36, 0.0, 2.5004702, 2.4986334 
6.8762976e+1, 2.62339e+1, -108943.45, -664008.8, 527.03046, -0.0021495598, 0.0027319798, -108942.95, -108942.95, 0.0, 2.500471, 2.4986334 
6.8762964e+1, 2.8732538e+1, -108357.67, -663687.44, 409.04016, -0.0038770835, 0.0031947305, -108357.375, -108357.375, 0.0, 2.500472, 2.4986336 
6.8762964e+1, 3.1231248e+1, -65618.664, -575088.94, -467.78958, -0.003924184, 0.0032149649, -65618.234, -65618.234, 0.0, 2.5004723, 2.4987855 
6.876299e+1, 3.373002e+1, -65412.473, -574224.56, -120.83169, -0.0024205188, 0.0021125008, -65412.445, -65412.445, 0.0, 2.5004718, 2.4987872 
6.8763e+1, 3.6228803e+1, -65692.914, -574310.25, -38.88668, -0.00092584535, 0.001017848, -65692.91, -65692.91, 0.0, 2.5004714, 2.4987872 
6.876302e+1, 3.872758e+1, -66011.26, -574414.2, 41.13867, 0.0005603778, -0.00006666776, -66011.26, -66011.26, 0.0, 2.5004706, 2.4987874 
6.8763024e+1, 4.1226438e+1, -25308.236, -489884.25, 201.94133, 0.0009212723, 0.00000013848725, -25308.148, -25308.148, 0.0, 2.5004706, 2.4989324 
6.876302e+1, 4.3725377e+1, -24233.783, -488510.66, 206.05995, -0.00044870557, 0.00032202364, -24233.693, -24233.693, 0.0, 2.5004716, 2.4989343 
6.8763006e+1, 4.622431e+1, -23721.62, -488210.13, 55.281048, -0.0018334914, 0.00064716826, -23721.613, -23721.613, 0.0, 2.5004725, 2.4989345 
6.8762994e+1, 4.872325e+1, -23275.336, -487941.38, -101.095085, -0.0032304395, 0.0009796533, -23275.314, -23275.314, 0.0, 2.5004733, 2.4989345 
6.8763e+1, 5.122227e+1, 19666.82, -399226.47, -458.69812, -0.0033886894, 0.0018161628, 19667.322, 19667.322, 0.0, 2.5004737, 2.4990866 
6.8763006e+1, 5.372136e+1, 20171.734, -398075.53, -627.78894, -0.0023238163, 0.0023311651, 20172.678, 20172.678, 0.0, 2.5004735, 2.4990885 
6.8763024e+1, 5.6220454e+1, 20051.088, -398081.47, -609.1558, -0.001273445, 0.0028474578, 20051.977, 20051.977, 0.0, 2.5004733, 2.4990888 
6.876304e+1, 5.871955e+1, 19845.0, -398128.53, -595.149, -0.0002374125, 0.0033694264, 19845.848, 19845.848, 0.0, 2.500473, 2.4990888 
6.876305e+1, 6.1218715e+1, 61073.184, -312632.88, 104.368675, 0.00006236885, 0.0035544091, 61073.215, 61073.215, 0.0, 2.500473, 2.4992354 
6.876304e+1, 6.371793e+1, 61965.426, -311124.56, -485.5101, -0.0008966512, 0.002140273, 61966.06, 61966.06, 0.0, 2.5004735, 2.4992378 
6.876303e+1, 6.6217154e+1, 62120.797, -311004.9, -573.5476, -0.0018704854, 0.00072299317, 62121.68, 62121.68, 0.0, 2.5004737, 2.499238 
6.8763024e+1, 6.871638e+1, 62191.066, -310926.22, -664.4266, -0.0028561512, -0.0006899246, 62192.25, 62192.25, 0.0, 2.5004737, 2.499238 
6.876304e+1, 7.12157e+1, 104501.1, -223563.16, -533.9701, -0.0028531186, -0.0003318053, 104501.97, 104501.97, 0.0, 2.5004745, 2.4993877 
6.876304e+1, 7.3715097e+1, 105208.26, -222037.16, -1608.886, -0.0026664685, 0.0005763809, 105216.17, 105216.17, 0.0, 2.5004742, 2.4993904 
6.876304e+1, 7.621449e+1, 105083.6, -222065.55, -1742.0421, -0.0024947308, 0.0014763547, 105092.88, 105092.88, 0.0, 2.500474, 2.4993904 
6.876304e+1, 7.871389e+1, 104847.234, -222147.73, -1880.1504, -0.0023324522, 0.0023765876, 104858.05, 104858.05, 0.0, 2.5004735, 2.4993906 
6.876305e+1, 8.1213355e+1, 147909.86, -133310.45, 68.98846, -0.0027537986, 0.003153968, 147909.88, 147909.88, 0.0, 2.5004742, 2.4995427 
6.8763053e+1, 8.37129e+1, 149019.97, -131253.33, -898.8693, -0.0022771703, 0.0022924538, 149022.84, 149022.84, 0.0, 2.5004745, 2.499546 
6.876306e+1, 8.621243e+1, 149069.4, -131204.38, -480.51422, -0.00180165, 0.0014182508, 149070.23, 149070.23, 0.0, 2.5004747, 2.4995463 
6.876307e+1, 8.8711965e+1, 149004.33, -131210.58, -72.35518, -0.0013380932, 0.00054209004, 149004.36, 149004.36, 0.0, 2.5004745, 2.4995463 
6.876311e+1, 9.121159e+1, 188996.13, -48715.55, 694.1637, 0.0012413452, 0.0012394272, 188998.14, 188998.14, 0.0, 2.5004752, 2.4996877 
6.876308e+1, 9.3711275e+1, 189869.86, -46440.574, -1523.0078, -0.0009851157, 0.0013970411, 189879.67, 189879.67, 0.0, 2.5004747, 2.4996917 
6.876305e+1, 9.621096e+1, 189386.67, -46634.848, -1851.0894, -0.003258828, 0.0015185628, 189401.19, 189401.19, 0.0, 2.5004737, 2.4996917 
6.8763024e+1, 9.871065e+1, 188701.81, -46926.24, -2176.0823, -0.0055275857, 0.0016206468, 188721.9, 188721.9, 0.0, 2.5004725, 2.499692 
7.1263456e+1, 1.24916896e+0, -188552.44, -836613.3, 761.21204, 0.0015528187, 0.00013780694, -188551.55, -188551.55, 0.0, 2.500479, 2.4983337 
7.1263444e+1, 3.747507e+0, -190456.61, -837776.8, 702.30884, -0.0003343695, 0.00041513523, -190455.86, -190455.86, 0.0, 2.500476, 2.4983332 
7.1263427e+1, 6.2458456e+0, -192202.83, -838609.9, 589.85974, -0.002210075, 0.00069475005, -192202.28, -192202.28, 0.0, 2.5004728, 2.4983332 
7.1263415e+1, 8.744184e+0, -193950.45, -839443.6, 477.37625, -0.004074298, 0.0009766512, -193950.1, -193950.1, 0.0, 2.50047, 2.4983332 
7.126342e+1, 1.1242595e+1, -152030.64, -752020.4, -680.96344, -0.00404488, 0.0012457222, -152029.86, -152029.86, 0.0, 2.5004694, 2.4984832 
7.126343e+1, 1.374108e+1, -150409.8, -750844.56, -498.10895, -0.0022356478, 0.0011224984, -150409.39, -150409.39, 0.0, 2.5004718, 2.4984841 
7.126345e+1, 1.6239566e+1, -149022.33, -750153.75, -465.69455, -0.00042054278, 0.0010036213, -149021.97, -149021.97, 0.0, 2.5004742, 2.4984841 
7.1263474e+1, 1.8738051e+1, -147636.13, -749463.6, -433.35733, 0.0014005918, 0.0008895352, -147635.81, -147635.81, 0.0, 2.5004766, 2.4984844 
7.1263474e+1, 2.1236615e+1, -106108.37, -663499.2, 301.89377, 0.0015817945, 0.0013986126, -106108.2, -106108.2, 0.0, 2.5004768, 2.4986315 
7.1263456e+1, 2.3735255e+1, -106593.29, -663147.25, 602.1024, -0.00018309944, 0.0020156933, -106592.64, -106592.64, 0.0, 2.5004754, 2.498633 
7.126345e+1, 2.6233894e+1, -107424.29, -663512.2, 635.6906, -0.0019431455, 0.0026375945, -107423.56, -107423.56, 0.0, 2.500474, 2.498633 
7.126343e+1, 2.8732535e+1, -108258.72, -663878.9, 668.883, -0.003697609, 0.0032655622, -108257.914, -108257.914, 0.0, 2.5004725, 2.498633 
7.126343e+1, 3.1231245e+1, -65768.59, -575249.5, -164.90895, -0.0037720832, 0.003374863, -65768.54, -65768.54, 0.0, 2.500472, 2.4987853 
7.1263456e+1, 3.373002e+1, -64787.8, -574010.94, 75.19412, -0.002290427, 0.0022837583, -64787.79, -64787.79, 0.0, 2.500473, 2.498787 
7.1263474e+1, 3.6228797e+1, -64262.15, -573716.94, 16.00654, -0.0008024555, 0.0011971762, -64262.15, -64262.15, 0.0, 2.500474, 2.498787 
7.1263486e+1, 3.872758e+1, -63738.008, -573423.7, -43.015682, 0.0006923586, 0.000117444804, -63738.004, -63738.004, 0.0, 2.5004747, 2.4987872 
7.12635e+1, 4.1226438e+1, -22864.916, -488907.4, 228.5319, 0.00106977, 0.00013365185, -22864.805, -22864.805, 0.0, 2.5004752, 2.498932 
7.1263486e+1, 4.372537e+1, -22375.602, -487783.03, 576.5803, -0.00030747, 0.00031156646, -22374.887, -22374.887, 0.0, 2.500475, 2.498934 
7.126348e+1, 4.6224308e+1, -22418.39, -487760.44, 734.0069, -0.001675252, 0.0004949211, -22417.232, -22417.232, 0.0, 2.500475, 2.498934 
7.126347e+1, 4.8723245e+1, -22457.43, -487736.03, 892.7692, -0.003030766, 0.0006879795, -22455.717, -22455.717, 0.0, 2.5004747, 2.498934 
7.1263474e+1, 5.122226e+1, 20167.2, -399401.5, 587.2387, -0.003195441, 0.0015283497, 20168.021, 20168.021, 0.0, 2.500475, 2.4990857 
7.126348e+1, 5.3721356e+1, 21059.998, -398037.06, 241.39339, -0.002228711, 0.0021637855, 21060.139, 21060.139, 0.0, 2.5004756, 2.4990876 
7.12635e+1, 5.622045e+1, 21392.688, -397838.0, 74.00218, -0.0012446452, 0.002804529, 21392.701, 21392.701, 0.0, 2.5004761, 2.4990878 
7.1263504e+1, 5.8719546e+1, 21724.0, -397639.56, -94.5283, -0.000242837, 0.003455143, 21724.021, 21724.021, 0.0, 2.5004766, 2.4990878 
7.126352e+1, 6.12187e+1, 63201.758, -311671.56, 674.66943, 0.000048135516, 0.0037447182, 63202.97, 63202.97, 0.0, 2.5004768, 2.4992354 
7.126351e+1, 6.371793e+1, 63474.04, -310412.28, 368.72662, -0.00086514873, 0.0023591437, 63474.402, 63474.402, 0.0, 2.5004761, 2.4992378 
7.1263504e+1, 6.6217154e+1, 63049.293, -310588.2, 578.5257, -0.0017602486, 0.00097443885, 63050.188, 63050.188, 0.0, 2.5004754, 2.4992378 
7.1263504e+1, 6.871638e+1, 62615.082, -310768.63, 780.5401, -0.0026343544, -0.00040158234, 62616.715, 62616.715, 0.0, 2.5004745, 2.499238 
7.126351e+1, 7.121569e+1, 104774.0, -223867.27, 1335.4592, -0.00261304, -0.000074473995, 104779.43, 104779.43, 0.0, 2.5004754, 2.4993868 
7.126351e+1, 7.371509e+1, 106396.805, -221851.73, 339.42407, -0.002538168, 0.00064250856, 106397.16, 106397.16, 0.0, 2.5004768, 2.4993894 
7.126351e+1, 7.621448e+1, 107254.26, -221414.11, 334.0459, -0.0024389345, 0.0013553521, 107254.59, 107254.59, 0.0, 2.5004783, 2.4993896 
7.126351e+1, 7.8713876e+1, 108114.88, -220974.97, 330.04456, -0.0023096711, 0.0020731464, 108115.21, 108115.21, 0.0, 2.5004797, 2.4993896 
7.126352e+1, 8.121335e+1, 150894.66, -131910.61, 1770.3357, -0.002720694, 0.0028773886, 150905.73, 150905.73, 0.0, 2.5004795, 2.4995427 
7.126353e+1, 8.371288e+1, 149928.69, -130789.7, -21.338013, -0.002102927, 0.0022002887, 149928.69, 149928.69, 0.0, 2.5004761, 2.4995463 
7.1263534e+1, 8.6212426e+1, 147971.27, -131714.39, -335.88153, -0.0014434248, 0.001518308, 147971.67, 147971.67, 0.0, 2.5004728, 2.4995463 
7.126354e+1, 8.871196e+1, 146009.66, -132641.1, -648.1737, -0.000753589, 0.00084261247, 146011.16, 146011.16, 0.0, 2.5004692, 2.4995463 
7.126358e+1, 9.121159e+1, 185788.38, -50330.32, 694.5459, 0.0019103594, 0.0016434996, 185790.4, 185790.4, 0.0, 2.5004697, 2.4996874 
7.126355e+1, 9.371126e+1, 188509.0, -47073.41, -813.6208, -0.00062436424, 0.0014733959, 188511.8, 188511.8, 0.0, 2.5004723, 2.4996917 
7.126352e+1, 9.621095e+1, 190013.1, -46307.625, -371.0232, -0.003158101, 0.0012668967, 190013.67, 190013.67, 0.0, 2.5004747, 2.499692 
7.12635e+1, 9.871064e+1, 191491.72, -45554.098, 71.97066, -0.005636983, 0.0010431195, 191491.75, 191491.75, 0.0, 2.5004773, 2.499692 
7.376392e+1, 1.2491691e+0, -188527.83, -836937.4, 301.3951, -0.00008760312, 0.00018341151, -188527.69, -188527.69, 0.0, 2.5004792, 2.498333 
7.376392e+1, 3.7475076e+0, -190438.36, -838113.56, 255.21121, -0.0009465266, 0.0005515257, -190438.27, -190438.27, 0.0, 2.5004764, 2.4983325 
7.3763907e+1, 6.2458456e+0, -192184.64, -838946.3, 149.77444, -0.0018005857, 0.000921362, -192184.61, -192184.61, 0.0, 2.5004733, 2.4983325 
7.37639e+1, 8.7441844e+0, -193932.31, -839779.75, 44.215096, -0.0026497801, 0.0012929204, -193932.31, -193932.31, 0.0, 2.5004702, 2.4983325 
7.37639e+1, 1.1242595e+1, -151754.36, -751809.75, -325.28748, -0.0026277017, 0.0015269961, -151754.17, -151754.17, 0.0, 2.50047, 2.4984834 
7.3763907e+1, 1.3741079e+1, -150138.22, -750641.8, -122.46893, -0.001834477, 0.0012536622, -150138.2, -150138.2, 0.0, 2.5004723, 2.4984844 
7.3763925e+1, 1.6239563e+1, -148752.6, -749951.5, -86.271095, -0.001038866, 0.000984558, -148752.58, -148752.58, 0.0, 2.5004747, 2.4984844 
7.376393e+1, 1.8738046e+1, -147367.81, -749261.6, -49.935493, -0.0002407333, 0.0007201157, -147367.81, -147367.81, 0.0, 2.500477, 2.4984844 
7.376393e+1, 2.1236609e+1, -105845.65, -663303.75, 68.51299, -0.00009567866, 0.0010791308, -105845.63, -105845.63, 0.0, 2.5004773, 2.4986317 
7.376393e+1, 2.3735249e+1, -106329.07, -662941.56, 411.2977, -0.0009291589, 0.0015410263, -106328.77, -106328.77, 0.0, 2.500476, 2.4986331 
7.3763925e+1, 2.6233888e+1, -107163.77, -663308.3, 450.25153, -0.0017608581, 0.002008307, -107163.414, -107163.414, 0.0, 2.5004745, 2.4986331 
7.3763925e+1, 2.8732526e+1, -107999.34, -663675.44, 489.38242, -0.0025899678, 0.0024822403, -107998.914, -107998.914, 0.0, 2.5004728, 2.4986331 
7.3763925e+1, 3.123124e+1, -65685.56, -575412.5, -33.265133, -0.0025472227, 0.0027516366, -65685.555, -65685.555, 0.0, 2.5004725, 2.4987848 
7.376393e+1, 3.3730018e+1, -64701.117, -574170.94, 252.50467, -0.001846115, 0.0021401823, -64700.992, -64700.992, 0.0, 2.5004733, 2.4987864 
7.3763937e+1, 3.6228803e+1, -64172.2, -573874.75, 197.84291, -0.0011424628, 0.0015341298, -64172.125, -64172.125, 0.0, 2.5004742, 2.4987867 
7.3763955e+1, 3.8727582e+1, -63644.184, -573579.0, 143.5144, -0.00043545646, 0.0009358112, -63644.14, -63644.14, 0.0, 2.5004752, 2.4987867 
7.3763955e+1, 4.1226444e+1, -22386.19, -488255.25, 241.17851, -0.00015730616, 0.001024994, -22386.064, -22386.064, 0.0, 2.5004754, 2.4989328 
7.3763955e+1, 4.3725377e+1, -21881.83, -487099.72, 614.33527, -0.0008319194, 0.00088908774, -21881.018, -21881.018, 0.0, 2.5004754, 2.498935 
7.3763955e+1, 4.622431e+1, -21923.588, -487075.13, 778.8676, -0.001503856, 0.00075827376, -21922.283, -21922.283, 0.0, 2.5004752, 2.498935 
7.3763955e+1, 4.8723245e+1, -21967.395, -487051.5, 943.55273, -0.0021707888, 0.0006366862, -21965.48, -21965.48, 0.0, 2.5004752, 2.4989352 
7.3763955e+1, 5.122226e+1, 20007.938, -400047.66, 700.4129, -0.002214845, 0.0012628495, 20009.105, 20009.105, 0.0, 2.5004754, 2.4990842 
7.376396e+1, 5.372135e+1, 20925.213, -398622.22, 383.12466, -0.0018731576, 0.0016988525, 20925.563, 20925.563, 0.0, 2.500476, 2.4990866 
7.3763967e+1, 5.622044e+1, 21249.334, -398425.63, 222.73914, -0.0015241363, 0.002138729, 21249.453, 21249.453, 0.0, 2.5004764, 2.4990866 
7.376398e+1, 5.8719534e+1, 21571.41, -398230.03, 62.44057, -0.0011664733, 0.0025875366, 21571.418, 21571.418, 0.0, 2.5004768, 2.4990866 
7.3763984e+1, 6.1218697e+1, 63714.176, -310832.06, 650.18976, -0.0010566211, 0.0031082046, 63715.305, 63715.305, 0.0, 2.500477, 2.4992366 
7.376398e+1, 6.371793e+1, 63995.438, -309527.97, 334.4735, -0.0014974265, 0.0024424086, 63995.74, 63995.74, 0.0, 2.5004764, 2.4992392 
7.376398e+1, 6.621716e+1, 63560.516, -309703.28, 561.2099, -0.0019316205, 0.0017759866, 63561.36, 63561.36, 0.0, 2.5004754, 2.4992392 
7.376398e+1, 6.8716395e+1, 63122.21, -309880.22, 787.7612, -0.002357479, 0.00111649, 63123.875, 63123.875, 0.0, 2.5004747, 2.4992394 
7.3763984e+1, 7.121571e+1, 104830.84, -223886.81, 1709.1499, -0.002196052, 0.001464468, 104839.73, 104839.73, 0.0, 2.5004754, 2.4993865 
7.3763984e+1, 7.3715097e+1, 106473.94, -221803.45, 701.2088, -0.0023009286, 0.0013936108, 106475.43, 106475.43, 0.0, 2.5004768, 2.4993896 
7.376399e+1, 7.6214486e+1, 107315.33, -221373.38, 717.95105, -0.0023971302, 0.0013169157, 107316.89, 107316.89, 0.0, 2.5004783, 2.4993896 
7.376399e+1, 7.871387e+1, 108152.15, -220945.5, 734.72424, -0.0024790245, 0.0012441302, 108153.79, 108153.79, 0.0, 2.5004797, 2.4993896 
7.376399e+1, 8.1213343e+1, 150267.0, -133201.98, 1522.2086, -0.0030379312, 0.0019182336, 150275.19, 150275.19, 0.0, 2.5004795, 2.4995403 
7.3764e+1, 8.371288e+1, 149293.77, -132020.58, -340.664, -0.0025214201, 0.0017497068, 149294.17, 149294.17, 0.0, 2.500476, 2.4995441 
7.3764e+1, 8.6212426e+1, 147289.42, -132963.23, -641.989, -0.0019814167, 0.0015729209, 147290.89, 147290.89, 0.0, 2.5004725, 2.4995441 
7.3764e+1, 8.8711965e+1, 145279.58, -133908.56, -943.8533, -0.0014291147, 0.0013993591, 145282.77, 145282.77, 0.0, 2.500469, 2.4995441 
7.376404e+1, 9.121159e+1, 186350.25, -48814.676, 1332.5652, 0.0013103328, 0.0025662181, 186357.8, 186357.8, 0.0, 2.5004692, 2.4996903 
7.3764014e+1, 9.3711275e+1, 189078.61, -45437.17, -240.61943, -0.0008578729, 0.002272656, 189078.86, 189078.86, 0.0, 2.5004718, 2.4996948 
7.376399e+1, 9.621096e+1, 190519.34, -44705.094, 206.49936, -0.0030529643, 0.0019390468, 190519.53, 190519.53, 0.0, 2.5004742, 2.4996948 
7.3763967e+1, 9.871065e+1, 191948.66, -43978.523, 653.3076, -0.005221934, 0.0015871346, 191950.47, 191950.47, 0.0, 2.5004766, 2.499695 
7.626438e+1, 1.24916926e+0, -188738.56, -837375.7, -160.36325, -0.0017281974, 0.00022807131, -188738.53, -188738.53, 0.0, 2.5004792, 2.4983323 
7.626438e+1, 3.747508e+0, -190655.61, -838566.44, -199.20392, -0.0015590595, 0.00068508234, -190655.55, -190655.55, 0.0, 2.5004764, 2.4983315 
7.626438e+1, 6.245846e+0, -192401.06, -839398.5, -302.43018, -0.0013916753, 0.0011432519, -192400.92, -192400.92, 0.0, 2.5004733, 2.4983315 
7.626439e+1, 8.7441856e+0, -194147.88, -840231.25, -405.77902, -0.0012260452, 0.00160258, -194147.63, -194147.63, 0.0, 2.5004702, 2.4983315 
7.626439e+1, 1.1242597e+1, -151718.28, -751729.7, 8.390455, -0.0012102381, 0.0018064039, -151718.28, -151718.28, 0.0, 2.50047, 2.4984837 
7.626439e+1, 1.3741079e+1, -150098.6, -750553.6, 231.26917, -0.001432886, 0.0013795788, -150098.5, -150098.5, 0.0, 2.5004723, 2.4984844 
7.626439e+1, 1.6239561e+1, -148713.16, -749863.0, 269.2204, -0.0016566375, 0.00095685106, -148713.05, -148713.05, 0.0, 2.5004747, 2.4984846 
7.626439e+1, 1.8738043e+1, -147328.58, -749172.75, 307.3094, -0.0018813757, 0.0005386562, -147328.42, -147328.42, 0.0, 2.500477, 2.4984846 
7.62644e+1, 2.1236604e+1, -105819.36, -663240.1, -194.04887, -0.0017729938, 0.00075394235, -105819.3, -105819.3, 0.0, 2.5004773, 2.4986317 
7.62644e+1, 2.3735243e+1, -106288.375, -662846.06, 187.5434, -0.0016748672, 0.0010575021, -106288.31, -106288.31, 0.0, 2.500476, 2.4986331 
7.6264405e+1, 2.623388e+1, -107124.25, -663213.3, 228.03355, -0.0015780248, 0.0013669697, -107124.16, -107124.16, 0.0, 2.5004745, 2.4986334 
7.6264405e+1, 2.8732517e+1, -107960.99, -663581.0, 268.7008, -0.0014815872, 0.0016836765, -107960.86, -107960.86, 0.0, 2.5004728, 2.4986334 
7.6264405e+1, 3.123123e+1, -65841.25, -575712.5, 51.896782, -0.0013259851, 0.002120267, -65841.24, -65841.24, 0.0, 2.5004725, 2.4987843 
7.626441e+1, 3.3730018e+1, -64845.57, -574444.25, 379.78296, -0.0014054567, 0.0019860656, -64845.29, -64845.29, 0.0, 2.5004733, 2.498786 
7.626441e+1, 3.6228803e+1, -64318.305, -574148.2, 326.61646, -0.0014861191, 0.001858079, -64318.098, -64318.098, 0.0, 2.5004742, 2.4987862 
7.626441e+1, 3.8727587e+1, -63791.938, -573852.6, 273.78317, -0.0015669158, 0.0017387097, -63791.79, -63791.79, 0.0, 2.5004752, 2.4987862 
7.626442e+1, 4.1226447e+1, -22167.37, -487754.4, 193.47557, -0.0013801893, 0.0019097814, -22167.29, -22167.29, 0.0, 2.5004754, 2.4989338 
7.626443e+1, 4.372538e+1, -21633.008, -486536.1, 591.54486, -0.0013531235, 0.001457078, -21632.256, -21632.256, 0.0, 2.5004754, 2.498936 
7.626443e+1, 4.622431e+1, -21674.031, -486509.63, 759.07574, -0.0013302364, 0.0010090201, -21672.793, -21672.793, 0.0, 2.5004752, 2.498936 
7.6264435e+1, 4.8723248e+1, -21717.104, -486484.16, 926.7593, -0.0013096099, 0.00056970963, -21715.256, -21715.256, 0.0, 2.5004752, 2.4989362 
7.626444e+1, 5.122226e+1, 19601.89, -400839.28, 745.55524, -0.0012413335, 0.0009901962, 19603.213, 19603.213, 0.0, 2.5004754, 2.499083 
7.626444e+1, 5.372135e+1, 20566.713, -399316.72, 453.6045, -0.0015271744, 0.0012227885, 20567.201, 20567.201, 0.0, 2.500476, 2.4990854 
7.626444e+1, 5.622043e+1, 20892.89, -399117.47, 296.97913, -0.0018155912, 0.0014577076, 20893.102, 20893.102, 0.0, 2.5004764, 2.4990854 
7.626444e+1, 5.871952e+1, 21217.023, -398919.22, 140.44075, -0.0021044672, 0.0017006191, 21217.07, 21217.07, 0.0, 2.5004768, 2.4990854 
7.626444e+1, 6.121869e+1, 64018.707, -310140.0, 537.6605, -0.0021527898, 0.0024727893, 64019.48, 64019.48, 0.0, 2.500477, 2.4992378 
7.626445e+1, 6.371793e+1, 64357.023, -308722.2, 207.31084, -0.0021270225, 0.0025223969, 64357.14, 64357.14, 0.0, 2.5004764, 2.4992406 
7.626445e+1, 6.621717e+1, 63928.633, -308888.84, 439.36386, -0.002106517, 0.0025696005, 63929.15, 63929.15, 0.0, 2.5004754, 2.4992406 
7.626445e+1, 6.8716407e+1, 63496.85, -309057.13, 671.2318, -0.002090337, 0.002621971, 63498.063, 63498.063, 0.0, 2.5004747, 2.4992409 
7.6264465e+1, 7.121573e+1, 104746.72, -224008.88, 1936.4138, -0.0017841147, 0.0030019956, 104758.125, 104758.125, 0.0, 2.5004754, 2.4993865 
7.6264465e+1, 7.37151e+1, 106450.6, -221804.44, 899.72974, -0.0020718637, 0.0021408135, 106453.06, 106453.06, 0.0, 2.5004768, 2.4993896 
7.6264465e+1, 7.6214486e+1, 107295.445, -221372.5, 922.14526, -0.0023667165, 0.001271917, 107298.03, 107298.03, 0.0, 2.5004783, 2.4993896 
7.6264465e+1, 7.871387e+1, 108135.72, -220942.77, 944.5918, -0.0026629844, 0.00040589264, 108138.43, 108138.43, 0.0, 2.5004797, 2.4993896 
7.6264465e+1, 8.121333e+1, 149606.94, -134541.19, 1068.4491, -0.0033623902, 0.00095906376, 149610.95, 149610.95, 0.0, 2.5004795, 2.4995382 
7.6264465e+1, 8.3712876e+1, 148697.7, -133233.72, -876.01166, -0.00295092, 0.0012960898, 148700.42, 148700.42, 0.0, 2.500476, 2.499542 
7.6264465e+1, 8.621242e+1, 146700.55, -134168.31, -1171.0309, -0.0025343357, 0.0016213249, 146705.44, 146705.44, 0.0, 2.5004725, 2.499542 
7.6264465e+1, 8.8711965e+1, 144697.88, -135105.58, -1466.5892, -0.0021234932, 0.0019467234, 144705.56, 144705.56, 0.0, 2.500469, 2.4995422 
7.62645e+1, 9.1211593e+1, 187106.77, -47246.227, 1749.6357, 0.0006847301, 0.003508736, 187119.83, 187119.83, 0.0, 2.5004692, 2.499693 
7.626449e+1, 9.371128e+1, 189934.64, -43664.53, 119.83625, -0.0011150474, 0.0030862933, 189934.7, 189934.7, 0.0, 2.5004718, 2.499698 
7.6264465e+1, 9.6210974e+1, 191374.86, -42935.895, 578.47424, -0.002969558, 0.0026196875, 191376.28, 191376.28, 0.0, 2.5004742, 2.499698 
7.626445e+1, 9.871066e+1, 192803.63, -42212.766, 1036.8018, -0.0048267134, 0.0021337548, 192808.2, 192808.2, 0.0, 2.5004766, 2.4996982 
7.8764844e+1, 1.2491693e+0, -190340.95, -838486.56, -635.006, -0.0033670238, 0.0002718157, -190340.33, -190340.33, 0.0, 2.5004768, 2.4983315 
7.8764856e+1, 3.747508e+0, -192201.53, -839663.3, -695.3611, -0.0021701953, 0.0008158988, -192200.78, -192200.78, 0.0, 2.500474, 2.4983308 
7.876486e+1, 6.245847e+0, -193935.28, -840489.44, -825.9637, -0.0009816077, 0.0013605849, -193934.23, -193934.23, 0.0, 2.500471, 2.4983308 
7.876487e+1, 8.7441856e+0, -195723.7, -841341.94, -958.0608, 0.00019873878, 0.0019058738, -195722.28, -195722.28, 0.0, 2.500468, 2.4983308 
7.876487e+1, 1.1242597e+1, -153063.39, -752330.94, 208.33655, 0.00020933415, 0.0020842382, -153063.33, -153063.33, 0.0, 2.5004675, 2.4984837 
7.876486e+1, 1.3741077e+1, -151400.86, -751115.75, 423.71268, -0.0010292019, 0.0015005613, -151400.56, -151400.56, 0.0, 2.50047, 2.4984846 
7.876486e+1, 1.623956e+1, -150015.47, -750424.8, 430.87723, -0.0022722508, 0.0009208418, -150015.16, -150015.16, 0.0, 2.5004723, 2.4984846 
7.8764856e+1, 1.8738039e+1, -148663.02, -749749.7, 434.93866, -0.0035197102, 0.00034553537, -148662.7, -148662.7, 0.0, 2.5004747, 2.4984848 
7.8764856e+1, 2.1236598e+1, -107183.37, -663865.44, -728.32745, -0.003448586, 0.00042346542, -107182.414, -107182.414, 0.0, 2.500475, 2.498632 
7.876486e+1, 2.3735236e+1, -107600.09, -663405.94, -356.40677, -0.0024188182, 0.00056556676, -107599.87, -107599.87, 0.0, 2.5004735, 2.4986334 
7.876488e+1, 2.6233873e+1, -108428.22, -663769.44, -365.25342, -0.0013933391, 0.0007140435, -108427.984, -108427.984, 0.0, 2.500472, 2.4986334 
7.8764886e+1, 2.8732508e+1, -109278.22, -664143.56, -377.12878, -0.0003712016, 0.0008703336, -109277.96, -109277.96, 0.0, 2.5004706, 2.4986336 
7.876489e+1, 3.1231225e+1, -67363.516, -576694.25, -344.82147, -0.000107170665, 0.0014812032, -67363.28, -67363.28, 0.0, 2.5004702, 2.4987838 
7.8764886e+1, 3.3730015e+1, -66326.805, -575365.0, -33.563488, -0.00096734497, 0.0018218237, -66326.805, -66326.805, 0.0, 2.500471, 2.4987855 
7.8764886e+1, 3.6228806e+1, -65805.21, -575071.1, -146.24477, -0.0018323491, 0.002169381, -65805.17, -65805.17, 0.0, 2.5004718, 2.4987857 
7.876488e+1, 3.8727596e+1, -65307.336, -574788.6, -262.01776, -0.0027009153, 0.002526416, -65307.203, -65307.203, 0.0, 2.5004728, 2.4987857 
7.8764886e+1, 4.1226456e+1, -23322.42, -487943.16, -592.0225, -0.0025978615, 0.0027882268, -23321.666, -23321.666, 0.0, 2.500473, 2.4989345 
7.876489e+1, 4.3725386e+1, -22713.465, -486616.28, -244.38045, -0.0018702279, 0.0020157131, -22713.336, -22713.336, 0.0, 2.500473, 2.498937 
7.876491e+1, 4.6224317e+1, -22767.766, -486594.8, -154.9028, -0.0011535838, 0.0012472835, -22767.713, -22767.713, 0.0, 2.5004728, 2.498937 
7.8764915e+1, 4.8723248e+1, -22864.965, -486593.97, -68.20359, -0.00044634554, 0.00048710298, -22864.955, -22864.955, 0.0, 2.5004725, 2.4989371 
7.876492e+1, 5.122225e+1, 17780.596, -402341.13, -260.628, -0.000274052, 0.0007103517, 17780.758, 17780.758, 0.0, 2.5004728, 2.4990816 
7.8764915e+1, 5.372134e+1, 18859.398, -400664.4, -594.2989, -0.0011900286, 0.0007354512, 18860.24, 18860.24, 0.0, 2.5004735, 2.4990842 
7.8764915e+1, 5.6220424e+1, 19184.121, -400464.3, -817.94604, -0.0021182555, 0.0007612078, 19185.717, 19185.717, 0.0, 2.500474, 2.4990842 
7.876491e+1, 5.871951e+1, 19452.824, -400291.2, -1046.7251, -0.0030558992, 0.000794008, 19455.436, 19455.436, 0.0, 2.5004745, 2.4990845 
7.876491e+1, 6.121868e+1, 62907.992, -310178.78, -913.8189, -0.0032394358, 0.0018379366, 62910.23, 62910.23, 0.0, 2.5004747, 2.499239 
7.8764915e+1, 6.371793e+1, 63421.145, -308544.88, -1317.665, -0.002753074, 0.002598402, 63425.813, 63425.813, 0.0, 2.500474, 2.499242 
7.876492e+1, 6.621718e+1, 63003.566, -308700.94, -1149.6827, -0.0022839005, 0.003354405, 63007.12, 63007.12, 0.0, 2.5004733, 2.499242 
7.8764933e+1, 6.871643e+1, 62510.902, -308893.16, -981.4779, -0.0018314675, 0.0041138185, 62513.496, 62513.496, 0.0, 2.5004723, 2.4992423 
7.8764945e+1, 7.121574e+1, 103389.55, -224780.28, 591.5293, -0.0013757001, 0.0045368667, 103390.61, 103390.61, 0.0, 2.5004733, 2.4993863 
7.8764945e+1, 7.371512e+1, 105424.695, -222290.86, -474.44287, -0.0018497184, 0.0028826469, 105425.38, 105425.38, 0.0, 2.5004752, 2.4993896 
7.876494e+1, 7.6214486e+1, 106397.17, -221797.36, -453.57297, -0.0023463978, 0.0012186652, 106397.805, 106397.805, 0.0, 2.5004766, 2.4993896 
7.876494e+1, 7.871386e+1, 107240.34, -221366.14, -439.6051, -0.0028599019, -0.00044347107, 107240.94, 107240.94, 0.0, 2.500478, 2.4993896 
7.876494e+1, 8.1213325e+1, 148194.02, -136276.22, -978.4011, -0.0036922537, -0.0000022905185, 148197.38, 148197.38, 0.0, 2.500478, 2.4995358 
7.876494e+1, 8.3712876e+1, 147655.81, -134663.64, -2991.339, -0.003389599, 0.0008369725, 147687.5, 147687.5, 0.0, 2.5004752, 2.49954 
7.8764933e+1, 8.621242e+1, 145794.72, -135528.17, -3269.6199, -0.0030999468, 0.00166079, 145832.7, 145832.7, 0.0, 2.5004718, 2.49954 
7.876492e+1, 8.8711965e+1, 143768.8, -136472.08, -3553.1455, -0.0028336865, 0.0024817442, 143813.84, 143813.84, 0.0, 2.5004685, 2.49954 
7.8764963e+1, 9.12116e+1, 187619.67, -45836.36, 663.35693, 0.000036803816, 0.0044678296, 187621.56, 187621.56, 0.0, 2.500469, 2.4996955 
7.876495e+1, 9.3711287e+1, 190740.9, -41917.77, -913.7308, -0.0013926998, 0.003910848, 190744.5, 190744.5, 0.0, 2.5004716, 2.499701 
7.876494e+1, 9.621098e+1, 192010.11, -41274.73, -343.82504, -0.0029038398, 0.0033052205, 192010.63, 192010.63, 0.0, 2.5004737, 2.499701 
7.8764933e+1, 9.871067e+1, 192929.78, -40800.01, 218.71745, -0.0044454876, 0.0026793396, 192929.98, 192929.98, 0.0, 2.5004754, 2.499701 
8.126532e+1, 1.24916874e+0, -194217.95, -840499.94, -565.96075, -0.003467091, 0.00022705526, -194217.45, -194217.45, 0.0, 2.5004704, 2.498331 
8.126533e+1, 3.7475064e+0, -193000.39, -840209.5, -416.9537, -0.0020703867, 0.0006821931, -193000.13, -193000.13, 0.0, 2.5004728, 2.4983306 
8.1265336e+1, 6.245844e+0, -191594.78, -839526.5, -338.5988, -0.00066173583, 0.0011387012, -191594.61, -191594.61, 0.0, 2.5004752, 2.4983306 
8.126535e+1, 8.7441814e+0, -190190.3, -838844.0, -260.20566, 0.0007588617, 0.0015965796, -190190.19, -190190.19, 0.0, 2.5004776, 2.4983306 
8.126535e+1, 1.1242593e+1, -147256.94, -749770.2, 1015.53735, 0.00075430283, 0.0017991146, -147255.22, -147255.22, 0.0, 2.5004778, 2.4984832 
8.126534e+1, 1.3741075e+1, -148222.69, -749825.7, 1134.3513, -0.00077922863, 0.0013543798, -148220.55, -148220.55, 0.0, 2.5004756, 2.4984841 
8.126533e+1, 1.6239555e+1, -149437.92, -750396.0, 1030.3378, -0.0023048143, 0.000914434, -149436.16, -149436.16, 0.0, 2.5004735, 2.4984841 
8.126532e+1, 1.8738039e+1, -150654.83, -750967.2, 926.27985, -0.0038223274, 0.00047972906, -150653.39, -150653.39, 0.0, 2.5004714, 2.4984841 
8.126532e+1, 2.1236598e+1, -109464.19, -665055.44, -289.56885, -0.0037675512, 0.0005779992, -109464.03, -109464.03, 0.0, 2.500471, 2.4986317 
8.1265336e+1, 2.3735233e+1, -108191.5, -663783.44, 161.91068, -0.0024856657, 0.000616855, -108191.45, -108191.45, 0.0, 2.5004725, 2.4986331 
8.126535e+1, 2.623387e+1, -107319.15, -663338.6, 204.50458, -0.001199273, 0.0006595022, -107319.08, -107319.08, 0.0, 2.500474, 2.4986331 
8.1265366e+1, 2.8732502e+1, -106448.22, -662894.5, 247.26714, 0.000092538394, 0.0007073801, -106448.11, -106448.11, 0.0, 2.5004754, 2.4986334 
8.1265366e+1, 3.123122e+1, -64243.973, -575617.25, 339.4667, 0.00038301642, 0.0012737061, -64243.746, -64243.746, 0.0, 2.500476, 2.4987829 
8.126536e+1, 3.3730006e+1, -64026.31, -574649.9, 767.33057, -0.00075358653, 0.0015970273, -64025.152, -64025.152, 0.0, 2.5004754, 2.4987848 
8.126535e+1, 3.6228797e+1, -64329.563, -574764.25, 739.42444, -0.001886381, 0.0019229965, -64328.492, -64328.492, 0.0, 2.500475, 2.4987848 
8.126535e+1, 3.8727584e+1, -64631.047, -574877.7, 712.72656, -0.0030138958, 0.0022542907, -64630.05, -64630.05, 0.0, 2.5004742, 2.4987848 
8.126535e+1, 4.1226447e+1, -22922.191, -487965.94, 322.3838, -0.0029436203, 0.0025793863, -22921.969, -22921.969, 0.0, 2.500474, 2.498934 
8.1265366e+1, 4.372538e+1, -22222.719, -486554.3, 553.8208, -0.0019863315, 0.0019552126, -22222.059, -22222.059, 0.0, 2.500474, 2.4989364 
8.126538e+1, 4.622431e+1, -22173.432, -486496.8, 502.72922, -0.0010226696, 0.0013307276, -22172.889, -22172.889, 0.0, 2.5004742, 2.4989367 
8.1265396e+1, 4.872324e+1, -22124.914, -486439.66, 451.08286, -0.000051182025, 0.00071012776, -22124.477, -22124.477, 0.0, 2.5004742, 2.4989367 
8.1265396e+1, 5.122225e+1, 18446.35, -402239.44, 511.3794, 0.00016668378, 0.0009471172, 18446.97, 18446.97, 0.0, 2.5004742, 2.4990811 
8.126539e+1, 5.372134e+1, 19291.814, -400598.56, 721.2273, -0.0009538514, 0.00078961387, 19293.055, 19293.055, 0.0, 2.5004745, 2.4990838 
8.126539e+1, 5.622042e+1, 19383.04, -400524.94, 1028.353, -0.0020657377, 0.00062937953, 19385.557, 19385.557, 0.0, 2.5004745, 2.499084 
8.126538e+1, 5.8719504e+1, 19474.238, -400451.3, 1335.7688, -0.0031660001, 0.00047316658, 19478.486, 19478.486, 0.0, 2.5004747, 2.499084 
8.126538e+1, 6.121867e+1, 63043.656, -310521.2, 1580.0524, -0.0034057156, 0.0014734401, 63050.34, 63050.34, 0.0, 2.5004752, 2.499238 
8.126539e+1, 6.371792e+1, 64488.234, -308352.16, 796.87494, -0.0028470845, 0.0022866894, 64489.938, 64489.938, 0.0, 2.5004761, 2.4992414 
8.1265396e+1, 6.621717e+1, 65027.844, -308063.47, 599.6855, -0.0022690147, 0.0030932627, 65028.81, 65028.81, 0.0, 2.500477, 2.4992414 
8.12654e+1, 6.871641e+1, 65555.52, -307780.53, 395.21902, -0.0016711383, 0.0039013699, 65555.945, 65555.945, 0.0, 2.500478, 2.4992414 
8.126542e+1, 7.1215737e+1, 105780.48, -223711.25, 1857.4231, -0.0011569367, 0.0044036657, 105790.95, 105790.95, 0.0, 2.5004773, 2.499386 
8.126542e+1, 7.37151e+1, 105284.31, -222329.34, 915.38824, -0.0015961896, 0.0027486125, 105286.875, 105286.875, 0.0, 2.5004747, 2.4993896 
8.126542e+1, 7.621448e+1, 103777.164, -223045.05, 1099.8141, -0.002008934, 0.0010828257, 103780.87, 103780.87, 0.0, 2.500472, 2.4993896 
8.126542e+1, 7.871385e+1, 102270.43, -223760.56, 1283.8052, -0.0023897472, -0.0005813387, 102275.484, 102275.484, 0.0, 2.5004697, 2.4993896 
8.126542e+1, 8.121332e+1, 143506.69, -138945.25, 1337.0798, -0.0032880148, -0.00017106939, 143513.03, 143513.03, 0.0, 2.5004704, 2.4995348 
8.1265414e+1, 8.371286e+1, 147058.67, -135253.72, -262.22375, -0.0032456967, 0.0005518512, 147058.92, 147058.92, 0.0, 2.5004745, 2.4995394 
8.12654e+1, 8.621241e+1, 149385.88, -134106.4, -64.12759, -0.0031579207, 0.0012634301, 149385.89, 149385.89, 0.0, 2.5004785, 2.4995394 
8.1265396e+1, 8.8711953e+1, 151715.84, -132957.75, 134.99562, -0.0030351172, 0.0019766758, 151715.9, 151715.9, 0.0, 2.5004823, 2.4995394 
8.126543e+1, 9.121159e+1, 195382.0, -42195.51, 3982.3062, -0.00012555832, 0.0041052806, 195448.73, 195448.73, 0.0, 2.5004823, 2.4996953 
8.1265426e+1, 9.371128e+1, 193236.13, -40679.496, 1300.9529, -0.001084959, 0.003543744, 193243.36, 193243.36, 0.0, 2.500476, 2.499701 
8.126542e+1, 9.621097e+1, 189481.11, -42466.934, 886.2658, -0.0019901409, 0.0029480066, 189484.5, 189484.5, 0.0, 2.5004694, 2.499701 
8.1265414e+1, 9.871066e+1, 185708.22, -44262.992, 470.30896, -0.002791494, 0.002349524, 185709.19, 185709.19, 0.0, 2.500463, 2.499701 
8.376579e+1, 1.2491677e+0, -193939.66, -840140.8, -203.46007, -0.0027110714, 0.00008292174, -193939.6, -193939.6, 0.0, 2.5004706, 2.4983315 
8.37658e+1, 3.7475032e+0, -192727.67, -839865.25, -49.352375, -0.0018658092, 0.0002496914, -192727.67, -192727.67, 0.0, 2.500473, 2.498331 
8.376581e+1, 6.2458384e+0, -191320.31, -839181.75, 34.886555, -0.0010153061, 0.0004176967, -191320.31, -191320.31, 0.0, 2.5004754, 2.498331 
8.3765817e+1, 8.744174e+0, -189914.28, -838498.9, 119.22077, -0.00015956217, 0.0005869374, -189914.27, -189914.27, 0.0, 2.5004778, 2.498331 
8.3765817e+1, 1.1242585e+1, -147311.77, -750111.7, 698.6372, -0.00018897124, 0.00084276363, -147310.97, -147310.97, 0.0, 2.500478, 2.4984825 
8.376581e+1, 1.374107e+1, -148282.1, -750176.6, 839.052, -0.001246386, 0.0008150104, -148280.92, -148280.92, 0.0, 2.500476, 2.4984834 
8.376581e+1, 1.6239555e+1, -149495.36, -750744.5, 743.5114, -0.0023006347, 0.0007910355, -149494.44, -149494.44, 0.0, 2.5004737, 2.4984834 
8.37658e+1, 1.873804e+1, -150709.86, -751312.94, 647.80225, -0.003351533, 0.00077126815, -150709.17, -150709.17, 0.0, 2.5004716, 2.4984834 
8.37658e+1, 2.1236603e+1, -109259.03, -664847.6, -58.452675, -0.0032631452, 0.0010327447, -109259.03, -109259.03, 0.0, 2.5004714, 2.498632 
8.376581e+1, 2.3735237e+1, -107982.38, -663578.0, 424.9023, -0.0023446258, 0.0010077026, -107982.055, -107982.055, 0.0, 2.5004728, 2.4986334 
8.376582e+1, 2.6233873e+1, -107100.9, -663128.3, 474.18973, -0.0014246177, 0.0009868806, -107100.49, -107100.49, 0.0, 2.5004742, 2.4986334 
8.376583e+1, 2.8732508e+1, -106220.2, -662679.0, 523.62195, -0.0005023077, 0.0009716577, -106219.71, -106219.71, 0.0, 2.500476, 2.4986336 
8.376584e+1, 3.1231222e+1, -64165.754, -575725.2, 284.23932, -0.00024375456, 0.0012747932, -64165.598, -64165.598, 0.0, 2.5004761, 2.4987824 
8.376583e+1, 3.3730003e+1, -63914.367, -574695.94, 747.0846, -0.0011213573, 0.001097554, -63913.277, -63913.277, 0.0, 2.5004756, 2.4987845 
8.376583e+1, 3.6228788e+1, -64212.62, -574807.56, 728.37445, -0.0019979028, 0.0009235385, -64211.582, -64211.582, 0.0, 2.5004752, 2.4987845 
8.376582e+1, 3.8727573e+1, -64511.64, -574919.56, 709.7679, -0.002871727, 0.00075555936, -64510.656, -64510.656, 0.0, 2.5004747, 2.4987845 
8.376582e+1, 4.1226432e+1, -22884.703, -488167.38, 376.5425, -0.0027599186, 0.0011352763, -22884.398, -22884.398, 0.0, 2.5004742, 2.4989336 
8.376584e+1, 4.372537e+1, -22158.264, -486700.03, 647.9883, -0.0019805443, 0.0011294365, -22157.36, -22157.36, 0.0, 2.5004745, 2.4989362 
8.376585e+1, 4.6224308e+1, -22111.62, -486643.53, 604.7453, -0.0011984262, 0.0011235621, -22110.832, -22110.832, 0.0, 2.5004745, 2.4989362 
8.3765864e+1, 4.8723245e+1, -22066.045, -486587.56, 561.5943, -0.00041210867, 0.0011218685, -22065.367, -22065.367, 0.0, 2.5004745, 2.4989362 
8.376587e+1, 5.122226e+1, 19109.045, -401113.75, 612.48315, -0.00018609976, 0.0016159974, 19109.938, 19109.938, 0.0, 2.5004745, 2.4990828 
8.3765864e+1, 5.3721344e+1, 19991.559, -399363.56, 848.29865, -0.0010413764, 0.001336661, 19993.273, 19993.273, 0.0, 2.5004747, 2.499086 
8.3765864e+1, 5.6220424e+1, 20061.588, -399298.75, 1167.1293, -0.0018925563, 0.0010541886, 20064.838, 20064.838, 0.0, 2.5004747, 2.499086 
8.376585e+1, 5.871951e+1, 20130.016, -399234.72, 1485.8696, -0.0027369838, 0.00077539, 20135.28, 20135.28, 0.0, 2.5004747, 2.499086 
8.3765864e+1, 6.121868e+1, 62701.965, -311342.78, 1852.8635, -0.0029801417, 0.001468159, 62711.14, 62711.14, 0.0, 2.5004754, 2.4992366 
8.3765864e+1, 6.371792e+1, 64173.727, -309095.1, 1079.298, -0.002698574, 0.0017439646, 64176.848, 64176.848, 0.0, 2.5004761, 2.49924 
8.376587e+1, 6.621716e+1, 64695.918, -308815.28, 896.82275, -0.002403667, 0.0020136628, 64698.07, 64698.07, 0.0, 2.500477, 2.4992402 
8.3765876e+1, 6.8716407e+1, 65215.91, -308536.56, 714.3494, -0.0020949994, 0.002285752, 65217.277, 65217.277, 0.0, 2.500478, 2.4992402 
8.3765894e+1, 7.121572e+1, 106111.27, -223090.22, 1711.5762, -0.0016236325, 0.0029779621, 106120.17, 106120.17, 0.0, 2.5004776, 2.499387 
8.3765894e+1, 7.37151e+1, 105704.79, -221535.06, 749.93085, -0.0017055086, 0.0021807037, 105706.51, 105706.51, 0.0, 2.500475, 2.499391 
8.3765894e+1, 7.6214486e+1, 104203.62, -222244.56, 962.8744, -0.00176936, 0.0013726429, 104206.46, 104206.46, 0.0, 2.5004723, 2.499391 
8.3765894e+1, 7.871387e+1, 102698.81, -222955.83, 1175.6326, -0.0018107033, 0.0005666532, 102703.06, 102703.06, 0.0, 2.5004697, 2.499391 
8.3765894e+1, 8.121333e+1, 143902.38, -138208.28, 2258.9512, -0.002764279, 0.0011150853, 143920.45, 143920.45, 0.0, 2.5004706, 2.499536 
8.376588e+1, 8.3712876e+1, 147506.56, -134395.92, 660.2597, -0.0031131532, 0.0012046547, 147508.11, 147508.11, 0.0, 2.5004745, 2.4995408 
8.3765876e+1, 8.621242e+1, 149815.31, -133261.58, 886.6655, -0.0034288769, 0.0012820837, 149818.1, 149818.1, 0.0, 2.5004785, 2.4995408 
8.376587e+1, 8.871196e+1, 152117.97, -132130.17, 1112.5916, -0.003722415, 0.0013606, 152122.33, 152122.33, 0.0, 2.5004823, 2.4995408 
8.3765906e+1, 9.1211593e+1, 194524.31, -43865.293, 3516.5317, -0.00089655677, 0.003436113, 194576.17, 194576.17, 0.0, 2.5004823, 2.4996924 
8.37659e+1, 9.371128e+1, 192324.39, -42294.684, 688.91595, -0.0012657712, 0.0030897646, 192326.42, 192326.42, 0.0, 2.5004756, 2.4996984 
8.3765894e+1, 9.6210974e+1, 188467.98, -44130.875, 275.6223, -0.0016036025, 0.002704465, 188468.31, 188468.31, 0.0, 2.500469, 2.4996984 
8.376588e+1, 9.871067e+1, 184599.38, -45972.938, -138.50543, -0.0018630022, 0.0023141543, 184599.45, 184599.45, 0.0, 2.5004623, 2.4996984 
8.6266273e+1, 1.2491665e+0, -193799.02, -839848.75, 157.80672, -0.001955074, -0.000062085885, -193798.97, -193798.97, 0.0, 2.5004706, 2.4983323 
8.626628e+1, 3.7474996e+0, -192595.39, -839591.0, 312.92798, -0.0016612, -0.00018543238, -192595.23, -192595.23, 0.0, 2.500473, 2.4983313 
8.626628e+1, 6.2458324e+0, -191188.06, -838907.9, 399.4274, -0.001368791, -0.0003076778, -191187.81, -191187.81, 0.0, 2.5004754, 2.4983315 
8.626629e+1, 8.7441653e+0, -189782.05, -838225.4, 486.02206, -0.001077847, -0.00042882233, -189781.67, -189781.67, 0.0, 2.5004778, 2.4983315 
8.626629e+1, 1.12425774e+1, -147518.36, -750541.7, 364.38245, -0.0011332405, -0.00011348195, -147518.14, -147518.14, 0.0, 2.500478, 2.4984818 
8.626628e+1, 1.3741066e+1, -148483.9, -750599.0, 520.7329, -0.0017161553, 0.00027048794, -148483.47, -148483.47, 0.0, 2.500476, 2.4984827 
8.626628e+1, 1.6239555e+1, -149694.78, -751164.1, 428.01086, -0.0023006813, 0.00065720465, -149694.47, -149694.47, 0.0, 2.5004737, 2.4984827 
8.6266273e+1, 1.8738045e+1, -150906.88, -751729.75, 335.12018, -0.0028865784, 0.0010470962, -150906.69, -150906.69, 0.0, 2.5004718, 2.4984827 
8.6266273e+1, 2.1236606e+1, -109220.055, -664757.25, 129.40453, -0.002754839, 0.0014883748, -109220.02, -109220.02, 0.0, 2.5004714, 2.4986322 
8.626629e+1, 2.3735243e+1, -107924.43, -663447.5, 644.71967, -0.0022004033, 0.0013953868, -107923.68, -107923.68, 0.0, 2.5004728, 2.4986336 
8.62663e+1, 2.6233876e+1, -107043.05, -662997.4, 695.8814, -0.0016475479, 0.0013069515, -107042.17, -107042.17, 0.0, 2.5004742, 2.4986336 
8.6266303e+1, 2.873251e+1, -106162.445, -662547.6, 747.18787, -0.0010955064, 0.001224483, -106161.44, -106161.44, 0.0, 2.500476, 2.4986336 
8.6266303e+1, 3.1231222e+1, -64276.188, -575943.25, 171.83662, -0.0008736378, 0.0012709957, -64276.133, -64276.133, 0.0, 2.5004761, 2.4987822 
8.6266303e+1, 3.373e+1, -63986.168, -574832.06, 660.7136, -0.001492541, 0.0005901578, -63985.313, -63985.313, 0.0, 2.5004756, 2.4987843 
8.6266303e+1, 3.622878e+1, -64285.3, -574943.8, 643.5513, -0.0021131064, -0.00008694335, -64284.492, -64284.492, 0.0, 2.5004752, 2.4987843 
8.62663e+1, 3.8727558e+1, -64585.203, -575055.9, 626.49243, -0.0027335098, -0.0007572967, -64584.438, -64584.438, 0.0, 2.5004747, 2.4987843 
8.6266303e+1, 4.1226423e+1, -23060.432, -488500.3, 342.5082, -0.002580829, -0.0003111168, -23060.18, -23060.18, 0.0, 2.5004742, 2.498933 
8.626631e+1, 4.3725365e+1, -22291.045, -486941.97, 648.7459, -0.001979455, 0.0002986899, -22290.14, -22290.14, 0.0, 2.5004742, 2.4989357 
8.626632e+1, 4.6224305e+1, -22245.264, -486885.63, 607.24585, -0.0013789589, 0.00090861117, -22244.469, -22244.469, 0.0, 2.5004745, 2.4989357 
8.626633e+1, 4.8723248e+1, -22200.55, -486829.8, 565.83777, -0.0007778909, 0.0015230086, -22199.861, -22199.861, 0.0, 2.5004745, 2.498936 
8.6266345e+1, 5.1222265e+1, 19570.324, -400119.84, 600.3022, -0.0005388532, 0.002286326, 19571.182, 19571.182, 0.0, 2.5004745, 2.4990847 
8.626633e+1, 5.372135e+1, 20531.541, -398206.9, 851.9229, -0.0011305474, 0.0018812, 20533.273, 20533.273, 0.0, 2.5004745, 2.4990878 
8.626633e+1, 5.622043e+1, 20602.91, -398140.03, 1173.3074, -0.0017227556, 0.0014723777, 20606.197, 20606.197, 0.0, 2.5004747, 2.4990878 
8.626633e+1, 5.8719516e+1, 20672.676, -398073.94, 1494.6016, -0.0023130851, 0.0010668813, 20678.01, 20678.01, 0.0, 2.5004747, 2.499088 
8.6266345e+1, 6.121868e+1, 62248.86, -312247.8, 1976.5092, -0.0025641003, 0.0014646485, 62259.293, 62259.293, 0.0, 2.5004754, 2.499235 
8.6266345e+1, 6.371792e+1, 63780.484, -309877.25, 1199.4319, -0.002561603, 0.0011993799, 63784.336, 63784.336, 0.0, 2.5004761, 2.4992387 
8.6266345e+1, 6.6217154e+1, 64303.305, -309597.63, 1019.69336, -0.0025518131, 0.0009283996, 64306.086, 64306.086, 0.0, 2.500477, 2.4992387 
8.626635e+1, 6.8716395e+1, 64823.926, -309319.1, 839.95667, -0.0025343108, 0.00066066935, 64825.813, 64825.813, 0.0, 2.500478, 2.4992387 
8.6266357e+1, 7.1215713e+1, 106359.086, -222545.8, 1350.409, -0.002093516, 0.0015571554, 106364.625, 106364.625, 0.0, 2.5004773, 2.499388 
8.626636e+1, 7.37151e+1, 106057.22, -220774.9, 345.894, -0.0018219518, 0.0016139993, 106057.586, 106057.586, 0.0, 2.500475, 2.4993923 
8.626636e+1, 7.621449e+1, 104559.13, -221479.58, 562.6042, -0.001541018, 0.001659746, 104560.1, 104560.1, 0.0, 2.5004723, 2.4993923 
8.626636e+1, 7.871389e+1, 103057.41, -222186.02, 779.12885, -0.0012469966, 0.0017080144, 103059.27, 103059.27, 0.0, 2.5004697, 2.4993923 
8.626636e+1, 8.1213355e+1, 144218.84, -137536.23, 2870.8293, -0.0022462462, 0.0024024458, 144248.1, 144248.1, 0.0, 2.5004706, 2.4995372 
8.6266357e+1, 8.371289e+1, 147903.3, -133563.61, 1244.9988, -0.0029857086, 0.0018562555, 147908.8, 147908.8, 0.0, 2.5004745, 2.4995422 
8.626635e+1, 8.6212426e+1, 150213.48, -132432.61, 1475.752, -0.0037044964, 0.0012969834, 150221.19, 150221.19, 0.0, 2.5004785, 2.4995422 
8.6266345e+1, 8.8711965e+1, 152517.58, -131304.56, 1706.0254, -0.0044139433, 0.00073822076, 152527.83, 152527.83, 0.0, 2.5004823, 2.4995422 
8.626638e+1, 9.1211593e+1, 193717.6, -45540.1, 2661.919, -0.0017142885, 0.0027804251, 193747.2, 193747.2, 0.0, 2.5004823, 2.4996896 
8.6266375e+1, 9.3711287e+1, 191591.22, -43825.242, -309.22458, -0.0014953648, 0.002643378, 191591.63, 191591.63, 0.0, 2.5004756, 2.4996958 
8.626636e+1, 9.621098e+1, 187740.3, -45658.71, -712.1519, -0.0012672832, 0.0024622986, 187742.47, 187742.47, 0.0, 2.500469, 2.4996958 
8.6266357e+1, 9.871067e+1, 183877.17, -47498.05, -1115.9133, -0.0009861985, 0.0022739433, 183882.55, 183882.55, 0.0, 2.5004623, 2.4996958 
8.8766754e+1, 1.2491653e+0, -194662.69, -840042.5, 502.16608, -0.0011973638, -0.00020793125, -194662.3, -194662.3, 0.0, 2.500469, 2.4983327 
8.8766754e+1, 3.747496e+0, -193398.88, -839771.0, 621.3881, -0.0014550475, -0.0006230657, -193398.28, -193398.28, 0.0, 2.5004714, 2.4983318 
8.8766754e+1, 6.2458265e+0, -191971.81, -839078.75, 672.9818, -0.0017207594, -0.0010372286, -191971.11, -191971.11, 0.0, 2.500474, 2.4983318 
8.8766754e+1, 8.7441576e+0, -190595.83, -838411.2, 723.66754, -0.0019944995, -0.0014504202, -190595.02, -190595.02, 0.0, 2.5004764, 2.498332 
8.8766754e+1, 1.124257e+1, -148682.14, -751449.56, -138.91681, -0.0020770237, -0.001069279, -148682.1, -148682.1, 0.0, 2.5004764, 2.498481 
8.8766754e+1, 1.3741063e+1, -149600.23, -751466.06, -11.813013, -0.0021871675, -0.00027879255, -149600.23, -149600.23, 0.0, 2.5004745, 2.498482 
8.8766754e+1, 1.6239555e+1, -150810.67, -752029.44, -152.43462, -0.0023035884, 0.0005134057, -150810.64, -150810.64, 0.0, 2.5004723, 2.498482 
8.8766754e+1, 1.8738046e+1, -152059.38, -752611.25, -298.857, -0.0024259943, 0.0013077636, -152059.23, -152059.23, 0.0, 2.5004702, 2.498482 
8.8766754e+1, 2.1236612e+1, -110155.625, -665175.1, -58.87895, -0.002241206, 0.0019454714, -110155.625, -110155.625, 0.0, 2.5004697, 2.4986322 
8.876676e+1, 2.3735246e+1, -108771.734, -663756.56, 448.44513, -0.0020517842, 0.0017804487, -108771.375, -108771.375, 0.0, 2.5004714, 2.4986339 
8.876677e+1, 2.6233882e+1, -107875.84, -663299.1, 452.6277, -0.0018669723, 0.0016202083, -107875.48, -107875.48, 0.0, 2.5004728, 2.4986339 
8.876678e+1, 2.8732514e+1, -107013.164, -662857.6, 452.28665, -0.0016859998, 0.0014662959, -107012.8, -107012.8, 0.0, 2.5004742, 2.4986339 
8.876678e+1, 3.1231222e+1, -65313.305, -576629.0, -520.5321, -0.0015056175, 0.0012627357, -65312.777, -65312.777, 0.0, 2.5004747, 2.4987817 
8.876678e+1, 3.3729994e+1, -64966.273, -575409.3, -79.748055, -0.0018661772, 0.00007527671, -64966.26, -64966.26, 0.0, 2.5004742, 2.498784 
8.876678e+1, 3.6228767e+1, -65288.176, -575531.8, -172.26065, -0.0022310065, -0.0011080106, -65288.12, -65288.12, 0.0, 2.5004735, 2.498784 
8.876678e+1, 3.8727543e+1, -65640.13, -575668.8, -268.38327, -0.0025981527, -0.0022838542, -65639.99, -65639.99, 0.0, 2.5004728, 2.498784 
8.876678e+1, 4.1226405e+1, -24241.188, -489348.5, -581.16125, -0.0024053075, -0.0017594773, -24240.46, -24240.46, 0.0, 2.5004725, 2.4989324 
8.8766783e+1, 4.3725353e+1, -23381.951, -487649.1, -313.01395, -0.0019821965, -0.00053689396, -23381.738, -23381.738, 0.0, 2.5004725, 2.4989352 
8.876679e+1, 4.6224305e+1, -23350.6, -487599.56, -432.4571, -0.0015634539, 0.000685834, -23350.195, -23350.195, 0.0, 2.5004725, 2.4989355 
8.87668e+1, 4.872325e+1, -23358.982, -487569.16, -556.91425, -0.0011476438, 0.0019133411, -23358.314, -23358.314, 0.0, 2.5004725, 2.4989355 
8.876681e+1, 5.122227e+1, 18955.81, -399681.5, -626.4441, -0.00089068204, 0.0029577161, 18956.748, 18956.748, 0.0, 2.5004725, 2.4990861 
8.876681e+1, 5.3721356e+1, 20020.164, -397560.78, -452.5172, -0.001220544, 0.0024226569, 20020.654, 20020.654, 0.0, 2.5004728, 2.49909 
8.8766813e+1, 5.622044e+1, 20068.629, -397503.63, -226.4081, -0.0015554868, 0.0018831994, 20068.752, 20068.752, 0.0, 2.5004728, 2.49909 
8.8766813e+1, 5.871953e+1, 20090.338, -397459.4, -5.8590145, -0.0018933234, 0.0013467346, 20090.338, 20090.338, 0.0, 2.5004728, 2.49909 
8.8766813e+1, 6.121869e+1, 60631.242, -313746.06, 498.56247, -0.002156538, 0.0014618259, 60631.906, 60631.906, 0.0, 2.5004733, 2.4992335 
8.8766813e+1, 6.371792e+1, 62254.688, -311208.8, -364.68857, -0.002435124, 0.0006516373, 62255.043, 62255.043, 0.0, 2.5004742, 2.4992373 
8.8766813e+1, 6.621715e+1, 62771.23, -310932.8, -624.8976, -0.0027123238, -0.00016405304, 62772.277, 62772.277, 0.0, 2.5004752, 2.4992373 
8.8766825e+1, 6.871638e+1, 63264.57, -310667.97, -886.21387, -0.002987773, -0.0009756462, 63266.668, 63266.668, 0.0, 2.500476, 2.4992375 
8.876683e+1, 7.12157e+1, 105460.58, -222592.36, -922.77985, -0.0025651846, 0.00013923066, 105463.18, 105463.18, 0.0, 2.5004754, 2.499389 
8.876684e+1, 7.37151e+1, 105389.64, -220509.67, -2010.2893, -0.0019440649, 0.001046237, 105402.04, 105402.04, 0.0, 2.500473, 2.4993937 
8.876684e+1, 7.62145e+1, 103963.44, -221176.44, -1823.9783, -0.0013222784, 0.0019416064, 103973.664, 103973.664, 0.0, 2.5004706, 2.4993937 
8.876684e+1, 7.8713906e+1, 102501.516, -221860.4, -1634.1427, -0.00069669686, 0.0028399297, 102509.75, 102509.75, 0.0, 2.500468, 2.4993937 
8.876684e+1, 8.121338e+1, 143674.42, -137307.11, 1451.8113, -0.001731832, 0.0036879373, 143681.92, 143681.92, 0.0, 2.5004692, 2.4995384 
8.876683e+1, 8.3712906e+1, 147552.67, -133093.61, -206.06781, -0.0028612632, 0.002503365, 147552.83, 147552.83, 0.0, 2.5004733, 2.4995437 
8.8766825e+1, 8.621244e+1, 149911.25, -131943.4, 31.721567, -0.0039825058, 0.0013046219, 149911.25, 149911.25, 0.0, 2.5004773, 2.4995437 
8.8766813e+1, 8.8711965e+1, 152215.48, -130819.37, 272.95462, -0.005107097, 0.0001058057, 152215.75, 152215.75, 0.0, 2.5004811, 2.4995437 
8.8766855e+1, 9.12116e+1, 192276.08, -47550.605, -152.19177, -0.0025759225, 0.002134263, 192276.17, 192276.17, 0.0, 2.5004811, 2.4996867 
8.8766843e+1, 9.37113e+1, 190356.75, -45598.94, -3146.4497, -0.0017707422, 0.0022004207, 190398.7, 190398.7, 0.0, 2.5004747, 2.4996932 
8.876684e+1, 9.621098e+1, 186493.86, -47438.08, -3418.866, -0.0009777527, 0.0022171058, 186543.81, 186543.81, 0.0, 2.500468, 2.4996932 
8.8766825e+1, 9.871068e+1, 182482.7, -49348.6, -3697.0356, -0.00015694674, 0.0022242256, 182541.64, 182541.64, 0.0, 2.500461, 2.4996932 
9.1267234e+1, 1.24916516e+0, -192002.17, -838840.44, 609.5414, -0.00047848898, -0.00022095267, -192001.6, -192001.6, 0.0, 2.5004735, 2.4983325 
9.126723e+1, 3.7474954e+0, -192496.64, -839431.94, 620.0519, -0.0010532273, -0.0006616867, -192496.05, -192496.05, 0.0, 2.500473, 2.4983318 
9.126723e+1, 6.245826e+0, -192770.9, -839563.1, 567.7645, -0.001617277, -0.0011008582, -192770.4, -192770.4, 0.0, 2.5004725, 2.4983318 
9.126723e+1, 8.744156e+0, -193047.13, -839695.2, 515.41583, -0.0021706382, -0.0015384674, -193046.72, -193046.72, 0.0, 2.500472, 2.4983318 
9.126723e+1, 1.1242568e+1, -151235.23, -752914.9, -545.58466, -0.0022434257, -0.0011501835, -151234.73, -151234.73, 0.0, 2.5004723, 2.4984806 
9.126723e+1, 1.3741061e+1, -150557.27, -752171.94, -222.60889, -0.0020736875, -0.00032064898, -150557.19, -150557.19, 0.0, 2.500473, 2.4984813 
9.126723e+1, 1.6239554e+1, -150137.52, -751964.2, -173.38501, -0.001895558, 0.00051263033, -150137.45, -150137.45, 0.0, 2.5004737, 2.4984813 
9.126723e+1, 1.8738045e+1, -149718.48, -751756.75, -124.54094, -0.0017087222, 0.0013501028, -149718.47, -149718.47, 0.0, 2.5004745, 2.4984815 
9.1267234e+1, 2.123661e+1, -107511.69, -664127.56, 358.6925, -0.0015490297, 0.0019900138, -107511.45, -107511.45, 0.0, 2.5004745, 2.4986317 
9.1267234e+1, 2.3735243e+1, -107463.96, -663325.9, 842.0003, -0.0017363329, 0.0017512424, -107462.69, -107462.69, 0.0, 2.5004737, 2.4986334 
9.126724e+1, 2.6233876e+1, -107899.984, -663526.06, 808.5973, -0.0019161456, 0.0015159411, -107898.81, -107898.81, 0.0, 2.500473, 2.4986334 
9.126724e+1, 2.8732508e+1, -108338.766, -663727.56, 774.41254, -0.0020876653, 0.0012857362, -108337.69, -108337.69, 0.0, 2.500472, 2.4986334 
9.126724e+1, 3.1231216e+1, -67068.5, -577731.4, -205.00212, -0.0019231131, 0.001089648, -67068.42, -67068.42, 0.0, 2.5004718, 2.4987812 
9.126725e+1, 3.372999e+1, -66178.53, -576215.7, 433.0763, -0.0019386976, -0.000017419892, -66178.164, -66178.164, 0.0, 2.5004723, 2.4987836 
9.126725e+1, 3.6228764e+1, -65958.25, -576094.3, 518.368, -0.0019482827, -0.0011238577, -65957.72, -65957.72, 0.0, 2.5004725, 2.4987836 
9.126725e+1, 3.872754e+1, -65736.12, -575972.0, 602.15955, -0.0019499903, -0.002226358, -65735.41, -65735.41, 0.0, 2.500473, 2.4987836 
9.126726e+1, 4.1226402e+1, -23903.33, -489587.56, 540.352, -0.0017707933, -0.0017119524, -23902.701, -23902.701, 0.0, 2.5004735, 2.4989316 
9.126726e+1, 4.372535e+1, -22682.076, -487632.13, 1037.0363, -0.0017561963, -0.00063996075, -22679.764, -22679.764, 0.0, 2.5004742, 2.4989345 
9.1267264e+1, 4.6224293e+1, -22304.385, -487432.8, 1131.9187, -0.0017302969, 0.00043204683, -22301.63, -22301.63, 0.0, 2.500475, 2.4989345 
9.1267276e+1, 4.872324e+1, -21928.54, -487234.4, 1226.2147, -0.0016916095, 0.0015089769, -21925.307, -21925.307, 0.0, 2.5004754, 2.4989347 
9.126728e+1, 5.122226e+1, 20373.268, -399379.16, 990.41187, -0.0014826616, 0.002541682, 20375.605, 20375.605, 0.0, 2.5004754, 2.4990854 
9.126728e+1, 5.372135e+1, 21193.014, -397266.47, 757.65955, -0.0014817211, 0.0020964688, 21194.387, 21194.387, 0.0, 2.500475, 2.4990892 
9.126728e+1, 5.622043e+1, 20946.943, -397367.7, 566.84973, -0.0014742275, 0.001647003, 20947.71, 20947.71, 0.0, 2.5004747, 2.4990892 
9.126729e+1, 5.8719516e+1, 20697.71, -397470.4, 376.02008, -0.0014582531, 0.0012008942, 20698.049, 20698.049, 0.0, 2.5004742, 2.4990892 
9.1267294e+1, 6.121868e+1, 60660.574, -314092.7, 1034.421, -0.0016459904, 0.0013476076, 60663.43, 60663.43, 0.0, 2.5004737, 2.4992325 
9.1267294e+1, 6.371791e+1, 61637.023, -311744.1, 747.4217, -0.0021154918, 0.0004339503, 61638.52, 61638.52, 0.0, 2.5004735, 2.4992368 
9.1267294e+1, 6.621713e+1, 61437.1, -311825.25, 1067.2134, -0.0025745977, -0.0004890112, 61440.152, 61440.152, 0.0, 2.500473, 2.4992368 
9.1267294e+1, 6.871636e+1, 61229.113, -311910.3, 1384.8868, -0.0030231054, -0.0014112473, 61234.254, 61234.254, 0.0, 2.5004728, 2.4992368 
9.1267306e+1, 7.1215683e+1, 103851.12, -223578.92, 1440.7518, -0.0026712671, -0.00031481293, 103857.46, 103857.46, 0.0, 2.500473, 2.4993885 
9.1267306e+1, 7.371509e+1, 105742.84, -220406.22, 138.5448, -0.0019250506, 0.0005613877, 105742.91, 105742.91, 0.0, 2.5004737, 2.4993935 
9.126731e+1, 7.6214486e+1, 106223.21, -220158.67, 123.68229, -0.001164702, 0.0014208213, 106223.26, 106223.26, 0.0, 2.5004745, 2.4993935 
9.126731e+1, 7.871389e+1, 106696.15, -219914.7, 104.713005, -0.00038770234, 0.002278785, 106696.19, 106696.19, 0.0, 2.5004754, 2.4993935 
9.126732e+1, 8.121336e+1, 147119.27, -135504.1, 3341.993, -0.0013535769, 0.003091646, 147158.78, 147158.78, 0.0, 2.500475, 2.4995387 
9.126731e+1, 8.371289e+1, 147442.19, -132863.9, 1523.0984, -0.0025055169, 0.0018309577, 147450.45, 147450.45, 0.0, 2.5004728, 2.4995441 
9.1267306e+1, 8.6212426e+1, 146218.06, -133438.4, 1625.3306, -0.0036332638, 0.0005550016, 146227.5, 146227.5, 0.0, 2.5004706, 2.4995444 
9.1267294e+1, 8.871196e+1, 144993.6, -134013.05, 1725.1986, -0.004748332, -0.00072179385, 145004.27, 145004.27, 0.0, 2.5004685, 2.4995444 
9.1267323e+1, 9.121159e+1, 185214.44, -51112.98, 1292.0211, -0.002452817, 0.0014066512, 185221.5, 185221.5, 0.0, 2.5004692, 2.4996862 
9.126732e+1, 9.371128e+1, 188904.47, -46373.16, -1196.7516, -0.0015079253, 0.001449952, 188910.55, 188910.55, 0.0, 2.5004723, 2.499693 
9.126731e+1, 9.6210974e+1, 190732.8, -45474.258, -868.7224, -0.0005480997, 0.0014428662, 190736.0, 190736.0, 0.0, 2.5004754, 2.499693 
9.1267306e+1, 9.871066e+1, 192547.75, -44581.805, -534.4953, 0.00046201286, 0.0014276014, 192548.95, 192548.95, 0.0, 2.5004785, 2.499693 
9.376771e+1, 1.249166e+0, -192046.11, -839022.6, 542.34656, -0.00029952073, -0.00011725103, -192045.66, -192045.66, 0.0, 2.5004737, 2.498332 
9.376771e+1, 3.747498e+0, -192543.97, -839624.9, 552.17786, -0.0008836853, -0.00035085029, -192543.5, -192543.5, 0.0, 2.5004733, 2.4983313 
9.376771e+1, 6.24583e+0, -192814.98, -839753.8, 505.0543, -0.0014630401, -0.000583245, -192814.6, -192814.6, 0.0, 2.5004728, 2.4983313 
9.37677e+1, 8.7441623e+0, -193087.28, -839883.4, 457.9077, -0.0020375852, -0.0008144353, -193086.95, -193086.95, 0.0, 2.5004723, 2.4983313 
9.37677e+1, 1.1242574e+1, -151082.13, -752704.7, -437.39218, -0.0020585156, -0.0005015034, -151081.8, -151081.8, 0.0, 2.5004723, 2.4984808 
9.376771e+1, 1.3741063e+1, -150402.27, -751965.3, -99.07554, -0.0017619238, -0.000015057035, -150402.25, -150402.25, 0.0, 2.500473, 2.4984818 
9.376771e+1, 1.6239554e+1, -149977.55, -751754.8, -44.32693, -0.0014606315, 0.00047478089, -149977.53, -149977.53, 0.0, 2.5004737, 2.4984818 
9.376771e+1, 1.873804e+1, -149553.6, -751544.7, 10.407005, -0.0011543203, 0.0009684419, -149553.6, -149553.6, 0.0, 2.5004745, 2.4984818 
9.376771e+1, 2.1236604e+1, -107499.305, -664234.4, 270.0497, -0.0010901919, 0.0013996183, -107499.18, -107499.18, 0.0, 2.5004747, 2.4986315 
9.376771e+1, 2.3735237e+1, -107441.266, -663416.3, 760.58966, -0.0015930068, 0.0010936152, -107440.23, -107440.23, 0.0, 2.5004737, 2.4986331 
9.376771e+1, 2.623387e+1, -107872.75, -663612.75, 736.9529, -0.0020928828, 0.00079042045, -107871.77, -107871.77, 0.0, 2.500473, 2.4986331 
9.376771e+1, 2.8732502e+1, -108305.586, -663809.9, 713.308, -0.002589001, 0.00049166585, -108304.67, -108304.67, 0.0, 2.5004723, 2.4986331 
9.3767715e+1, 3.123121e+1, -66838.77, -577399.2, -123.12058, -0.0023927356, 0.00056136784, -66838.74, -66838.74, 0.0, 2.500472, 2.4987817 
9.376772e+1, 3.372999e+1, -65922.89, -575839.44, 552.66504, -0.001959657, 0.00010617522, -65922.29, -65922.29, 0.0, 2.5004725, 2.498784 
9.376773e+1, 3.622877e+1, -65698.586, -575715.2, 650.60266, -0.0015242584, -0.00034874553, -65697.76, -65697.76, 0.0, 2.5004728, 2.498784 
9.376774e+1, 3.8727555e+1, -65475.37, -575591.5, 748.5706, -0.0010848625, -0.00080025144, -65474.27, -65474.27, 0.0, 2.5004733, 2.498784 
9.376774e+1, 4.1226417e+1, -23684.709, -489291.2, 726.8794, -0.00096216105, -0.00035331084, -23683.574, -23683.574, 0.0, 2.5004737, 2.498932 
9.376774e+1, 4.3725356e+1, -22407.049, -487214.97, 1243.4059, -0.0015289796, -0.00013197037, -22403.723, -22403.723, 0.0, 2.5004745, 2.4989352 
9.376774e+1, 4.6224293e+1, -22035.713, -487017.88, 1354.3705, -0.002090486, 0.00008781698, -22031.77, -22031.77, 0.0, 2.500475, 2.4989352 
9.376774e+1, 4.8723233e+1, -21666.4, -486821.75, 1465.2069, -0.002645113, 0.00031119882, -21661.785, -21661.785, 0.0, 2.5004756, 2.4989352 
9.376774e+1, 5.1222247e+1, 20014.232, -400218.7, 1048.6049, -0.0025538297, 0.001097369, 20016.85, 20016.85, 0.0, 2.5004756, 2.499084 
9.3767744e+1, 5.372134e+1, 20880.879, -397992.56, 852.34357, -0.0021279047, 0.0010161657, 20882.613, 20882.613, 0.0, 2.5004752, 2.499088 
9.3767756e+1, 5.6220424e+1, 20624.205, -398098.3, 675.98486, -0.0017000942, 0.00092898373, 20625.297, 20625.297, 0.0, 2.5004747, 2.499088 
9.376776e+1, 5.8719516e+1, 20365.713, -398204.9, 499.30658, -0.0012687832, 0.0008434949, 20366.309, 20366.309, 0.0, 2.5004742, 2.499088 
9.376777e+1, 6.121868e+1, 61167.813, -313065.0, 1171.765, -0.001317059, 0.0013832051, 61171.48, 61171.48, 0.0, 2.5004737, 2.4992344 
9.376777e+1, 6.3717914e+1, 62225.73, -310535.25, 894.8046, -0.0018865863, 0.0008670031, 62227.88, 62227.88, 0.0, 2.5004735, 2.499239 
9.376777e+1, 6.621715e+1, 62024.45, -310617.44, 1225.6831, -0.0024504343, 0.0003406238, 62028.48, 62028.48, 0.0, 2.500473, 2.499239 
9.376776e+1, 6.8716383e+1, 61820.66, -310700.8, 1556.3529, -0.0030086744, -0.0001857148, 61827.164, 61827.164, 0.0, 2.5004728, 2.499239 
9.3767774e+1, 7.121571e+1, 103814.47, -223693.56, 1807.8489, -0.0028198704, 0.00073145825, 103824.45, 103824.45, 0.0, 2.500473, 2.4993882 
9.3767774e+1, 7.3715097e+1, 105776.375, -220401.23, 527.5474, -0.002175735, 0.00078292674, 105777.23, 105777.23, 0.0, 2.5004737, 2.4993935 
9.3767774e+1, 7.621449e+1, 106272.32, -220148.25, 542.24725, -0.0015232578, 0.00081706524, 106273.22, 106273.22, 0.0, 2.5004747, 2.4993935 
9.3767786e+1, 7.871388e+1, 106764.484, -219897.08, 556.3589, -0.00086069526, 0.0008495584, 106765.43, 106765.43, 0.0, 2.5004754, 2.4993935 
9.3767786e+1, 8.1213355e+1, 147360.78, -135144.66, 3403.7886, -0.0017120136, 0.0015240075, 147401.8, 147401.8, 0.0, 2.500475, 2.4995391 
9.3767774e+1, 8.371289e+1, 147747.05, -132363.16, 1582.3016, -0.0025259724, 0.00081186456, 147755.98, 147755.98, 0.0, 2.5004728, 2.499545 
9.3767774e+1, 8.621243e+1, 146507.47, -132948.03, 1718.684, -0.0033230616, 0.00008532894, 146518.03, 146518.03, 0.0, 2.5004706, 2.499545 
9.376777e+1, 8.8711965e+1, 145262.17, -133535.64, 1854.4573, -0.004114751, -0.00064104504, 145274.52, 145274.52, 0.0, 2.5004685, 2.499545 
9.37678e+1, 9.12116e+1, 185884.58, -49783.492, 2257.7185, -0.0021797277, 0.0017691908, 185906.22, 185906.22, 0.0, 2.5004692, 2.4996886 
9.376779e+1, 9.37113e+1, 189554.75, -45024.938, -232.57434, -0.0015925765, 0.001637087, 189554.98, 189554.98, 0.0, 2.5004723, 2.4996953 
9.3767786e+1, 9.621099e+1, 191343.98, -44151.316, 109.620674, -0.0010045031, 0.001456565, 191344.03, 191344.03, 0.0, 2.5004754, 2.4996953 
9.376777e+1, 9.871068e+1, 193120.95, -43283.6, 451.24603, -0.00038546993, 0.0012712094, 193121.81, 193121.81, 0.0, 2.5004785, 2.4996953 
9.6268183e+1, 1.24916695e+0, -192147.1, -839232.7, 474.234, -0.00012084637, -0.000014246392, -192146.75, -192146.75, 0.0, 2.5004737, 2.4983318 
9.6268183e+1, 3.7475008e+0, -192651.02, -839847.94, 479.58075, -0.00071498164, -0.000042104944, -192650.67, -192650.67, 0.0, 2.5004733, 2.4983308 
9.6268183e+1, 6.245835e+0, -192921.36, -839975.94, 434.50034, -0.0013101862, -0.00006911705, -192921.08, -192921.08, 0.0, 2.5004728, 2.4983308 
9.6268183e+1, 8.744168e+0, -193192.98, -840104.5, 389.39688, -0.0019064603, -0.00009528286, -193192.75, -193192.75, 0.0, 2.5004723, 2.4983308 
9.6268183e+1, 1.124258e+1, -151007.34, -752548.1, -343.983, -0.0018721566, 0.0001494916, -151007.16, -151007.16, 0.0, 2.5004723, 2.498481 
9.6268183e+1, 1.3741066e+1, -150320.86, -751795.7, 7.4488277, -0.0014493235, 0.0002892572, -150320.86, -150320.86, 0.0, 2.500473, 2.498482 
9.626819e+1, 1.6239552e+1, -149895.48, -751584.56, 64.23467, -0.0010254902, 0.0004320393, -149895.47, -149895.47, 0.0, 2.5004737, 2.498482 
9.6268195e+1, 1.8738039e+1, -149470.89, -751373.8, 121.005844, -0.0006003258, 0.0005782746, -149470.86, -149470.86, 0.0, 2.5004745, 2.498482 
9.626819e+1, 2.1236598e+1, -107585.11, -664409.75, 151.10301, -0.0006325126, 0.00081061106, -107585.07, -107585.07, 0.0, 2.5004747, 2.498631 
9.626819e+1, 2.373523e+1, -107506.78, -663550.6, 642.41016, -0.0014523207, 0.00043371884, -107506.04, -107506.04, 0.0, 2.5004737, 2.498633 
9.6268183e+1, 2.623386e+1, -107936.6, -663744.7, 621.21246, -0.0022737388, 0.00005891298, -107935.91, -107935.91, 0.0, 2.500473, 2.498633 
9.6268183e+1, 2.8732494e+1, -108367.766, -663939.44, 600.0066, -0.0030959346, -0.00031210837, -108367.125, -108367.125, 0.0, 2.5004723, 2.498633 
9.6268183e+1, 3.1231204e+1, -66726.47, -577150.3, -105.73426, -0.0028597002, 0.000033999342, -66726.445, -66726.445, 0.0, 2.500472, 2.498782 
9.6268195e+1, 3.372999e+1, -65774.33, -575515.7, 601.6881, -0.001978796, 0.0002280388, -65773.62, -65773.62, 0.0, 2.5004723, 2.4987845 
9.62682e+1, 3.6228782e+1, -65549.13, -575390.1, 701.49414, -0.0010993142, 0.00042189943, -65548.164, -65548.164, 0.0, 2.5004728, 2.4987848 
9.626822e+1, 3.872757e+1, -65325.016, -575265.1, 801.33057, -0.00021971528, 0.00061865186, -65323.754, -65323.754, 0.0, 2.5004733, 2.4987848 
9.626822e+1, 4.1226432e+1, -23585.912, -489070.6, 807.06854, -0.00015878522, 0.0010054178, -23584.514, -23584.514, 0.0, 2.5004737, 2.4989324 
9.626821e+1, 4.3725365e+1, -22237.594, -486849.47, 1329.4335, -0.0013076757, 0.00037338425, -22233.791, -22233.791, 0.0, 2.5004745, 2.498936 
9.626821e+1, 4.6224293e+1, -21864.53, -486650.7, 1442.9724, -0.0024572038, -0.00026185118, -21860.049, -21860.049, 0.0, 2.500475, 2.498936 
9.62682e+1, 4.8723224e+1, -21493.484, -486452.88, 1556.383, -0.0036057623, -0.0008948191, -21488.275, -21488.275, 0.0, 2.5004756, 2.498936 
9.62682e+1, 5.122224e+1, 19560.6, -401129.38, 941.0542, -0.0036268982, -0.0003438311, 19562.705, 19562.705, 0.0, 2.5004756, 2.4990823 
9.626822e+1, 5.3721327e+1, 20501.277, -398751.94, 773.7655, -0.0027763138, -0.00006377049, 20502.707, 20502.707, 0.0, 2.5004752, 2.4990866 
9.6268225e+1, 5.622042e+1, 20246.676, -398856.1, 599.58673, -0.0019285771, 0.0002084434, 20247.533, 20247.533, 0.0, 2.5004747, 2.4990866 
9.626824e+1, 5.871951e+1, 19990.254, -398961.13, 425.08832, -0.0010823208, 0.00048068597, 19990.684, 19990.684, 0.0, 2.5004742, 2.4990869 
9.626825e+1, 6.121868e+1, 61629.06, -312083.84, 1103.4, -0.0009957862, 0.0014212321, 61632.316, 61632.316, 0.0, 2.5004737, 2.499236 
9.626824e+1, 6.371792e+1, 62791.402, -309338.38, 828.5795, -0.001665101, 0.0012996623, 62793.25, 62793.25, 0.0, 2.5004735, 2.4992409 
9.626824e+1, 6.621716e+1, 62590.67, -309420.63, 1161.7288, -0.0023333982, 0.0011669232, 62594.3, 62594.3, 0.0, 2.500473, 2.4992409 
9.6268237e+1, 6.87164e+1, 62387.43, -309504.1, 1494.6692, -0.0030010792, 0.0010335412, 62393.438, 62393.438, 0.0, 2.5004728, 2.499241 
9.626824e+1, 7.121572e+1, 103726.695, -223853.19, 1923.5444, -0.0029776464, 0.0017809551, 103737.99, 103737.99, 0.0, 2.500473, 2.499388 
9.626825e+1, 7.37151e+1, 105756.09, -220422.86, 643.2293, -0.0024343145, 0.0010056719, 105757.37, 105757.37, 0.0, 2.5004737, 2.4993935 
9.626825e+1, 7.621449e+1, 106252.19, -220171.84, 660.2186, -0.0018884131, 0.00021234521, 106253.52, 106253.52, 0.0, 2.5004747, 2.4993935 
9.626825e+1, 7.8713876e+1, 106744.51, -219922.63, 676.6196, -0.0013389961, -0.00058280263, 106745.91, 106745.91, 0.0, 2.5004754, 2.4993935 
9.6268255e+1, 8.121335e+1, 147496.03, -134852.05, 3108.482, -0.0020820796, -0.000040903305, 147530.25, 147530.25, 0.0, 2.500475, 2.4995396 
9.626825e+1, 8.371289e+1, 147961.72, -131906.39, 1252.0935, -0.0025559484, -0.00020683408, 147967.31, 147967.31, 0.0, 2.5004728, 2.4995458 
9.626825e+1, 8.621243e+1, 146720.86, -132494.73, 1390.7086, -0.0030201725, -0.0003863889, 146727.8, 146727.8, 0.0, 2.5004706, 2.4995458 
9.626824e+1, 8.8711977e+1, 145474.3, -133085.84, 1528.7146, -0.0034862778, -0.0005647809, 145482.69, 145482.69, 0.0, 2.5004685, 2.4995458 
9.626827e+1, 9.1211617e+1, 186511.4, -48499.266, 2754.955, -0.0019348481, 0.0021395702, 186543.7, 186543.7, 0.0, 2.5004692, 2.4996908 
9.6268266e+1, 9.371131e+1, 190212.22, -43674.676, 244.61908, -0.0017017253, 0.0018256439, 190212.48, 190212.48, 0.0, 2.5004723, 2.4996977 
9.626825e+1, 9.6211004e+1, 191995.77, -42810.24, 595.2173, -0.0014813408, 0.0014650463, 191997.27, 191997.27, 0.0, 2.5004754, 2.4996977 
9.626824e+1, 9.8710704e+1, 193767.03, -41951.707, 945.24585, -0.0012493262, 0.0011029633, 193770.83, 193770.83, 0.0, 2.5004785, 2.4996977 
9.8768663e+1, 1.2491678e+0, -192743.53, -839682.8, 387.8306, 0.000058888043, 0.00008808167, -192743.31, -192743.31, 0.0, 2.5004728, 2.4983313 
9.8768663e+1, 3.7475035e+0, -193212.61, -840292.56, 349.87408, -0.00054593926, 0.0002646131, -193212.42, -193212.42, 0.0, 2.5004725, 2.4983306 
9.876865e+1, 6.245839e+0, -193477.64, -840417.3, 267.22906, -0.0011575838, 0.00044163616, -193477.53, -193477.53, 0.0, 2.500472, 2.4983306 
9.876865e+1, 8.744175e+0, -193780.92, -840560.5, 183.32628, -0.0017760457, 0.00061915064, -193780.88, -193780.88, 0.0, 2.5004714, 2.4983306 
9.876865e+1, 1.1242585e+1, -151425.45, -752646.1, -430.08414, -0.0016831268, 0.0008030106, -151425.14, -151425.14, 0.0, 2.5004716, 2.4984813 
9.8768663e+1, 1.3741069e+1, -150685.5, -751843.75, -105.546524, -0.0011347901, 0.0005925424, -150685.48, -150685.48, 0.0, 2.5004723, 2.4984822 
9.876867e+1, 1.6239552e+1, -150247.42, -751626.2, -87.782585, -0.00058909727, 0.00038468637, -150247.4, -150247.4, 0.0, 2.500473, 2.4984822 
9.8768675e+1, 1.8738036e+1, -149835.88, -751421.5, -70.208496, -0.000045694902, 0.00017990635, -149835.86, -149835.86, 0.0, 2.5004737, 2.4984822 
9.876867e+1, 2.1236593e+1, -108129.664, -664829.06, -319.1273, -0.00017498159, 0.00022331688, -108129.484, -108129.484, 0.0, 2.5004737, 2.4986308 
9.8768663e+1, 2.3735224e+1, -108003.86, -663895.94, 112.38556, -0.0013133027, -0.00022808695, -108003.836, -108003.836, 0.0, 2.500473, 2.4986327 
9.876865e+1, 2.6233855e+1, -108447.74, -664095.3, 27.833254, -0.0024576639, -0.00067817274, -108447.74, -108447.74, 0.0, 2.5004723, 2.4986327 
9.8768646e+1, 2.8732485e+1, -108924.805, -664310.7, -61.546333, -0.0036072228, -0.0011251156, -108924.8, -108924.8, 0.0, 2.5004716, 2.4986327 
9.8768646e+1, 3.12312e+1, -67125.35, -577176.56, -702.53845, -0.0033227906, -0.00049205055, -67124.39, -67124.39, 0.0, 2.500471, 2.4987824 
9.8768663e+1, 3.3729994e+1, -66079.26, -575413.5, -15.18865, -0.001995157, 0.00034839063, -66079.26, -66079.26, 0.0, 2.5004716, 2.4987853 
9.876869e+1, 3.622879e+1, -65849.97, -575285.3, 25.138514, -0.0006726386, 0.0011881314, -65849.97, -65849.97, 0.0, 2.500472, 2.4987853 
9.87687e+1, 3.8727584e+1, -65660.91, -575176.44, 59.0977, 0.0006462303, 0.0020302623, -65660.9, -65660.9, 0.0, 2.5004723, 2.4987853 
9.87687e+1, 4.1226447e+1, -24009.025, -489122.06, 10.943639, 0.00064011215, 0.0023640215, -24009.025, -24009.025, 0.0, 2.5004728, 2.4989326 
9.8768693e+1, 4.372537e+1, -22597.535, -486742.6, 441.25656, -0.0010914487, 0.0008757984, -22597.115, -22597.115, 0.0, 2.5004735, 2.4989364 
9.8768675e+1, 4.6224293e+1, -22288.248, -486573.8, 452.7826, -0.0028294057, -0.000617329, -22287.807, -22287.807, 0.0, 2.500474, 2.4989364 
9.876867e+1, 4.8723218e+1, -22030.697, -486430.0, 456.08755, -0.004572151, -0.0021094882, -22030.248, -22030.248, 0.0, 2.5004745, 2.4989367 
9.876867e+1, 5.122223e+1, 18354.605, -402431.06, -459.87506, -0.004700449, -0.0017825126, 18355.107, 18355.107, 0.0, 2.5004742, 2.4990807 
9.876869e+1, 5.372132e+1, 19433.475, -399846.72, -675.3313, -0.0034258259, -0.0011442587, 19434.563, 19434.563, 0.0, 2.500474, 2.4990854 
9.87687e+1, 5.622041e+1, 19159.04, -399959.97, -937.91547, -0.0021586113, -0.0005158252, 19161.137, 19161.137, 0.0, 2.5004735, 2.4990854 
9.876872e+1, 5.8719504e+1, 18812.549, -400107.97, -1208.5132, -0.0008976229, 0.000111007925, 18816.035, 18816.035, 0.0, 2.5004728, 2.4990854 
9.8768723e+1, 6.121868e+1, 61230.457, -311544.22, -630.6642, -0.0006808451, 0.0014599764, 61231.523, 61231.523, 0.0, 2.5004723, 2.4992378 
9.876872e+1, 6.3717926e+1, 62526.13, -308545.63, -1015.97894, -0.0014497538, 0.001729956, 62528.91, 62528.91, 0.0, 2.500472, 2.499243 
9.876872e+1, 6.621717e+1, 62271.355, -308654.3, -793.2031, -0.0022220353, 0.0019876787, 62273.055, 62273.055, 0.0, 2.5004716, 2.499243 
9.8768705e+1, 6.871641e+1, 61945.664, -308797.16, -570.7569, -0.002998476, 0.0022440995, 61946.543, 61946.543, 0.0, 2.5004709, 2.499243 
9.876872e+1, 7.1215737e+1, 102587.66, -224541.95, -50.12978, -0.0031426698, 0.0028310448, 102587.664, 102587.664, 0.0, 2.500471, 2.4993875 
9.876872e+1, 7.371512e+1, 104752.3, -220921.39, -1384.9376, -0.0026990722, 0.0012267777, 104758.18, 104758.18, 0.0, 2.500472, 2.4993935 
9.8768723e+1, 7.621449e+1, 105211.99, -220690.0, -1417.9065, -0.0022583888, -0.00039637974, 105218.16, 105218.16, 0.0, 2.5004728, 2.4993935 
9.8768723e+1, 7.871387e+1, 105575.58, -220504.9, -1445.9352, -0.0018204922, -0.0020215176, 105581.984, 105581.984, 0.0, 2.5004735, 2.4993935 
9.876873e+1, 8.1213343e+1, 146452.05, -135144.53, 539.6309, -0.0024615764, -0.0016064784, 146453.08, 146453.08, 0.0, 2.500473, 2.49954 
9.8768723e+1, 8.371289e+1, 147082.89, -131978.33, -1373.4169, -0.002593352, -0.0012287378, 147089.64, 147089.64, 0.0, 2.500471, 2.4995465 
9.8768723e+1, 8.621244e+1, 145791.2, -132594.03, -1245.3483, -0.0027222012, -0.0008640105, 145796.77, 145796.77, 0.0, 2.5004687, 2.4995465 
9.876872e+1, 8.871199e+1, 144365.7, -133274.17, -1111.0336, -0.0028598076, -0.00049717014, 144370.16, 144370.16, 0.0, 2.5004663, 2.4995465 
9.8768747e+1, 9.121163e+1, 185804.34, -47882.027, 979.5489, -0.0017149926, 0.0025135283, 185808.45, 185808.45, 0.0, 2.500467, 2.499693 
9.876873e+1, 9.371133e+1, 189699.0, -42889.73, -1479.152, -0.0018326268, 0.0020114752, 189708.4, 189708.4, 0.0, 2.5004704, 2.4996998 
9.8768723e+1, 9.621102e+1, 191415.45, -42063.93, -1027.8616, -0.00197567, 0.0014641625, 191419.97, 191419.97, 0.0, 2.5004733, 2.4996998 
9.8768705e+1, 9.8710716e+1, 192909.13, -41345.41, -566.1045, -0.0021257743, 0.0009186001, 192910.48, 192910.48, 0.0, 2.500476, 2.4996998 
1.0126913e+2, 1.2491679e+0, -191238.88, -839171.4, 302.9375, 0.0001007556, 0.00012423337, -191238.73, -191238.73, 0.0, 2.5004756, 2.4983308 
1.0126913e+2, 3.747504e+0, -192221.58, -840040.1, 321.01953, -0.0004088081, 0.00037326154, -192221.4, -192221.4, 0.0, 2.5004745, 2.49833 
1.01269126e+2, 6.2458396e+0, -192958.42, -840396.44, 303.98947, -0.000909984, 0.00062303914, -192958.28, -192958.28, 0.0, 2.500473, 2.49833 
1.01269126e+2, 8.744176e+0, -193696.27, -840753.3, 286.90793, -0.0014027719, 0.00087356596, -193696.14, -193696.14, 0.0, 2.5004718, 2.49833 
1.01269126e+2, 1.12425864e+1, -151374.14, -752535.2, -4.4862733, -0.0013093532, 0.0010278929, -151374.14, -151374.14, 0.0, 2.5004716, 2.4984815 
1.0126913e+2, 1.3741069e+1, -150763.2, -751787.9, 421.27856, -0.00088638475, 0.00067519676, -150762.9, -150762.9, 0.0, 2.500472, 2.4984825 
1.0126914e+2, 1.6239549e+1, -150435.88, -751629.25, 534.45447, -0.00045807599, 0.00032400413, -150435.39, -150435.39, 0.0, 2.5004725, 2.4984825 
1.0126915e+2, 1.8738031e+1, -150108.81, -751470.7, 647.1757, -0.000024083754, -0.000025209352, -150108.13, -150108.13, 0.0, 2.5004733, 2.4984825 
1.0126914e+2, 2.123659e+1, -108648.266, -665442.2, 284.22754, -0.00014441044, 0.00002659818, -108648.12, -108648.12, 0.0, 2.5004733, 2.49863 
1.0126913e+2, 2.3735222e+1, -108324.43, -664412.56, 728.74347, -0.0011739593, -0.00025814486, -108323.47, -108323.47, 0.0, 2.500473, 2.498632 
1.01269126e+2, 2.6233852e+1, -108552.39, -664525.94, 659.3506, -0.0021959723, -0.0005405201, -108551.61, -108551.61, 0.0, 2.5004725, 2.498632 
1.0126912e+2, 2.8732485e+1, -108780.77, -664639.56, 588.7992, -0.003209549, -0.0008187066, -108780.15, -108780.15, 0.0, 2.500472, 2.498632 
1.01269126e+2, 3.12312e+1, -66490.82, -577031.9, 124.60089, -0.0029877424, -0.0001523908, -66490.79, -66490.79, 0.0, 2.5004725, 2.498782 
1.0126914e+2, 3.372999e+1, -65320.367, -575158.6, 809.8644, -0.0018958069, 0.0005654335, -65319.082, -65319.082, 0.0, 2.500473, 2.498785 
1.0126915e+2, 3.6228788e+1, -64975.46, -574995.7, 846.5904, -0.00079487945, 0.0012847818, -64974.06, -64974.06, 0.0, 2.5004737, 2.498785 
1.0126916e+2, 3.8727582e+1, -64632.316, -574833.56, 882.54974, 0.0003163959, 0.0020088172, -64630.79, -64630.79, 0.0, 2.5004742, 2.498785 
1.0126917e+2, 4.1226444e+1, -23639.893, -489346.8, 683.93207, 0.0003413638, 0.0022799785, -23638.889, -23638.889, 0.0, 2.500474, 2.498932 
1.0126916e+2, 4.3725365e+1, -23214.584, -487366.53, 1048.4678, -0.0011031537, 0.0007683357, -23212.217, -23212.217, 0.0, 2.5004728, 2.4989357 
1.01269156e+2, 4.622429e+1, -23906.75, -487700.8, 992.60254, -0.0025359401, -0.00074517645, -23904.625, -23904.625, 0.0, 2.5004716, 2.4989357 
1.0126915e+2, 4.872321e+1, -24601.057, -488036.1, 937.8893, -0.0039554257, -0.0022546116, -24599.16, -24599.16, 0.0, 2.5004704, 2.4989357 
1.0126915e+2, 5.1222223e+1, 15851.307, -404102.03, 375.68085, -0.004104777, -0.0019321232, 15851.643, 15851.643, 0.0, 2.5004704, 2.4990797 
1.01269156e+2, 5.3721315e+1, 18022.264, -400889.34, 676.4858, -0.003152334, -0.0013220959, 18023.357, 18023.357, 0.0, 2.5004718, 2.4990845 
1.0126917e+2, 5.6220406e+1, 18831.584, -400499.97, 923.73676, -0.0021799854, -0.00071703957, 18833.62, 18833.62, 0.0, 2.5004733, 2.4990845 
1.01269186e+2, 5.87195e+1, 19636.305, -400112.78, 1171.03, -0.0011867986, -0.000108524546, 19639.572, 19639.572, 0.0, 2.5004747, 2.4990845 
1.0126919e+2, 6.121867e+1, 62339.64, -311276.75, 1682.5275, -0.0009844779, 0.0012161215, 62347.22, 62347.22, 0.0, 2.5004745, 2.499237 
1.01269186e+2, 6.3717914e+1, 63182.164, -308363.84, 992.2046, -0.0014739443, 0.0014154632, 63184.813, 63184.813, 0.0, 2.5004733, 2.4992428 
1.01269186e+2, 6.621716e+1, 62454.023, -308710.8, 893.6967, -0.0019428636, 0.0016057222, 62456.176, 62456.176, 0.0, 2.500472, 2.4992428 
1.0126918e+2, 6.8716407e+1, 61721.55, -309059.84, 793.4955, -0.002392253, 0.0017980845, 61723.25, 61723.25, 0.0, 2.5004706, 2.4992428 
1.01269186e+2, 7.121572e+1, 101924.46, -225265.6, 1483.7762, -0.0025877005, 0.0023681396, 101931.195, 101931.195, 0.0, 2.5004704, 2.4993868 
1.01269186e+2, 7.37151e+1, 104214.1, -221483.14, 236.1797, -0.0024080253, 0.0007424571, 104214.27, 104214.27, 0.0, 2.5004716, 2.4993927 
1.0126919e+2, 7.621448e+1, 104822.94, -221188.66, 270.98138, -0.0022018359, -0.00090007664, 104823.16, 104823.16, 0.0, 2.5004725, 2.4993927 
1.0126919e+2, 7.871385e+1, 105428.23, -220895.86, 296.9511, -0.0019701703, -0.0025422103, 105428.49, 105428.49, 0.0, 2.5004735, 2.4993927 
1.0126919e+2, 8.121332e+1, 146351.94, -135375.64, 1854.127, -0.0025180476, -0.0021560595, 146364.14, 146364.14, 0.0, 2.500473, 2.4995399 
1.0126919e+2, 8.371287e+1, 147129.44, -132047.97, -249.01883, -0.0023351987, -0.0018509257, 147129.66, 147129.66, 0.0, 2.500471, 2.4995463 
1.0126919e+2, 8.621242e+1, 146055.48, -132554.53, -308.51096, -0.0021076766, -0.0015648053, 146055.83, 146055.83, 0.0, 2.5004692, 2.4995465 
1.0126919e+2, 8.8711965e+1, 144974.27, -133064.58, -371.18646, -0.0018464875, -0.0012824194, 144974.77, 144974.77, 0.0, 2.5004675, 2.4995465 
1.0126921e+2, 9.1211617e+1, 186380.7, -47358.2, 2190.9802, -0.0011254142, 0.0017708978, 186401.23, 186401.23, 0.0, 2.5004678, 2.4996934 
1.012692e+2, 9.371131e+1, 190275.0, -42338.75, -876.0591, -0.0015433016, 0.0012777646, 190278.31, 190278.31, 0.0, 2.500471, 2.4997005 
1.0126919e+2, 9.6211004e+1, 192193.23, -41401.664, -1065.4243, -0.0019169691, 0.0007259317, 192198.1, 192198.1, 0.0, 2.5004745, 2.4997005 
1.01269186e+2, 9.8710704e+1, 194094.31, -40472.84, -1255.6221, -0.002235196, 0.00016360384, 194101.03, 194101.03, 0.0, 2.5004776, 2.4997005 
1.0376961e+2, 1.24916755e+0, -191249.36, -839225.44, 119.027016, -0.00030232625, 0.000086921966, -191249.34, -191249.34, 0.0, 2.5004756, 2.4983308 
1.0376961e+2, 3.7475026e+0, -192234.73, -840098.3, 130.85359, -0.0005570236, 0.00026136686, -192234.72, -192234.72, 0.0, 2.5004745, 2.4983299 
1.0376961e+2, 6.245838e+0, -192972.42, -840455.0, 116.96124, -0.00080832187, 0.0004366139, -192972.4, -192972.4, 0.0, 2.5004733, 2.4983299 
1.0376961e+2, 8.744173e+0, -193711.17, -840812.1, 103.18815, -0.001056221, 0.0006126629, -193711.16, -193711.16, 0.0, 2.5004718, 2.4983299 
1.0376961e+2, 1.12425834e+1, -151138.86, -752082.1, 84.28848, -0.0010259531, 0.00075030746, -151138.84, -151138.84, 0.0, 2.5004716, 2.4984822 
1.0376961e+2, 1.3741066e+1, -150524.44, -751332.56, 511.99506, -0.0009355147, 0.00044409625, -150524.0, -150524.0, 0.0, 2.500472, 2.4984832 
1.0376961e+2, 1.6239549e+1, -150194.8, -751173.44, 629.9382, -0.000842453, 0.00013885312, -150194.13, -150194.13, 0.0, 2.5004728, 2.4984832 
1.03769615e+2, 1.8738033e+1, -149865.83, -751014.7, 747.8426, -0.0007464795, -0.00016494979, -149864.89, -149864.89, 0.0, 2.5004733, 2.4984832 
1.03769615e+2, 2.1236593e+1, -108731.88, -665660.6, 237.29608, -0.0007502184, 0.00007921445, -108731.78, -108731.78, 0.0, 2.5004735, 2.4986296 
1.0376961e+2, 2.3735228e+1, -108413.42, -664643.56, 694.691, -0.001236167, 0.00018848435, -108412.555, -108412.555, 0.0, 2.500473, 2.4986315 
1.0376961e+2, 2.6233864e+1, -108639.28, -664755.75, 636.08716, -0.0017178534, 0.0002994498, -108638.555, -108638.555, 0.0, 2.5004725, 2.4986315 
1.0376961e+2, 2.87325e+1, -108866.04, -664868.4, 577.4566, -0.0021942966, 0.0004137972, -108865.44, -108865.44, 0.0, 2.5004723, 2.4986315 
1.0376961e+2, 3.123121e+1, -66411.41, -576913.06, 287.6988, -0.0021396743, 0.00088014343, -66411.24, -66411.24, 0.0, 2.5004725, 2.4987822 
1.03769615e+2, 3.3729994e+1, -65206.67, -574967.3, 966.9199, -0.001883735, 0.0007706919, -65204.84, -65204.84, 0.0, 2.500473, 2.4987853 
1.0376962e+2, 3.6228782e+1, -64861.27, -574803.25, 1020.2386, -0.0016229141, 0.0006614757, -64859.227, -64859.227, 0.0, 2.5004737, 2.4987853 
1.0376962e+2, 3.872757e+1, -64517.38, -574639.94, 1073.5383, -0.0013560205, 0.00055576995, -64515.12, -64515.12, 0.0, 2.5004742, 2.4987853 
1.0376963e+2, 4.122643e+1, -23748.951, -489606.16, 599.7667, -0.0012053961, 0.0007896361, -23748.178, -23748.178, 0.0, 2.500474, 2.4989314 
1.0376963e+2, 4.372536e+1, -23285.83, -487542.56, 999.18677, -0.0015142399, 0.00010173614, -23283.68, -23283.68, 0.0, 2.5004728, 2.4989355 
1.0376963e+2, 4.622429e+1, -23977.553, -487876.2, 961.52344, -0.0018166839, -0.0005886516, -23975.559, -23975.559, 0.0, 2.5004716, 2.4989355 
1.0376964e+2, 4.872322e+1, -24670.975, -488210.63, 923.79456, -0.0021112605, -0.0012758289, -24669.133, -24669.133, 0.0, 2.5004704, 2.4989355 
1.0376964e+2, 5.1222235e+1, 16265.082, -403261.1, 755.0671, -0.002198323, -0.0006914169, 16266.441, 16266.441, 0.0, 2.5004704, 2.4990811 
1.0376964e+2, 5.3721327e+1, 18497.123, -399919.84, 1071.9459, -0.0022219582, -0.0003989922, 18499.87, 18499.87, 0.0, 2.5004718, 2.4990861 
1.03769645e+2, 5.622041e+1, 19305.982, -399529.88, 1333.9789, -0.0022345104, -0.0001123927, 19310.23, 19310.23, 0.0, 2.5004733, 2.4990861 
1.03769645e+2, 5.8719504e+1, 20111.53, -399141.53, 1595.818, -0.0022353297, 0.00017687133, 20117.604, 20117.604, 0.0, 2.5004747, 2.4990861 
1.0376965e+2, 6.1218673e+1, 62100.95, -311786.7, 1674.7877, -0.0022192197, 0.0011208864, 62108.453, 62108.453, 0.0, 2.5004745, 2.499236 
1.0376965e+2, 6.3717914e+1, 63008.68, -308751.13, 1026.3578, -0.002040165, 0.00086856773, 63011.516, 63011.516, 0.0, 2.5004733, 2.499242 
1.0376966e+2, 6.6217154e+1, 62287.395, -309096.53, 938.9684, -0.0018504589, 0.0006061766, 62289.766, 62289.766, 0.0, 2.500472, 2.499242 
1.0376966e+2, 6.8716395e+1, 61562.38, -309443.75, 851.19946, -0.0016512733, 0.00034494666, 61564.332, 61564.332, 0.0, 2.5004709, 2.499242 
1.0376967e+2, 7.1215713e+1, 101986.555, -225192.92, 1860.5752, -0.0018051256, 0.0010992361, 101997.13, 101997.13, 0.0, 2.5004704, 2.4993868 
1.0376967e+2, 7.37151e+1, 104337.055, -221293.83, 657.80774, -0.001996664, 0.00031462422, 104338.38, 104338.38, 0.0, 2.5004716, 2.499393 
1.0376966e+2, 7.6214486e+1, 104949.95, -220998.0, 717.2798, -0.0021743902, -0.00048725732, 104951.53, 104951.53, 0.0, 2.5004725, 2.499393 
1.0376966e+2, 7.8713876e+1, 105557.2, -220704.89, 776.2424, -0.002340838, -0.0012891814, 105559.05, 105559.05, 0.0, 2.5004737, 2.499393 
1.0376967e+2, 8.1213343e+1, 146322.52, -135531.06, 1891.8269, -0.0028302672, -0.00078206655, 146335.2, 146335.2, 0.0, 2.500473, 2.4995394 
1.0376967e+2, 8.371288e+1, 147124.0, -132169.81, -162.92053, -0.0023326743, -0.0010924209, 147124.11, 147124.11, 0.0, 2.5004714, 2.499546 
1.0376967e+2, 8.6212426e+1, 146056.88, -132677.44, -189.66934, -0.0018124008, -0.0014202647, 146057.0, 146057.0, 0.0, 2.5004694, 2.499546 
1.0376967e+2, 8.8711965e+1, 144980.02, -133189.75, -217.09828, -0.0012789508, -0.0017503519, 144980.19, 144980.19, 0.0, 2.5004675, 2.499546 
1.0376968e+2, 9.1211617e+1, 186221.17, -47851.56, 3072.2256, -0.0010188125, 0.0011179973, 186261.48, 186261.48, 0.0, 2.500468, 2.4996924 
1.03769675e+2, 9.371131e+1, 190092.53, -42906.29, 98.479195, -0.001579768, 0.0008067664, 190092.58, 190092.58, 0.0, 2.5004714, 2.4996994 
1.0376967e+2, 9.6211004e+1, 192027.31, -41966.65, -66.00076, -0.002118386, 0.0004399184, 192027.33, 192027.33, 0.0, 2.5004747, 2.4996994 
1.0376966e+2, 9.8710704e+1, 193947.63, -41033.965, -231.07155, -0.002631613, 0.00006623081, 193947.86, 193947.86, 0.0, 2.5004778, 2.4996994 
1.0627008e+2, 1.2491671e+0, -191280.47, -839289.44, -65.49533, -0.0007051106, 0.000049022696, -191280.45, -191280.45, 0.0, 2.5004756, 2.4983306 
1.0627008e+2, 3.7475014e+0, -192269.0, -840167.7, -61.18431, -0.0007043264, 0.00014770855, -192268.98, -192268.98, 0.0, 2.5004745, 2.4983299 
1.0627008e+2, 6.245836e+0, -193007.36, -840524.56, -73.333015, -0.00070513185, 0.00024724918, -193007.34, -193007.34, 0.0, 2.5004733, 2.4983299 
1.0627008e+2, 8.74417e+0, -193746.78, -840881.9, -85.36246, -0.0007075269, 0.00034764444, -193746.77, -193746.77, 0.0, 2.5004718, 2.4983299 
1.0627008e+2, 1.12425804e+1, -150934.25, -751658.06, 167.66528, -0.00074350653, 0.00047585726, -150934.2, -150934.2, 0.0, 2.5004716, 2.498483 
1.0627008e+2, 1.3741066e+1, -150311.56, -750890.9, 593.3884, -0.0009843046, 0.00021288756, -150310.98, -150310.98, 0.0, 2.500472, 2.498484 
1.0627008e+2, 1.6239549e+1, -149982.63, -750732.7, 713.0387, -0.0012251894, -0.000049671053, -149981.78, -149981.78, 0.0, 2.5004728, 2.498484 
1.0627008e+2, 1.8738033e+1, -149654.36, -750574.9, 832.65027, -0.0014659342, -0.00031132877, -149653.2, -149653.2, 0.0, 2.5004733, 2.498484 
1.0627008e+2, 2.1236597e+1, -108860.3, -665920.6, 168.64362, -0.0013596631, 0.00013416451, -108860.25, -108860.25, 0.0, 2.5004733, 2.498629 
1.0627008e+2, 2.3735236e+1, -108536.19, -664891.7, 631.58795, -0.0013014295, 0.00063447683, -108535.47, -108535.47, 0.0, 2.500473, 2.498631 
1.0627009e+2, 2.6233873e+1, -108761.945, -665003.6, 574.70184, -0.001242174, 0.0011357581, -108761.35, -108761.35, 0.0, 2.5004725, 2.498631 
1.0627009e+2, 2.873251e+1, -108988.59, -665116.0, 517.78894, -0.001180869, 0.0016396147, -108988.11, -108988.11, 0.0, 2.5004723, 2.498631 
1.0627009e+2, 3.1231222e+1, -66379.586, -576835.25, 388.31085, -0.00128777, 0.0019147061, -66379.29, -66379.29, 0.0, 2.5004725, 2.4987824 
1.0627009e+2, 3.373e+1, -65128.066, -574793.5, 1049.74, -0.0018682806, 0.0009757865, -65125.902, -65125.902, 0.0, 2.500473, 2.4987855 
1.0627009e+2, 3.622878e+1, -64781.367, -574627.94, 1104.9764, -0.0024480629, 0.000035739824, -64778.97, -64778.97, 0.0, 2.5004737, 2.4987855 
1.0627009e+2, 3.8727558e+1, -64436.176, -574463.1, 1160.1941, -0.0030260477, -0.0009019714, -64433.54, -64433.54, 0.0, 2.5004742, 2.4987855 
1.0627009e+2, 4.1226417e+1, -23898.057, -489899.22, 393.8571, -0.0027571488, -0.00069827744, -23897.725, -23897.725, 0.0, 2.500474, 2.498931 
1.06270105e+2, 4.3725356e+1, -23384.525, -487732.38, 813.0782, -0.0019307485, -0.00056489854, -23383.102, -23383.102, 0.0, 2.5004728, 2.4989352 
1.0627011e+2, 4.6224293e+1, -24075.012, -488064.97, 777.6374, -0.0011032106, -0.0004347039, -24073.707, -24073.707, 0.0, 2.5004716, 2.4989352 
1.0627013e+2, 4.8723233e+1, -24767.195, -488398.4, 742.131, -0.00027323802, -0.00030216633, -24766.008, -24766.008, 0.0, 2.5004704, 2.4989352 
1.0627013e+2, 5.1222247e+1, 16642.168, -402455.44, 950.00287, -0.00028702992, 0.0005534177, 16644.322, 16644.322, 0.0, 2.5004704, 2.4990826 
1.0627012e+2, 5.372134e+1, 18947.791, -398962.7, 1274.0913, -0.0012869978, 0.000525392, 18951.674, 18951.674, 0.0, 2.5004718, 2.4990878 
1.0627012e+2, 5.6220424e+1, 19758.074, -398571.25, 1539.7643, -0.002284831, 0.0004905669, 19763.742, 19763.742, 0.0, 2.5004733, 2.4990878 
1.0627011e+2, 5.8719516e+1, 20565.047, -398181.4, 1805.2434, -0.0032800375, 0.00045761297, 20572.83, 20572.83, 0.0, 2.5004747, 2.4990878 
1.0627012e+2, 6.121868e+1, 61824.67, -312334.63, 1443.0515, -0.0034614017, 0.0010301148, 61830.24, 61830.24, 0.0, 2.5004745, 2.4992354 
1.0627013e+2, 6.3717914e+1, 62803.332, -309154.47, 830.6052, -0.0026129412, 0.0003235357, 62805.188, 62805.188, 0.0, 2.5004733, 2.4992414 
1.06270134e+2, 6.621715e+1, 62082.754, -309501.28, 746.9278, -0.0017635912, -0.0003942413, 62084.254, 62084.254, 0.0, 2.500472, 2.4992414 
1.0627014e+2, 6.8716383e+1, 61358.45, -309849.88, 662.8709, -0.0009148118, -0.001111801, 61359.633, 61359.633, 0.0, 2.5004706, 2.4992414 
1.0627015e+2, 7.121571e+1, 101989.6, -225163.8, 1980.9761, -0.0010251913, -0.00016606928, 102001.59, 102001.59, 0.0, 2.5004704, 2.4993868 
1.0627014e+2, 7.37151e+1, 104405.24, -221131.61, 810.14514, -0.0015872932, -0.00011175533, 104407.26, 104407.26, 0.0, 2.5004716, 2.4993932 
1.06270134e+2, 7.621449e+1, 105019.23, -220835.84, 874.45715, -0.0021483095, -0.00007524849, 105021.57, 105021.57, 0.0, 2.5004725, 2.4993932 
1.06270134e+2, 7.871389e+1, 105627.555, -220542.81, 938.2596, -0.002712243, -0.000039225844, 105630.26, 105630.26, 0.0, 2.5004737, 2.4993932 
1.06270134e+2, 8.1213355e+1, 146221.34, -135736.48, 1588.4325, -0.0031471201, 0.00059419754, 146230.28, 146230.28, 0.0, 2.500473, 2.4995391 
1.0627014e+2, 8.37129e+1, 147047.38, -132326.73, -444.58405, -0.0023330324, -0.00033424862, 147048.1, 147048.1, 0.0, 2.5004714, 2.4995458 
1.0627014e+2, 8.621243e+1, 145979.02, -132839.3, -464.56412, -0.001518193, -0.0012787621, 145979.78, 145979.78, 0.0, 2.5004694, 2.4995458 
1.0627014e+2, 8.8711965e+1, 144900.92, -133356.53, -485.2243, -0.0007106682, -0.0022240274, 144901.77, 144901.77, 0.0, 2.5004675, 2.4995458 
1.0627015e+2, 9.121161e+1, 185956.27, -48417.848, 3515.0566, -0.00092274346, 0.0004724217, 186008.97, 186008.97, 0.0, 2.500468, 2.4996915 
1.0627015e+2, 9.371131e+1, 189800.95, -43527.17, 618.03375, -0.0016244903, 0.0003394473, 189802.6, 189802.6, 0.0, 2.5004714, 2.4996984 
1.0627014e+2, 9.6211004e+1, 191731.78, -42594.824, 464.38907, -0.0023255958, 0.00015370066, 191732.7, 191732.7, 0.0, 2.5004747, 2.4996984 
1.06270134e+2, 9.8710704e+1, 193648.16, -41669.438, 310.1535, -0.0030313681, -0.000035230652, 193648.56, 193648.56, 0.0, 2.500478, 2.4996984 
1.0877056e+2, 1.2491667e+0, -191550.63, -839469.75, -265.19806, -0.0011060192, 0.0000105365025, -191550.52, -191550.52, 0.0, 2.5004752, 2.4983306 
1.0877056e+2, 3.7475002e+0, -192446.52, -840308.1, -299.50238, -0.00084947137, 0.00003229604, -192446.38, -192446.38, 0.0, 2.5004742, 2.4983296 
1.0877056e+2, 6.2458336e+0, -193142.23, -840644.25, -341.31534, -0.0005993148, 0.00005497182, -193142.05, -193142.05, 0.0, 2.500473, 2.4983296 
1.0877056e+2, 8.744167e+0, -193892.14, -841006.56, -383.38324, -0.00035554942, 0.00007856367, -193891.9, -193891.9, 0.0, 2.5004716, 2.4983296 
1.0877056e+2, 1.12425774e+1, -150852.45, -751308.56, 108.742775, -0.00046084906, 0.000204588, -150852.44, -150852.44, 0.0, 2.5004714, 2.4984837 
1.0877056e+2, 1.3741063e+1, -150191.84, -750496.4, 493.52875, -0.0010316627, -0.000018412275, -150191.44, -150191.44, 0.0, 2.500472, 2.4984846 
1.0877055e+2, 1.6239548e+1, -149867.98, -750341.3, 576.1568, -0.0016051767, -0.00024155724, -149867.44, -149867.44, 0.0, 2.5004725, 2.4984846 
1.0877055e+2, 1.8738033e+1, -149570.98, -750199.25, 657.7254, -0.0021812324, -0.00046431835, -149570.27, -149570.27, 0.0, 2.500473, 2.4984846 
1.0877055e+2, 2.1236598e+1, -109124.33, -666267.4, -202.59998, -0.0019715503, 0.00019142474, -109124.25, -109124.25, 0.0, 2.5004733, 2.4986286 
1.0877056e+2, 2.3735242e+1, -108744.945, -665183.75, 220.3228, -0.0013687011, 0.0010796918, -108744.86, -108744.86, 0.0, 2.5004728, 2.4986305 
1.08770564e+2, 2.6233882e+1, -108961.96, -665291.3, 117.00327, -0.00076794164, 0.0019681738, -108961.94, -108961.94, 0.0, 2.5004725, 2.4986305 
1.0877057e+2, 2.8732526e+1, -109208.48, -665413.06, 11.257511, -0.00016823124, 0.0028584513, -109208.48, -109208.48, 0.0, 2.500472, 2.4986305 
1.0877057e+2, 3.1231233e+1, -66464.984, -576834.06, -19.273726, -0.0004309605, 0.0029509466, -66464.984, -66464.984, 0.0, 2.5004723, 2.4987824 
1.08770564e+2, 3.3730003e+1, -65152.055, -574671.9, 554.8249, -0.0018483499, 0.0011803103, -65151.45, -65151.45, 0.0, 2.5004728, 2.498786 
1.0877056e+2, 3.6228776e+1, -64828.668, -574516.8, 535.40063, -0.0032691064, -0.0005928793, -64828.105, -64828.105, 0.0, 2.5004735, 2.498786 
1.0877055e+2, 3.8727543e+1, -64535.043, -574376.1, 510.96432, -0.0046922415, -0.0023648976, -64534.53, -64534.53, 0.0, 2.500474, 2.498786 
1.0877055e+2, 4.1226405e+1, -24240.037, -490302.25, -629.63434, -0.0043124645, -0.0021843724, -24239.188, -24239.188, 0.0, 2.5004735, 2.4989302 
1.0877057e+2, 4.372535e+1, -23630.32, -487996.3, -269.787, -0.0023514961, -0.0012323986, -23630.164, -23630.164, 0.0, 2.5004725, 2.4989347 
1.08770594e+2, 4.6224296e+1, -24321.31, -488328.88, -389.03317, -0.0003944571, -0.00028439684, -24320.984, -24320.984, 0.0, 2.5004714, 2.4989347 
1.0877062e+2, 4.8723245e+1, -25052.814, -488680.97, -513.99225, 0.0015597112, 0.0006650667, -25052.244, -25052.244, 0.0, 2.50047, 2.4989347 
1.0877062e+2, 5.1222265e+1, 16780.805, -401785.22, -35.12678, 0.0016302159, 0.0018008861, 16780.807, 16780.807, 0.0, 2.50047, 2.499084 
1.0877061e+2, 5.372135e+1, 19123.934, -398141.56, 188.7416, -0.00034621547, 0.0014494301, 19124.018, 19124.018, 0.0, 2.5004714, 2.4990895 
1.08770594e+2, 5.6220436e+1, 19831.0, -397799.16, 344.416, -0.0023293986, 0.0010900412, 19831.285, 19831.285, 0.0, 2.5004725, 2.4990895 
1.0877058e+2, 5.871952e+1, 20476.777, -397486.25, 497.21432, -0.0043188753, 0.0007316921, 20477.367, 20477.367, 0.0, 2.5004737, 2.4990895 
1.0877058e+2, 6.1218685e+1, 60934.734, -313200.9, -409.10825, -0.0047089253, 0.0009416054, 60935.184, 60935.184, 0.0, 2.5004735, 2.4992342 
1.08770594e+2, 6.3717914e+1, 62029.21, -309835.47, -1075.6265, -0.0031905444, -0.0002219904, 62032.324, 62032.324, 0.0, 2.5004723, 2.4992406 
1.0877061e+2, 6.621715e+1, 61261.402, -310206.88, -1248.543, -0.0016806402, -0.0013980663, 61265.6, 61265.6, 0.0, 2.5004709, 2.4992406 
1.0877062e+2, 6.871638e+1, 60409.117, -310618.97, -1424.8969, -0.00018109578, -0.002574892, 60414.59, 60414.59, 0.0, 2.5004694, 2.4992406 
1.08770624e+2, 7.12157e+1, 101153.695, -225556.22, 109.25963, -0.00024609998, -0.0014306998, 101153.734, 101153.734, 0.0, 2.500469, 2.4993868 
1.0877062e+2, 7.37151e+1, 103589.234, -221398.31, -1110.8213, -0.0011781605, -0.00053977815, 103593.03, 103593.03, 0.0, 2.50047, 2.4993935 
1.0877061e+2, 7.62145e+1, 104038.1, -221182.7, -1118.19, -0.0021215125, 0.00033265637, 104041.945, 104041.945, 0.0, 2.5004709, 2.4993935 
1.087706e+2, 7.8713906e+1, 104374.65, -221021.2, -1120.4589, -0.0030816013, 0.0012041419, 104378.51, 104378.51, 0.0, 2.5004714, 2.4993935 
1.0877061e+2, 8.121338e+1, 144688.14, -136648.23, -979.2558, -0.0034657936, 0.0019691032, 144691.55, 144691.55, 0.0, 2.5004706, 2.4995387 
1.0877061e+2, 8.3712906e+1, 145595.06, -133148.19, -3015.5522, -0.0023340746, 0.00041996175, 145627.69, 145627.69, 0.0, 2.500469, 2.4995456 
1.0877061e+2, 8.621244e+1, 144406.31, -133723.08, -3050.7249, -0.0012229726, -0.0011439591, 144439.77, 144439.77, 0.0, 2.5004668, 2.4995456 
1.0877062e+2, 8.8711965e+1, 143041.86, -134382.58, -3087.0752, -0.00013917971, -0.0027071722, 143076.2, 143076.2, 0.0, 2.5004644, 2.4995456 
1.08770624e+2, 9.121161e+1, 183771.23, -49930.21, 1638.2336, -0.0008347508, -0.00016953048, 183782.72, 183782.72, 0.0, 2.5004647, 2.4996905 
1.0877062e+2, 9.3711305e+1, 187612.38, -45061.656, -1144.8336, -0.0016753279, -0.00012774428, 187618.02, 187618.02, 0.0, 2.500468, 2.4996972 
1.0877062e+2, 9.6211004e+1, 189326.3, -44239.234, -1250.4784, -0.0025360966, -0.00013613947, 189332.98, 189332.98, 0.0, 2.500471, 2.4996972 
1.0877061e+2, 9.8710704e+1, 190802.1, -43531.484, -1360.7977, -0.0034309193, -0.00014408154, 190809.98, 190809.98, 0.0, 2.5004735, 2.4996972 
1.11271024e+2, 1.2491666e+0, -194842.4, -841015.1, -172.99371, -0.00078276487, 0.0000024661829, -194842.36, -194842.36, 0.0, 2.5004697, 2.4983306 
1.1127103e+2, 3.7475e+0, -194398.1, -841208.6, -77.33561, -0.0005456966, 0.0000087935705, -194398.08, -194398.08, 0.0, 2.5004709, 2.4983296 
1.1127103e+2, 6.2458336e+0, -193701.47, -840874.8, 20.634333, -0.0002946672, 0.000016981843, -193701.47, -193701.47, 0.0, 2.500472, 2.4983296 
1.1127103e+2, 8.7441665e+0, -193006.88, -840541.94, 117.99906, -0.00002967653, 0.000027030843, -193006.84, -193006.84, 0.0, 2.5004733, 2.4983296 
1.11271024e+2, 1.12425774e+1, -149947.28, -751139.2, 509.63904, -0.00017552519, 0.00019580119, -149946.84, -149946.84, 0.0, 2.5004733, 2.498483 
1.11271024e+2, 1.3741063e+1, -150343.42, -750837.5, 588.58026, -0.0008610143, 0.000070998074, -150342.84, -150342.84, 0.0, 2.500472, 2.4984841 
1.1127102e+2, 1.6239549e+1, -151055.42, -751189.3, 373.08017, -0.0015401891, -0.000052073075, -151055.19, -151055.19, 0.0, 2.5004709, 2.4984841 
1.1127102e+2, 1.8738036e+1, -151768.88, -751541.8, 157.33424, -0.0022128848, -0.00017288123, -151768.83, -151768.83, 0.0, 2.5004697, 2.4984841 
1.1127102e+2, 2.1236601e+1, -111162.53, -667192.4, -574.32434, -0.0019999333, 0.00049390027, -111161.94, -111161.94, 0.0, 2.5004697, 2.4986289 
1.11271024e+2, 2.3735243e+1, -109979.6, -665709.44, 169.03355, -0.0012614594, 0.0013129463, -109979.555, -109979.555, 0.0, 2.5004706, 2.4986308 
1.1127104e+2, 2.6233882e+1, -109379.3, -665434.0, 390.54822, -0.00051463913, 0.002134777, -109379.02, -109379.02, 0.0, 2.5004716, 2.4986308 
1.11271046e+2, 2.8732526e+1, -108780.83, -665159.44, 611.5267, 0.00024148956, 0.0029609438, -108780.16, -108780.16, 0.0, 2.5004728, 2.4986308 
1.1127104e+2, 3.1231233e+1, -66433.766, -577216.25, 631.8054, 0.00001958074, 0.0030037377, -66432.984, -66432.984, 0.0, 2.5004728, 2.4987814 
1.1127103e+2, 3.3730003e+1, -66204.85, -575547.75, 1089.1836, -0.0014928153, 0.0011861115, -66202.52, -66202.52, 0.0, 2.5004716, 2.498785 
1.11271024e+2, 3.622877e+1, -66966.805, -575934.3, 975.6752, -0.002998697, -0.000633348, -66964.94, -66964.94, 0.0, 2.5004702, 2.498785 
1.1127102e+2, 3.872754e+1, -67730.38, -576321.7, 861.57367, -0.0044970107, -0.002450877, -67728.93, -67728.93, 0.0, 2.500469, 2.498785 
1.1127102e+2, 4.12264e+1, -26834.326, -491835.22, -57.73796, -0.004227074, -0.002247235, -26834.318, -26834.318, 0.0, 2.5004694, 2.4989297 
1.1127104e+2, 4.3725345e+1, -24280.332, -488534.1, 549.81085, -0.002345407, -0.0011948429, -24279.682, -24279.682, 0.0, 2.5004716, 2.4989343 
1.1127107e+2, 4.6224293e+1, -23038.965, -487954.94, 680.8703, -0.0004543457, -0.00014761629, -23037.969, -23037.969, 0.0, 2.5004737, 2.4989343 
1.1127109e+2, 4.872324e+1, -21800.24, -487377.06, 811.9957, 0.0014468846, 0.00089983863, -21798.824, -21798.824, 0.0, 2.500476, 2.4989343 
1.1127109e+2, 5.122226e+1, 19952.916, -400541.28, 1154.9558, 0.0015658516, 0.0020162498, 19956.088, 19956.088, 0.0, 2.500476, 2.4990833 
1.1127108e+2, 5.3721344e+1, 20333.059, -397766.3, 1128.6552, -0.00023874185, 0.0015328744, 20336.105, 20336.105, 0.0, 2.5004737, 2.499089 
1.1127107e+2, 5.622043e+1, 19078.902, -398383.1, 1019.5988, -0.0020301195, 0.0010377949, 19081.393, 19081.393, 0.0, 2.5004716, 2.499089 
1.11271046e+2, 5.8719516e+1, 17821.697, -399001.34, 910.1785, -0.0038079035, 0.00053994, 17823.684, 17823.684, 0.0, 2.5004694, 2.499089 
1.1127105e+2, 6.1218673e+1, 58002.344, -315220.03, 105.03709, -0.0042164293, 0.00068241655, 58002.37, 58002.37, 0.0, 2.500469, 2.499233 
1.1127107e+2, 6.37179e+1, 61073.918, -310822.22, -332.513, -0.0028716517, -0.00048366265, 61074.215, 61074.215, 0.0, 2.500471, 2.4992394 
1.1127108e+2, 6.621713e+1, 62305.742, -310243.16, -315.9198, -0.0015070341, -0.0016638375, 62306.01, 62306.01, 0.0, 2.5004733, 2.4992394 
1.1127109e+2, 6.871636e+1, 63533.484, -309666.1, -299.84576, -0.00012490152, -0.002846321, 63533.727, 63533.727, 0.0, 2.5004754, 2.4992394 
1.112711e+2, 7.1215683e+1, 104460.53, -224235.56, 1194.2454, -0.0002745567, -0.0016819569, 104464.87, 104464.87, 0.0, 2.500475, 2.4993863 
1.1127109e+2, 7.371509e+1, 105082.25, -220879.8, 80.024956, -0.001091022, -0.000751541, 105082.27, 105082.27, 0.0, 2.5004728, 2.499393 
1.1127108e+2, 7.621449e+1, 103787.42, -221508.56, 117.069824, -0.0018779242, 0.00015831445, 103787.46, 103787.46, 0.0, 2.5004706, 2.499393 
1.11271076e+2, 7.871389e+1, 102485.336, -222140.83, 148.51375, -0.0026417812, 0.0010651805, 102485.4, 102485.4, 0.0, 2.5004683, 2.499393 
1.1127108e+2, 8.121336e+1, 143028.83, -137677.84, 532.16327, -0.002917603, 0.0018073573, 143029.83, 143029.83, 0.0, 2.500468, 2.4995382 
1.1127108e+2, 8.371289e+1, 146760.19, -132813.38, -1416.4321, -0.0018868898, 0.00018880414, 146767.38, 146767.38, 0.0, 2.500471, 2.499545 
1.1127108e+2, 8.621242e+1, 148563.44, -131950.72, -1428.1403, -0.0008248813, -0.0014482109, 148570.7, 148570.7, 0.0, 2.5004742, 2.499545 
1.1127109e+2, 8.8711953e+1, 150358.08, -131092.2, -1440.6992, 0.00026268436, -0.0030883183, 150365.45, 150365.45, 0.0, 2.5004773, 2.499545 
1.1127109e+2, 9.121159e+1, 190673.56, -46717.484, 3240.0518, -0.00090906245, -0.0005679617, 190717.78, 190717.78, 0.0, 2.5004766, 2.4996903 
1.1127109e+2, 9.3711287e+1, 190441.6, -43873.617, 605.1953, -0.0016636772, -0.00048842875, 190443.16, 190443.16, 0.0, 2.500473, 2.499697 
1.1127108e+2, 9.621098e+1, 188334.28, -44898.797, 577.3139, -0.0023664928, -0.00046294383, 188335.7, 188335.7, 0.0, 2.5004694, 2.499697 
1.1127108e+2, 9.871068e+1, 186206.39, -45933.887, 548.92523, -0.0030392979, -0.00044079748, 186207.69, 186207.69, 0.0, 2.5004659, 2.4996967 
1.13771506e+2, 1.2491672e+0, -194637.92, -840610.6, 12.358708, -0.00006131633, 0.000023243332, -194637.92, -194637.92, 0.0, 2.5004697, 2.4983313 
1.13771506e+2, 3.7475017e+0, -194190.0, -840796.94, 100.72236, -0.000024350702, 0.00007008836, -194189.98, -194189.98, 0.0, 2.5004709, 2.4983304 
1.13771506e+2, 6.245836e+0, -193492.3, -840461.44, 202.23239, 0.000018494173, 0.00011741204, -193492.23, -193492.23, 0.0, 2.500472, 2.4983304 
1.13771506e+2, 8.74417e+0, -192796.34, -840126.8, 303.3489, 0.00006721838, 0.0001652142, -192796.2, -192796.2, 0.0, 2.5004733, 2.4983304 
1.13771506e+2, 1.1242581e+1, -150321.72, -751918.3, 328.68445, -0.000093743634, 0.00041970066, -150321.55, -150321.55, 0.0, 2.5004733, 2.4984818 
1.137715e+2, 1.3741069e+1, -150729.3, -751635.6, 408.66113, -0.00066115794, 0.00045651206, -150729.02, -150729.02, 0.0, 2.500472, 2.4984827 
1.137715e+2, 1.6239554e+1, -151443.89, -751988.9, 199.34003, -0.0012272316, 0.0004940029, -151443.81, -151443.81, 0.0, 2.5004709, 2.4984827 
1.1377149e+2, 1.873804e+1, -152159.63, -752342.6, -9.818907, -0.0017917077, 0.0005326719, -152159.63, -152159.63, 0.0, 2.5004697, 2.4984827 
1.1377149e+2, 2.1236603e+1, -110748.96, -666322.75, -392.24222, -0.0016720186, 0.0010267557, -110748.69, -110748.69, 0.0, 2.5004697, 2.4986303 
1.137715e+2, 2.3735242e+1, -109558.875, -664817.5, 348.5131, -0.0011625573, 0.0013547976, -109558.66, -109558.66, 0.0, 2.5004706, 2.4986324 
1.13771506e+2, 2.623388e+1, -108962.54, -664543.3, 580.2959, -0.000648888, 0.0016839971, -108961.93, -108961.93, 0.0, 2.5004716, 2.4986322 
1.1377151e+2, 2.873252e+1, -108367.336, -664269.7, 812.02484, -0.00013023248, 0.0020158738, -108366.15, -108366.15, 0.0, 2.5004728, 2.4986322 
1.1377151e+2, 3.1231225e+1, -66662.11, -577641.0, 501.9323, -0.00013256143, 0.0021553421, -66661.62, -66661.62, 0.0, 2.5004728, 2.498781 
1.1377151e+2, 3.3730003e+1, -66428.766, -575962.56, 954.52277, -0.0010121958, 0.0010789353, -66426.98, -66426.98, 0.0, 2.5004714, 2.4987843 
1.13771506e+2, 3.622878e+1, -67190.28, -576348.3, 853.5753, -0.0018888455, 0.00000030131582, -67188.85, -67188.85, 0.0, 2.5004702, 2.4987843 
1.137715e+2, 3.8727555e+1, -67952.94, -576734.6, 752.7452, -0.002761276, -0.0010769572, -67951.82, -67951.82, 0.0, 2.500469, 2.4987843 
1.13771506e+2, 4.1226414e+1, -26646.125, -491393.13, 372.95837, -0.002806401, -0.00077633694, -26645.826, -26645.826, 0.0, 2.5004694, 2.4989305 
1.1377151e+2, 4.3725356e+1, -24049.549, -488008.2, 982.8154, -0.002139563, -0.00027231255, -24047.467, -24047.467, 0.0, 2.5004716, 2.4989352 
1.1377153e+2, 4.6224296e+1, -22803.762, -487426.3, 1128.0328, -0.0014670931, 0.00022717094, -22801.021, -22801.021, 0.0, 2.5004737, 2.4989352 
1.13771535e+2, 4.872324e+1, -21559.518, -486845.2, 1273.4321, -0.0007884685, 0.0007274898, -21556.031, -21556.031, 0.0, 2.500476, 2.4989352 
1.1377154e+2, 5.122225e+1, 19715.162, -401018.1, 953.6251, -0.00068260694, 0.0015800116, 19717.322, 19717.322, 0.0, 2.5004756, 2.4990826 
1.13771535e+2, 5.3721344e+1, 20133.672, -398176.56, 960.96484, -0.0012103468, 0.0011890202, 20135.879, 20135.879, 0.0, 2.5004737, 2.4990883 
1.13771535e+2, 5.622043e+1, 18888.078, -398790.3, 863.7856, -0.0017295328, 0.00078849634, 18889.865, 18889.865, 0.0, 2.5004716, 2.4990883 
1.13771535e+2, 5.8719516e+1, 17640.467, -399405.06, 766.7676, -0.0022400783, 0.0003870125, 17641.875, 17641.875, 0.0, 2.5004694, 2.4990883 
1.13771535e+2, 6.121868e+1, 58031.44, -315203.47, 561.5767, -0.0024783975, 0.0008020727, 58032.285, 58032.285, 0.0, 2.500469, 2.499233 
1.1377154e+2, 6.3717914e+1, 61145.934, -310729.28, 184.17693, -0.0020450691, 0.00012282208, 61146.023, 61146.023, 0.0, 2.500471, 2.4992397 
1.1377155e+2, 6.621715e+1, 62387.113, -310145.38, 214.45918, -0.0015982481, -0.0005687765, 62387.24, 62387.24, 0.0, 2.5004733, 2.4992397 
1.1377155e+2, 6.871638e+1, 63625.164, -309563.0, 244.69028, -0.0011405261, -0.0012611396, 63625.324, 63625.324, 0.0, 2.5004754, 2.4992394 
1.1377156e+2, 7.12157e+1, 104584.47, -224088.75, 1017.6868, -0.0015203141, -0.00019895943, 104587.62, 104587.62, 0.0, 2.5004752, 2.4993865 
1.1377155e+2, 7.3715097e+1, 105229.766, -220689.84, -21.612392, -0.0017294998, 0.000037683887, 105229.766, 105229.766, 0.0, 2.5004728, 2.4993935 
1.1377155e+2, 7.621449e+1, 103933.305, -221322.8, 31.32651, -0.0019179949, 0.00025524758, 103933.305, 103933.305, 0.0, 2.5004706, 2.4993935 
1.1377154e+2, 7.871389e+1, 102632.17, -221957.98, 83.97541, -0.0020931405, 0.00047118057, 102632.195, 102632.195, 0.0, 2.5004685, 2.4993932 
1.1377155e+2, 8.1213355e+1, 143148.42, -137565.19, 1172.4502, -0.0022061993, 0.0010721468, 143153.31, 143153.31, 0.0, 2.5004683, 2.4995384 
1.1377155e+2, 8.371289e+1, 146860.53, -132754.23, -643.968, -0.0015305971, -0.00006566214, 146862.02, 146862.02, 0.0, 2.5004714, 2.499545 
1.1377156e+2, 8.6212426e+1, 148673.0, -131887.55, -633.0349, -0.00083755027, -0.0012203851, 148674.42, 148674.42, 0.0, 2.5004745, 2.499545 
1.1377156e+2, 8.871196e+1, 150478.3, -131024.29, -622.4568, -0.0001322035, -0.002377058, 150479.67, 150479.67, 0.0, 2.5004776, 2.499545 
1.1377156e+2, 9.12116e+1, 190872.39, -46537.86, 2989.5417, -0.0017583147, 0.00026285314, 190910.03, 190910.03, 0.0, 2.500477, 2.4996905 
1.1377155e+2, 9.37113e+1, 190612.73, -43811.016, 460.06985, -0.0021210234, 0.00020876434, 190613.64, 190613.64, 0.0, 2.5004735, 2.4996967 
1.1377155e+2, 9.621099e+1, 188550.98, -44813.47, 451.85565, -0.0024492957, 0.00009964374, 188551.86, 188551.86, 0.0, 2.50047, 2.4996967 
1.1377155e+2, 9.8710686e+1, 186475.7, -45822.438, 442.73917, -0.0027719266, -0.000014717503, 186476.55, 186476.55, 0.0, 2.5004663, 2.4996967 
1.1627199e+2, 1.2491677e+0, -194445.6, -840212.1, 197.50845, 0.0006598124, 0.00004331891, -194445.53, -194445.53, 0.0, 2.5004697, 2.498332 
1.1627199e+2, 3.7475032e+0, -193993.67, -840392.25, 278.16122, 0.0004960362, 0.0001292784, -193993.55, -193993.55, 0.0, 2.5004709, 2.498331 
1.1627198e+2, 6.2458384e+0, -193293.92, -840054.7, 382.44678, 0.00033005737, 0.00021433426, -193293.7, -193293.7, 0.0, 2.500472, 2.498331 
1.1627198e+2, 8.744174e+0, -192595.94, -839718.0, 486.33878, 0.00016187601, 0.00029848632, -192595.58, -192595.58, 0.0, 2.5004733, 2.498331 
1.1627198e+2, 1.12425864e+1, -150712.88, -752720.3, 138.76448, -0.000010004386, 0.00064568827, -150712.84, -150712.84, 0.0, 2.5004733, 2.4984803 
1.1627197e+2, 1.3741073e+1, -151120.6, -752437.8, 220.5511, -0.00045822703, 0.00084080425, -151120.52, -151120.52, 0.0, 2.500472, 2.4984813 
1.1627197e+2, 1.623956e+1, -151835.38, -752791.3, 13.6145315, -0.00091009564, 0.0010355264, -151835.38, -151835.38, 0.0, 2.5004709, 2.4984813 
1.16271965e+2, 1.8738045e+1, -152551.3, -753145.3, -193.15985, -0.0013652486, 0.001230342, -152551.23, -152551.23, 0.0, 2.5004694, 2.4984813 
1.16271965e+2, 2.1236606e+1, -110343.13, -665475.56, -230.00613, -0.0013483245, 0.0015599423, -110343.04, -110343.04, 0.0, 2.5004697, 2.4986317 
1.1627197e+2, 2.3735242e+1, -109129.55, -663922.44, 499.16412, -0.0010672887, 0.0013939643, -109129.1, -109129.1, 0.0, 2.5004706, 2.4986339 
1.1627198e+2, 2.6233876e+1, -108532.234, -663647.1, 732.9841, -0.0007861352, 0.0012274671, -108531.27, -108531.27, 0.0, 2.5004716, 2.4986339 
1.1627199e+2, 2.873251e+1, -107936.06, -663372.4, 966.7501, -0.0005043173, 0.0010619881, -107934.38, -107934.38, 0.0, 2.5004728, 2.4986339 
1.1627199e+2, 3.1231222e+1, -66881.35, -578079.8, 312.82428, -0.000285937, 0.0013095561, -66881.164, -66881.164, 0.0, 2.5004728, 2.49878 
1.1627199e+2, 3.3730003e+1, -66632.164, -576368.06, 753.6575, -0.00053250045, 0.0009725914, -66631.05, -66631.05, 0.0, 2.5004714, 2.4987836 
1.1627199e+2, 3.6228788e+1, -67393.51, -576753.1, 654.15814, -0.00077961676, 0.0006329098, -67392.67, -67392.67, 0.0, 2.5004702, 2.4987836 
1.1627199e+2, 3.872757e+1, -68155.99, -577138.75, 554.776, -0.0010258632, 0.0002940488, -68155.39, -68155.39, 0.0, 2.5004687, 2.4987836 
1.1627199e+2, 4.122643e+1, -26447.912, -490958.7, 700.39966, -0.0013803632, 0.000694804, -26446.855, -26446.855, 0.0, 2.5004694, 2.4989312 
1.1627199e+2, 4.3725368e+1, -23804.986, -487476.22, 1302.0925, -0.001928843, 0.0006483406, -23801.33, -23801.33, 0.0, 2.5004716, 2.4989362 
1.1627199e+2, 4.6224305e+1, -22559.59, -486893.9, 1449.0264, -0.0024755008, 0.0005979233, -22555.066, -22555.066, 0.0, 2.5004737, 2.4989362 
1.1627199e+2, 4.872324e+1, -21315.734, -486312.34, 1596.1422, -0.003020019, 0.0005489495, -21310.256, -21310.256, 0.0, 2.500476, 2.4989362 
1.16271995e+2, 5.122225e+1, 19464.625, -401515.3, 605.06024, -0.0029353802, 0.0011501475, 19465.494, 19465.494, 0.0, 2.5004756, 2.4990816 
1.16272e+2, 5.372134e+1, 19920.73, -398594.25, 635.01355, -0.0021863102, 0.00084858394, 19921.693, 19921.693, 0.0, 2.5004735, 2.4990876 
1.1627201e+2, 5.622043e+1, 18673.502, -399209.9, 540.04956, -0.0014332561, 0.0005395083, 18674.2, 18674.2, 0.0, 2.5004716, 2.4990876 
1.16272025e+2, 5.8719516e+1, 17424.256, -399826.5, 445.24683, -0.000676515, 0.00023128776, 17424.732, 17424.732, 0.0, 2.5004694, 2.4990876 
1.16272025e+2, 6.121868e+1, 58002.875, -315235.84, 829.28467, -0.00073205563, 0.00092669553, 58004.72, 58004.72, 0.0, 2.500469, 2.499233 
1.16272025e+2, 6.371792e+1, 61164.395, -310663.25, 503.028, -0.0012108504, 0.00073101046, 61165.074, 61165.074, 0.0, 2.500471, 2.4992397 
1.16272025e+2, 6.6217154e+1, 62405.33, -310079.13, 536.1117, -0.001682648, 0.0005246003, 62406.1, 62406.1, 0.0, 2.5004733, 2.4992397 
1.1627202e+2, 6.8716395e+1, 63643.13, -309496.5, 569.1442, -0.0021501582, 0.00031897056, 63644.0, 63644.0, 0.0, 2.5004754, 2.4992397 
1.1627202e+2, 7.1215713e+1, 104617.08, -224002.97, 616.17847, -0.002768047, 0.0012890211, 104618.234, 104618.234, 0.0, 2.5004752, 2.4993865 
1.1627202e+2, 7.37151e+1, 105293.67, -220541.17, -357.85352, -0.0023694385, 0.00082941394, 105294.07, 105294.07, 0.0, 2.5004728, 2.4993937 
1.1627202e+2, 7.621449e+1, 103996.34, -221177.92, -301.41476, -0.0019589036, 0.00035204858, 103996.625, 103996.625, 0.0, 2.5004706, 2.4993937 
1.16272025e+2, 7.871388e+1, 102694.35, -221816.92, -245.26602, -0.0015447164, -0.00012558863, 102694.54, 102694.54, 0.0, 2.5004685, 2.4993935 
1.1627203e+2, 8.121335e+1, 143169.53, -137514.34, 1530.6744, -0.0014895251, 0.00033878532, 143177.88, 143177.88, 0.0, 2.5004683, 2.4995384 
1.1627203e+2, 8.371289e+1, 146864.61, -132742.3, -169.97923, -0.0011708767, -0.0003206753, 146864.72, 146864.72, 0.0, 2.5004714, 2.499545 
1.1627203e+2, 8.6212426e+1, 148679.0, -131875.05, -154.83003, -0.0008486929, -0.0009955945, 148679.1, 148679.1, 0.0, 2.5004745, 2.499545 
1.1627203e+2, 8.8711965e+1, 150486.23, -131011.24, -140.03581, -0.0005274649, -0.0016713217, 150486.31, 150486.31, 0.0, 2.5004776, 2.499545 
1.16272025e+2, 9.121161e+1, 190930.06, -46445.473, 2389.9524, -0.0025920633, 0.0010992616, 190954.11, 190954.11, 0.0, 2.500477, 2.4996905 
1.16272025e+2, 9.3711305e+1, 190623.69, -43826.746, -46.598164, -0.00256675, 0.00090698525, 190623.7, 190623.7, 0.0, 2.5004735, 2.4996967 
1.16272025e+2, 9.6211e+1, 188569.14, -44824.94, -45.311577, -0.0025246267, 0.0006584933, 188569.14, 188569.14, 0.0, 2.50047, 2.4996967 
1.1627202e+2, 9.871069e+1, 186501.05, -45829.656, -44.927242, -0.0025012367, 0.00040285994, 186501.06, 186501.06, 0.0, 2.5004663, 2.4996967 
1.1877246e+2, 1.2491683e+0, -194267.52, -839821.5, 372.57315, 0.0013821151, 0.00006267565, -194267.3, -194267.3, 0.0, 2.5004697, 2.4983327 
1.1877246e+2, 3.7475047e+0, -193759.95, -839971.75, 422.71033, 0.0010168273, 0.00018632738, -193759.67, -193759.67, 0.0, 2.5004709, 2.4983318 
1.1877246e+2, 6.2458414e+0, -193076.47, -839641.0, 504.06314, 0.0006415135, 0.00030771375, -193076.08, -193076.08, 0.0, 2.500472, 2.4983318 
1.1877246e+2, 8.744178e+0, -192465.4, -839345.1, 582.15704, 0.00025617392, 0.00042683457, -192464.88, -192464.88, 0.0, 2.500473, 2.4983318 
1.18772455e+2, 1.124259e+1, -151180.19, -753574.9, -167.02455, 0.0000775915, 0.00087367743, -151180.14, -151180.14, 0.0, 2.500473, 2.498479 
1.18772455e+2, 1.3741076e+1, -151476.67, -753225.44, -101.17224, -0.0002506901, 0.0012236444, -151476.66, -151476.66, 0.0, 2.500472, 2.49848 
1.1877245e+2, 1.6239563e+1, -152147.56, -753558.0, -332.05273, -0.0005873892, 0.0015721776, -152147.38, -152147.38, 0.0, 2.5004709, 2.49848 
1.1877245e+2, 1.8738051e+1, -152877.92, -753919.25, -567.2611, -0.0009320269, 0.0019197736, -152877.39, -152877.39, 0.0, 2.5004697, 2.49848 
1.1877244e+2, 2.123661e+1, -109875.375, -664618.6, -293.9185, -0.0010273473, 0.0020930509, -109875.22, -109875.22, 0.0, 2.5004697, 2.4986331 
1.1877245e+2, 2.3735242e+1, -108583.94, -662973.9, 376.7942, -0.000974272, 0.0014299497, -108583.68, -108583.68, 0.0, 2.5004709, 2.4986353 
1.18772455e+2, 2.6233873e+1, -107983.375, -662696.5, 561.27026, -0.0009249818, 0.00076463824, -107982.805, -107982.805, 0.0, 2.5004718, 2.4986353 
1.18772455e+2, 2.8732502e+1, -107425.12, -662439.5, 739.8786, -0.0008792102, 0.00009872155, -107424.13, -107424.13, 0.0, 2.5004728, 2.4986353 
1.1877246e+2, 3.1231216e+1, -67018.98, -578499.56, -315.0594, -0.00043900427, 0.0004657032, -67018.78, -67018.78, 0.0, 2.5004728, 2.4987793 
1.1877247e+2, 3.3730003e+1, -66678.44, -576700.3, 67.52641, -0.000052355193, 0.00086619117, -66678.43, -66678.43, 0.0, 2.5004716, 2.4987829 
1.1877247e+2, 3.6228794e+1, -67419.34, -577075.06, -86.143005, 0.00033035333, 0.0012633998, -67419.33, -67419.33, 0.0, 2.5004704, 2.4987829 
1.1877248e+2, 3.8727582e+1, -68205.22, -577471.44, -245.15323, 0.0007107413, 0.0016608976, -68205.1, -68205.1, 0.0, 2.500469, 2.4987829 
1.1877247e+2, 4.1226444e+1, -26117.871, -490475.4, 355.77872, 0.000052629708, 0.0021648128, -26117.6, -26117.6, 0.0, 2.5004694, 2.498932 
1.1877246e+2, 4.3725377e+1, -23422.762, -486880.78, 875.9212, -0.0017116775, 0.0015656101, -23421.107, -23421.107, 0.0, 2.5004718, 2.4989371 
1.18772455e+2, 4.622431e+1, -22220.805, -486318.94, 944.87256, -0.003477879, 0.0009629778, -22218.88, -22218.88, 0.0, 2.5004737, 2.4989371 
1.1877245e+2, 4.8723245e+1, -21061.46, -485777.63, 1009.8367, -0.005245816, 0.00036237363, -21059.268, -21059.268, 0.0, 2.500476, 2.498937 
1.1877245e+2, 5.122225e+1, 19175.361, -402048.0, -733.8646, -0.005190484, 0.00072467845, 19176.64, 19176.64, 0.0, 2.5004756, 2.4990807 
1.1877247e+2, 5.372134e+1, 19682.111, -399027.78, -765.2564, -0.003164865, 0.00050947827, 19683.51, 19683.51, 0.0, 2.5004735, 2.4990869 
1.1877249e+2, 5.6220424e+1, 18394.625, -399664.0, -942.56177, -0.0011396063, 0.0002885798, 18396.75, 18396.75, 0.0, 2.5004714, 2.4990869 
1.1877251e+2, 5.8719516e+1, 17061.83, -400322.06, -1122.1884, 0.0008845186, 0.00007029491, 17064.846, 17064.846, 0.0, 2.500469, 2.4990869 
1.18772514e+2, 6.121868e+1, 57724.324, -315412.34, -237.5293, 0.0010243764, 0.00105364, 57724.473, 57724.473, 0.0, 2.5004687, 2.4992328 
1.1877251e+2, 6.371792e+1, 60851.004, -310760.75, -600.6129, -0.00036717654, 0.0013381438, 60851.973, 60851.973, 0.0, 2.5004706, 2.49924 
1.1877249e+2, 6.621717e+1, 61958.77, -310240.5, -654.87866, -0.001758243, 0.0016133686, 61959.918, 61959.918, 0.0, 2.5004725, 2.49924 
1.18772484e+2, 6.8716407e+1, 63023.633, -309740.88, -710.6566, -0.0031515032, 0.0018908671, 63024.984, 63024.984, 0.0, 2.5004745, 2.4992397 
1.18772484e+2, 7.121573e+1, 103876.18, -224308.64, -1470.501, -0.004015441, 0.002778743, 103882.766, 103882.766, 0.0, 2.5004737, 2.4993868 
1.18772484e+2, 7.371511e+1, 104511.69, -220802.83, -2459.5027, -0.0030087912, 0.0016204595, 104530.28, 104530.28, 0.0, 2.5004714, 2.499394 
1.1877249e+2, 7.621449e+1, 103079.39, -221507.98, -2477.1677, -0.0019987063, 0.00044554943, 103098.3, 103098.3, 0.0, 2.500469, 2.499394 
1.187725e+2, 7.8713876e+1, 101588.77, -222241.23, -2493.559, -0.0009945028, -0.0007283043, 101607.98, 101607.98, 0.0, 2.5004663, 2.499394 
1.1877251e+2, 8.121335e+1, 141820.23, -138138.48, -83.54645, -0.000765588, -0.00039591786, 141820.27, 141820.27, 0.0, 2.5004659, 2.4995384 
1.1877251e+2, 8.371289e+1, 145305.94, -133484.42, -1697.5964, -0.00080578914, -0.00057940395, 145316.27, 145316.27, 0.0, 2.5004687, 2.499545 
1.1877251e+2, 8.621243e+1, 146864.7, -132740.69, -1708.8771, -0.0008561889, -0.00077697285, 146875.14, 146875.14, 0.0, 2.5004714, 2.499545 
1.1877251e+2, 8.8711977e+1, 148359.53, -132027.75, -1721.5984, -0.0009205646, -0.00097419525, 148370.11, 148370.11, 0.0, 2.500474, 2.499545 
1.1877249e+2, 9.1211617e+1, 188591.94, -47524.61, -289.1099, -0.003407863, 0.0019382904, 188592.28, 188592.28, 0.0, 2.500473, 2.4996908 
1.1877249e+2, 9.371131e+1, 188025.5, -45098.668, -2640.5283, -0.0029988897, 0.0016034958, 188055.4, 188055.4, 0.0, 2.500469, 2.4996967 
1.1877249e+2, 9.6211004e+1, 185628.63, -46260.96, -2636.5186, -0.0025905287, 0.001211166, 185658.6, 185658.6, 0.0, 2.500465, 2.4996967 
1.1877249e+2, 9.871069e+1, 183093.75, -47489.707, -2635.7607, -0.0022248114, 0.00080986024, 183123.88, 183123.88, 0.0, 2.5004606, 2.4996967 
1.2127294e+2, 1.2491681e+0, -192169.83, -838858.6, 357.4547, 0.0014063993, 0.000052431595, -192169.63, -192169.63, 0.0, 2.5004733, 2.4983325 
1.2127294e+2, 3.7475044e+0, -192668.64, -839495.3, 206.71141, 0.0010107443, 0.00015736822, -192668.58, -192668.58, 0.0, 2.5004728, 2.4983318 
1.2127294e+2, 6.245841e+0, -192924.02, -839623.2, 100.00938, 0.0006317864, 0.00026240357, -192924.0, -192924.0, 0.0, 2.5004723, 2.4983318 
1.2127294e+2, 8.7441766e+0, -193181.33, -839751.94, -6.5081086, 0.0002695258, 0.0003675375, -193181.33, -193181.33, 0.0, 2.5004718, 2.4983318 
1.2127293e+2, 1.1242589e+1, -151901.97, -753958.4, -710.9913, 0.00017038277, 0.0008481503, -151901.13, -151901.13, 0.0, 2.5004718, 2.498479 
1.2127293e+2, 1.3741076e+1, -151483.47, -753269.06, -194.36093, -0.00002600578, 0.0012868462, -151483.4, -151483.4, 0.0, 2.500472, 2.4984798 
1.2127293e+2, 1.6239563e+1, -151384.63, -753241.2, 32.62824, -0.00020693014, 0.0017302111, -151384.63, -151384.63, 0.0, 2.5004723, 2.4984798 
1.2127292e+2, 1.8738051e+1, -151287.33, -753214.1, 259.28693, -0.00037190705, 0.0021787353, -151287.22, -151287.22, 0.0, 2.5004725, 2.4984798 
1.2127292e+2, 2.123661e+1, -108455.41, -664095.25, 697.64905, -0.0005114998, 0.0023559865, -108454.53, -108454.53, 0.0, 2.5004723, 2.4986327 
1.2127292e+2, 2.3735242e+1, -108301.47, -662986.4, 920.506, -0.0007169869, 0.0015790886, -108299.945, -108299.945, 0.0, 2.5004714, 2.498635 
1.2127293e+2, 2.6233873e+1, -108816.83, -663263.25, 687.63916, -0.0009127734, 0.0008038691, -108815.97, -108815.97, 0.0, 2.5004706, 2.498635 
1.2127293e+2, 2.87325e+1, -109334.836, -663541.4, 454.46063, -0.0010986387, 0.000031978983, -109334.46, -109334.46, 0.0, 2.5004697, 2.4986348 
1.2127293e+2, 3.1231213e+1, -68638.875, -579302.9, -594.2015, -0.00068610074, 0.0003873453, -68638.19, -68638.19, 0.0, 2.5004702, 2.4987793 
1.2127294e+2, 3.3730003e+1, -66902.945, -576819.25, 154.44704, -0.00007736315, 0.0008987141, -66902.9, -66902.9, 0.0, 2.5004714, 2.4987829 
1.21272944e+2, 3.6228794e+1, -66224.45, -576526.44, 385.914, 0.00054277934, 0.0014093244, -66224.16, -66224.16, 0.0, 2.5004725, 2.4987829 
1.2127295e+2, 3.8727582e+1, -65549.4, -576235.25, 616.887, 0.0011758003, 0.0019226419, -65548.66, -65548.66, 0.0, 2.5004737, 2.4987829 
1.2127295e+2, 4.1226444e+1, -23981.62, -489740.47, 1387.9283, 0.00057701766, 0.0024221682, -23977.484, -23977.484, 0.0, 2.5004735, 2.4989312 
1.21272944e+2, 4.3725377e+1, -23550.006, -487210.38, 1693.1824, -0.00133743, 0.0017039768, -23543.822, -23543.822, 0.0, 2.5004718, 2.4989364 
1.2127293e+2, 4.6224308e+1, -24598.38, -487749.03, 1563.7305, -0.0032418119, 0.0009790862, -24593.102, -24593.102, 0.0, 2.50047, 2.4989364 
1.2127292e+2, 4.8723236e+1, -25650.299, -488289.38, 1433.5381, -0.00513592, 0.0002529057, -25645.857, -25645.857, 0.0, 2.5004683, 2.4989364 
1.2127292e+2, 5.1222247e+1, 14573.247, -404699.5, -321.76303, -0.0051664524, 0.0005573576, 14573.493, 14573.493, 0.0, 2.5004683, 2.4990797 
1.21272944e+2, 5.372133e+1, 17505.799, -400469.34, -99.16922, -0.003095479, 0.00036724022, 17505.822, 17505.822, 0.0, 2.5004702, 2.4990861 
1.21272966e+2, 5.622042e+1, 18653.338, -399944.47, -42.919136, -0.0010133585, 0.00016563792, 18653.344, 18653.344, 0.0, 2.5004723, 2.499086 
1.2127298e+2, 5.8719504e+1, 19798.166, -399420.9, 13.174679, 0.00107865, -0.000039234885, 19798.166, 19798.166, 0.0, 2.5004742, 2.499086 
1.2127299e+2, 6.121867e+1, 60856.395, -314005.8, 1137.5503, 0.001253474, 0.00096639013, 60859.848, 60859.848, 0.0, 2.5004742, 2.4992325 
1.2127298e+2, 6.3717914e+1, 61930.836, -310301.16, 1048.6881, -0.00014035156, 0.0013135095, 61933.79, 61933.79, 0.0, 2.5004725, 2.4992397 
1.2127297e+2, 6.6217154e+1, 60993.09, -310774.38, 1214.6743, -0.0015232548, 0.0016456482, 60997.06, 60997.06, 0.0, 2.5004709, 2.4992397 
1.2127296e+2, 6.87164e+1, 60052.5, -311248.97, 1380.295, -0.002897906, 0.0019741782, 60057.63, 60057.63, 0.0, 2.5004694, 2.4992397 
1.2127296e+2, 7.121572e+1, 100762.75, -226158.0, 572.7474, -0.0037985311, 0.0027963645, 100763.75, 100763.75, 0.0, 2.5004687, 2.499386 
1.2127296e+2, 7.37151e+1, 103819.37, -221475.78, -399.73724, -0.0027520517, 0.0014936734, 103819.86, 103819.86, 0.0, 2.5004706, 2.4993932 
1.21272966e+2, 7.6214486e+1, 104852.664, -220998.11, -488.61615, -0.0016885076, 0.00017096203, 104853.4, 104853.4, 0.0, 2.5004723, 2.499393 
1.2127297e+2, 7.871386e+1, 105883.484, -220521.63, -579.95374, -0.00061807263, -0.0011543634, 105884.516, 105884.516, 0.0, 2.5004742, 2.499393 
1.2127298e+2, 8.1213325e+1, 146110.64, -136233.8, 1769.0974, -0.00034294714, -0.00078935834, 146121.73, 146121.73, 0.0, 2.5004735, 2.4995382 
1.2127298e+2, 8.3712876e+1, 146915.23, -132906.56, 236.5714, -0.00042983785, -0.0007093063, 146915.44, 146915.44, 0.0, 2.5004716, 2.4995446 
1.2127298e+2, 8.621242e+1, 145870.86, -133419.44, 178.02898, -0.0005088393, -0.00064299995, 145870.97, 145870.97, 0.0, 2.50047, 2.4995446 
1.2127298e+2, 8.8711965e+1, 144818.88, -133935.97, 118.01746, -0.00058320555, -0.0005762985, 144818.92, 144818.92, 0.0, 2.500468, 2.4995446 
1.21272966e+2, 9.121161e+1, 185319.39, -48517.49, 1259.1107, -0.0033555427, 0.002266517, 185326.17, 185326.17, 0.0, 2.5004666, 2.499692 
1.21272966e+2, 9.3711305e+1, 187546.55, -44861.46, -725.6888, -0.0027892455, 0.0017034037, 187548.81, 187548.81, 0.0, 2.5004678, 2.4996977 
1.21272966e+2, 9.621099e+1, 188135.47, -44592.516, -498.96762, -0.0021832713, 0.0010922147, 188136.53, 188136.53, 0.0, 2.5004687, 2.4996977 
1.2127296e+2, 9.871068e+1, 188704.84, -44332.973, -272.58618, -0.0015850934, 0.0004801444, 188705.16, 188705.16, 0.0, 2.5004697, 2.4996977 
1.23773396e+2, 1.2491675e+0, -192356.2, -839236.56, 296.79898, 0.000480033, 0.000017994109, -192356.06, -192356.06, 0.0, 2.5004733, 2.498332 
1.23773396e+2, 3.747502e+0, -192851.05, -839864.1, 140.96776, 0.00026331533, 0.00005414855, -192851.02, -192851.02, 0.0, 2.5004728, 2.498331 
1.23773396e+2, 6.2458366e+0, -193107.06, -839992.75, 37.340157, 0.00005511138, 0.000090525384, -193107.06, -193107.06, 0.0, 2.5004723, 2.498331 
1.23773396e+2, 8.744172e+0, -193364.75, -840122.25, -66.0648, -0.0001445788, 0.00012712447, -193364.75, -193364.75, 0.0, 2.5004718, 2.498331 
1.23773396e+2, 1.1242584e+1, -151468.61, -753042.7, -675.6854, -0.00009158905, 0.00059232034, -151467.84, -151467.84, 0.0, 2.5004718, 2.4984803 
1.23773396e+2, 1.3741075e+1, -151051.13, -752355.7, -168.11574, -0.000057164507, 0.001090468, -151051.08, -151051.08, 0.0, 2.500472, 2.4984815 
1.23773396e+2, 1.6239563e+1, -150950.6, -752323.94, 62.714844, -0.000014013182, 0.0015916751, -150950.58, -150950.58, 0.0, 2.5004723, 2.4984815 
1.23773396e+2, 1.8738052e+1, -150851.92, -752293.1, 293.49738, 0.00003822867, 0.0020964064, -150851.78, -150851.78, 0.0, 2.5004725, 2.4984815 
1.2377339e+2, 2.1236615e+1, -108902.914, -664978.2, 592.8961, -0.00006666582, 0.0024519626, -108902.28, -108902.28, 0.0, 2.5004723, 2.4986312 
1.2377339e+2, 2.3735245e+1, -108746.04, -663856.7, 793.9123, -0.00052966096, 0.0019620871, -108744.9, -108744.9, 0.0, 2.5004714, 2.4986336 
1.2377339e+2, 2.6233876e+1, -109263.13, -664132.5, 566.5576, -0.0009889067, 0.0014723839, -109262.555, -109262.555, 0.0, 2.5004706, 2.4986336 
1.2377339e+2, 2.8732508e+1, -109781.58, -664408.94, 339.38892, -0.0014439002, 0.0009845451, -109781.37, -109781.37, 0.0, 2.5004697, 2.4986334 
1.2377339e+2, 3.123122e+1, -68238.19, -578397.75, -379.36472, -0.0013092973, 0.001219983, -68237.9, -68237.9, 0.0, 2.50047, 2.498781 
1.23773396e+2, 3.3730006e+1, -66497.32, -575902.6, 358.1742, -0.0008451885, 0.0012804529, -66497.07, -66497.07, 0.0, 2.500471, 2.4987845 
1.237734e+2, 3.6228794e+1, -65817.055, -575606.8, 598.6637, -0.00037555958, 0.0013391624, -65816.35, -65816.35, 0.0, 2.5004723, 2.4987845 
1.2377341e+2, 3.8727582e+1, -65138.684, -575311.9, 839.3973, 0.00010054775, 0.0013992958, -65137.3, -65137.3, 0.0, 2.5004735, 2.4987843 
1.2377341e+2, 4.122644e+1, -24258.36, -490234.1, 1178.085, -0.00009721938, 0.0018278998, -24255.38, -24255.38, 0.0, 2.5004735, 2.4989305 
1.2377341e+2, 4.3725377e+1, -23819.898, -487695.75, 1479.3126, -0.0011075323, 0.0014476703, -23815.18, -23815.18, 0.0, 2.5004716, 2.4989357 
1.237734e+2, 4.6224308e+1, -24862.36, -488230.0, 1361.3668, -0.0021144757, 0.0010607772, -24858.36, -24858.36, 0.0, 2.50047, 2.4989357 
1.237734e+2, 4.872324e+1, -25906.756, -488765.2, 1243.7438, -0.0031175376, 0.000672551, -25903.412, -25903.412, 0.0, 2.5004683, 2.4989355 
1.237734e+2, 5.122225e+1, 14642.187, -404512.8, 33.39183, -0.0032953508, 0.0011267194, 14642.188, 14642.188, 0.0, 2.5004683, 2.4990802 
1.23773426e+2, 5.372134e+1, 17603.639, -400232.6, 296.63425, -0.0023422039, 0.00092611957, 17603.85, 17603.85, 0.0, 2.5004702, 2.4990864 
1.2377343e+2, 5.6220424e+1, 18757.904, -399704.47, 366.75455, -0.0013836902, 0.00071517704, 18758.225, 18758.225, 0.0, 2.5004723, 2.4990864 
1.2377344e+2, 5.871951e+1, 19909.936, -399177.4, 437.19223, -0.00042153092, 0.0005019384, 19910.393, 19910.393, 0.0, 2.5004742, 2.4990864 
1.2377345e+2, 6.121868e+1, 61172.742, -313357.13, 966.21277, -0.00039060522, 0.0013144574, 61175.234, 61175.234, 0.0, 2.5004742, 2.4992337 
1.2377345e+2, 6.371792e+1, 62257.617, -309646.38, 949.5424, -0.0009005438, 0.0013421011, 62260.043, 62260.043, 0.0, 2.5004725, 2.4992409 
1.2377344e+2, 6.621716e+1, 61330.76, -310114.9, 1127.915, -0.0014049791, 0.0013560147, 61334.188, 61334.188, 0.0, 2.5004709, 2.4992409 
1.2377344e+2, 6.87164e+1, 60401.36, -310584.7, 1306.3004, -0.0019066621, 0.0013672024, 60405.957, 60405.957, 0.0, 2.5004694, 2.4992406 
1.2377344e+2, 7.121572e+1, 100670.9, -226440.23, 898.7907, -0.0026405205, 0.0021660689, 100673.37, 100673.37, 0.0, 2.500469, 2.4993854 
1.2377344e+2, 7.37151e+1, 103715.07, -221800.33, 53.677265, -0.0020543742, 0.0012532393, 103715.08, 103715.08, 0.0, 2.5004706, 2.4993925 
1.2377344e+2, 7.6214486e+1, 104758.52, -221319.2, -24.74758, -0.0014570375, 0.00032145213, 104758.53, 104758.53, 0.0, 2.5004725, 2.4993925 
1.2377344e+2, 7.871387e+1, 105798.35, -220839.83, -103.29362, -0.0008593004, -0.0006126236, 105798.38, 105798.38, 0.0, 2.5004742, 2.4993925 
1.2377345e+2, 8.1213343e+1, 146143.39, -136340.95, 1567.905, -0.0006697688, -0.00004694234, 146152.1, 146152.1, 0.0, 2.5004735, 2.499538 
1.23773456e+2, 8.371288e+1, 146926.38, -133076.06, 187.13019, -0.00048078783, 0.00008430471, 146926.5, 146926.5, 0.0, 2.5004718, 2.4995444 
1.23773456e+2, 8.621243e+1, 145895.17, -133582.84, 138.06383, -0.00029152163, 0.00020135618, 145895.25, 145895.25, 0.0, 2.5004702, 2.4995444 
1.23773456e+2, 8.8711977e+1, 144858.81, -134092.11, 88.33701, -0.00010495888, 0.00031800097, 144858.84, 144858.84, 0.0, 2.5004683, 2.4995444 
1.2377343e+2, 9.1211617e+1, 186030.22, -47325.164, 1473.577, -0.0030021055, 0.0028639962, 186039.52, 186039.52, 0.0, 2.500467, 2.4996939 
1.2377343e+2, 9.3711305e+1, 188193.58, -43850.355, -294.2652, -0.0023908264, 0.001929555, 188193.95, 188193.95, 0.0, 2.500468, 2.4996994 
1.2377344e+2, 9.621099e+1, 188821.3, -43564.89, -51.03816, -0.0017514215, 0.0009487193, 188821.31, 188821.31, 0.0, 2.5004692, 2.4996994 
1.2377344e+2, 9.8710686e+1, 189439.45, -43284.027, 191.53384, -0.0011356724, -0.00003347859, 189439.61, 189439.61, 0.0, 2.5004702, 2.4996994 
1.2627387e+2, 1.2491667e+0, -192537.08, -839612.3, 235.56525, -0.00044630712, -0.000016960541, -192537.0, -192537.0, 0.0, 2.5004733, 2.4983313 
1.2627387e+2, 3.7475002e+0, -193028.02, -840231.6, 74.49502, -0.00048403596, -0.00005062264, -193028.02, -193028.02, 0.0, 2.5004728, 2.4983304 
1.2627387e+2, 6.2458336e+0, -193284.4, -840360.94, -26.507376, -0.00052143453, -0.00008393865, -193284.4, -193284.4, 0.0, 2.5004723, 2.4983304 
1.2627387e+2, 8.7441665e+0, -193542.48, -840491.06, -127.287125, -0.00055850286, -0.000116908726, -193542.45, -193542.45, 0.0, 2.5004718, 2.4983304 
1.2627387e+2, 1.12425804e+1, -151033.98, -752135.94, -642.94904, -0.00035521667, 0.0003364049, -151033.3, -151033.3, 0.0, 2.5004718, 2.498482 
1.2627387e+2, 1.3741072e+1, -150610.95, -751440.1, -144.68123, -0.00009256685, 0.0008906863, -150610.9, -150610.9, 0.0, 2.500472, 2.4984832 
1.2627387e+2, 1.6239563e+1, -150506.8, -751403.6, 89.272934, 0.00017207739, 0.0014464051, -150506.78, -150506.78, 0.0, 2.5004723, 2.498483 
1.2627387e+2, 1.8738054e+1, -150404.52, -751367.94, 323.17905, 0.00043895523, 0.002004013, -150404.34, -150404.34, 0.0, 2.5004725, 2.498483 
1.2627387e+2, 2.1236618e+1, -109348.766, -665884.2, 474.59058, 0.00038568187, 0.002550146, -109348.37, -109348.37, 0.0, 2.5004723, 2.4986298 
1.2627387e+2, 2.373525e+1, -109169.78, -664718.1, 658.3538, -0.00033618664, 0.0023447988, -109169.0, -109169.0, 0.0, 2.5004714, 2.4986322 
1.2627387e+2, 2.6233882e+1, -109684.73, -664991.0, 433.2658, -0.0010603459, 0.0021380463, -109684.39, -109684.39, 0.0, 2.5004706, 2.498632 
1.2627386e+2, 2.8732514e+1, -110201.03, -665264.44, 208.36378, -0.0017859223, 0.001931694, -110200.95, -110200.95, 0.0, 2.5004697, 2.498632 
1.2627386e+2, 3.1231225e+1, -67812.734, -577489.25, -187.6366, -0.0019348969, 0.002049893, -67812.664, -67812.664, 0.0, 2.50047, 2.4987824 
1.2627387e+2, 3.3730006e+1, -66060.73, -574972.0, 534.7701, -0.0016166437, 0.0016569996, -66060.164, -66060.164, 0.0, 2.500471, 2.4987862 
1.2627387e+2, 3.6228794e+1, -65378.445, -574673.06, 777.8528, -0.0012987206, 0.0012613158, -65377.258, -65377.258, 0.0, 2.5004723, 2.4987862 
1.2627389e+2, 3.872758e+1, -64698.055, -574375.06, 1021.1795, -0.0009807193, 0.00086577353, -64696.008, -64696.008, 0.0, 2.5004735, 2.498786 
1.2627389e+2, 4.1226438e+1, -24518.51, -490737.3, 914.64435, -0.0007646825, 0.0012367495, -24516.715, -24516.715, 0.0, 2.5004735, 2.4989297 
1.2627389e+2, 4.372537e+1, -24067.19, -488171.16, 1208.9844, -0.00087148737, 0.001191675, -24064.041, -24064.041, 0.0, 2.5004716, 2.498935 
1.262739e+2, 4.622431e+1, -25109.303, -488703.7, 1093.6649, -0.000981738, 0.0011398343, -25106.723, -25106.723, 0.0, 2.50047, 2.4989347 
1.262739e+2, 4.8723248e+1, -26153.352, -489237.16, 978.66815, -0.0010944997, 0.0010866161, -26151.283, -26151.283, 0.0, 2.5004683, 2.4989347 
1.262739e+2, 5.122226e+1, 14701.233, -404351.28, 303.23465, -0.0014229687, 0.0016977603, 14701.452, 14701.452, 0.0, 2.5004683, 2.4990804 
1.262739e+2, 5.3721344e+1, 17696.451, -399999.3, 596.2444, -0.0015876418, 0.0014833123, 17697.3, 17697.3, 0.0, 2.5004702, 2.4990869 
1.262739e+2, 5.622043e+1, 18849.705, -399471.63, 669.06573, -0.0017526913, 0.0012595607, 18850.775, 18850.775, 0.0, 2.500472, 2.4990869 
1.262739e+2, 5.8719516e+1, 20000.729, -398945.03, 742.2045, -0.0019203377, 0.0010344879, 20002.043, 20002.043, 0.0, 2.5004742, 2.4990869 
1.262739e+2, 6.121868e+1, 61449.91, -312743.22, 665.71893, -0.0020289917, 0.001665762, 61451.094, 61451.094, 0.0, 2.500474, 2.4992347 
1.2627392e+2, 6.371792e+1, 62544.45, -309012.06, 711.50946, -0.001654557, 0.0013707435, 62545.813, 62545.813, 0.0, 2.5004725, 2.4992418 
1.2627392e+2, 6.621716e+1, 61616.977, -309481.47, 892.3327, -0.0012800931, 0.0010630835, 61619.12, 61619.12, 0.0, 2.5004709, 2.4992418 
1.2627392e+2, 6.87164e+1, 60686.953, -309952.06, 1073.1688, -0.00090837735, 0.0007535802, 60690.06, 60690.06, 0.0, 2.5004694, 2.4992418 
1.2627392e+2, 7.121572e+1, 100492.77, -226785.05, 1058.4766, -0.001475781, 0.0015381123, 100496.2, 100496.2, 0.0, 2.500469, 2.4993849 
1.2627392e+2, 7.37151e+1, 103527.61, -222166.0, 331.2971, -0.0013491772, 0.001012559, 103527.945, 103527.945, 0.0, 2.5004706, 2.4993918 
1.2627392e+2, 7.621449e+1, 104570.95, -221686.36, 255.38127, -0.0012172463, 0.00046895884, 104571.16, 104571.16, 0.0, 2.5004725, 2.4993918 
1.2627392e+2, 7.871388e+1, 105610.67, -221208.48, 179.34425, -0.0010914056, -0.000076604185, 105610.766, 105610.766, 0.0, 2.5004742, 2.4993918 
1.2627392e+2, 8.121335e+1, 146056.9, -136520.23, 1165.8545, -0.0009900563, 0.0006951745, 146061.72, 146061.72, 0.0, 2.5004735, 2.4995375 
1.2627392e+2, 8.37129e+1, 146818.98, -133303.6, -71.189766, -0.0005260563, 0.00087554054, 146819.0, 146819.0, 0.0, 2.5004718, 2.499544 
1.2627393e+2, 8.621244e+1, 145790.42, -133809.36, -117.90847, -0.00006933986, 0.0010411614, 145790.47, 145790.47, 0.0, 2.5004702, 2.499544 
1.2627393e+2, 8.871198e+1, 144756.69, -134317.6, -165.28763, 0.00037733404, 0.0012055743, 144756.78, 144756.78, 0.0, 2.5004683, 2.499544 
1.262739e+2, 9.121162e+1, 186564.78, -46244.92, 1453.5577, -0.0026184446, 0.003469016, 186573.86, 186573.86, 0.0, 2.500467, 2.4996958 
1.262739e+2, 9.371131e+1, 188652.83, -42931.08, -102.14796, -0.0019612687, 0.0021579913, 188652.88, 188652.88, 0.0, 2.500468, 2.499701 
1.2627392e+2, 9.6211e+1, 189281.86, -42647.145, 147.99203, -0.0012879366, 0.00080200256, 189281.95, 189281.95, 0.0, 2.5004692, 2.4997008 
1.2627392e+2, 9.8710686e+1, 189901.34, -42367.813, 397.477, -0.0006541197, -0.00055582845, 189902.02, 189902.02, 0.0, 2.5004704, 2.4997008 
1.2877432e+2, 1.249166e+0, -192789.92, -840023.7, 168.72462, -0.001370263, -0.00005246018, -192789.88, -192789.88, 0.0, 2.500473, 2.4983306 
1.2877434e+2, 3.747498e+0, -193215.75, -840606.2, -7.750921, -0.0012292359, -0.00015703519, -193215.75, -193215.75, 0.0, 2.5004728, 2.4983299 
1.2877434e+2, 6.24583e+0, -193460.78, -840730.56, -116.356125, -0.0010958613, -0.00026114896, -193460.77, -193460.77, 0.0, 2.5004723, 2.4983299 
1.2877434e+2, 8.744162e+0, -193757.53, -840879.9, -224.50348, -0.00097013934, -0.0003648017, -193757.45, -193757.45, 0.0, 2.5004718, 2.4983299 
1.2877434e+2, 1.1242576e+1, -150629.53, -751254.2, -661.49786, -0.00061838643, 0.000080109436, -150628.8, -150628.8, 0.0, 2.5004718, 2.4984834 
1.2877434e+2, 1.3741069e+1, -150125.84, -750505.44, -198.43178, -0.00013024917, 0.0006871807, -150125.78, -150125.78, 0.0, 2.500472, 2.4984846 
1.2877436e+2, 1.6239563e+1, -149989.23, -750450.4, 4.9374266, 0.0003533042, 0.0012940519, -149989.23, -149989.23, 0.0, 2.5004723, 2.4984846 
1.2877436e+2, 1.8738057e+1, -149895.73, -750416.0, 200.70143, 0.00083238335, 0.0019011742, -149895.67, -149895.67, 0.0, 2.5004725, 2.4984846 
1.2877436e+2, 2.1236622e+1, -109713.17, -666775.75, 167.59549, 0.00084763137, 0.002650037, -109713.125, -109713.125, 0.0, 2.5004723, 2.4986281 
1.2877434e+2, 2.3735255e+1, -109421.484, -665498.9, 324.72986, -0.00013463001, 0.0027265553, -109421.29, -109421.29, 0.0, 2.5004716, 2.4986308 
1.2877434e+2, 2.6233888e+1, -109907.13, -665755.8, 78.9423, -0.0011251227, 0.0028000572, -109907.12, -109907.12, 0.0, 2.5004709, 2.4986305 
1.2877432e+2, 2.8732523e+1, -110441.9, -666036.44, -172.73389, -0.0021225128, 0.002872531, -110441.84, -110441.84, 0.0, 2.50047, 2.4986305 
1.2877432e+2, 3.123123e+1, -67196.31, -576498.56, -288.3369, -0.0025606724, 0.002876085, -67196.15, -67196.15, 0.0, 2.5004704, 2.498784 
1.2877432e+2, 3.3730012e+1, -65377.195, -573924.8, 369.0294, -0.002389674, 0.002027259, -65376.93, -65376.93, 0.0, 2.5004716, 2.4987879 
1.2877434e+2, 3.6228794e+1, -64696.48, -573624.6, 556.125, -0.002224626, 0.0011746206, -64695.875, -64695.875, 0.0, 2.5004728, 2.4987876 
1.2877434e+2, 3.8727573e+1, -64072.535, -573351.8, 736.7371, -0.002065705, 0.00032087744, -64071.47, -64071.47, 0.0, 2.500474, 2.4987876 
1.2877436e+2, 4.1226438e+1, -24593.846, -491170.63, 129.53795, -0.0014231311, 0.0006473846, -24593.809, -24593.809, 0.0, 2.5004737, 2.4989288 
1.2877437e+2, 4.372537e+1, -24051.098, -488522.28, 388.43478, -0.000627326, 0.0009344219, -24050.771, -24050.771, 0.0, 2.500472, 2.498934 
1.2877437e+2, 4.622431e+1, -25099.656, -489056.5, 236.44426, 0.00015837415, 0.0012144786, -25099.537, -25099.537, 0.0, 2.5004704, 2.498934 
1.2877439e+2, 4.872325e+1, -26225.094, -489627.78, 79.403465, 0.0009354474, 0.0014931409, -26225.08, -26225.08, 0.0, 2.5004685, 2.498934 
1.2877439e+2, 5.1222265e+1, 14886.044, -404151.38, -119.65395, 0.0004529792, 0.0022683807, 14886.078, 14886.078, 0.0, 2.5004683, 2.4990807 
1.2877437e+2, 5.372135e+1, 17937.828, -399697.4, 130.43216, -0.00082974957, 0.0020366102, 17937.87, 17937.87, 0.0, 2.5004704, 2.4990873 
1.2877437e+2, 5.6220436e+1, 19022.238, -399202.94, 131.26526, -0.00211827, 0.0017964798, 19022.28, 19022.28, 0.0, 2.5004723, 2.4990873 
1.2877436e+2, 5.871952e+1, 20025.379, -398747.63, 130.58415, -0.0034153385, 0.001556011, 20025.42, 20025.42, 0.0, 2.500474, 2.499087 
1.2877436e+2, 6.1218685e+1, 61556.926, -312229.06, -619.8363, -0.003659218, 0.00201781, 61557.957, 61557.957, 0.0, 2.5004737, 2.4992359 
1.2877437e+2, 6.371792e+1, 62629.73, -308477.94, -573.1099, -0.0024002208, 0.0013968592, 62630.617, 62630.617, 0.0, 2.500472, 2.499243 
1.2877439e+2, 6.621716e+1, 61576.402, -309008.53, -453.0063, -0.0011464418, 0.0007642014, 61576.957, 61576.957, 0.0, 2.5004704, 2.499243 
1.287744e+2, 6.87164e+1, 60435.895, -309581.1, -334.62836, 0.00009936981, 0.00013059154, 60436.195, 60436.195, 0.0, 2.5004685, 2.499243 
1.287744e+2, 7.1215713e+1, 99621.484, -227486.06, -22.781748, -0.0003019811, 0.0009097423, 99621.484, 99621.484, 0.0, 2.5004678, 2.4993842 
1.287744e+2, 7.371511e+1, 102577.586, -222901.23, -702.01764, -0.0006345682, 0.0007689017, 102579.1, 102579.1, 0.0, 2.5004694, 2.4993913 
1.2877439e+2, 7.62145e+1, 103436.59, -222511.75, -839.95593, -0.0009673287, 0.00061079906, 103438.76, 103438.76, 0.0, 2.5004709, 2.4993913 
1.2877439e+2, 7.871389e+1, 104189.62, -222173.33, -974.1795, -0.0013123186, 0.00045108542, 104192.52, 104192.52, 0.0, 2.500472, 2.499391 
1.2877439e+2, 8.1213355e+1, 144486.5, -137428.89, -711.07184, -0.0013017579, 0.0014344673, 144488.3, 144488.3, 0.0, 2.500471, 2.4995372 
1.287744e+2, 8.3712906e+1, 145032.56, -134340.63, -1829.7407, -0.0005638615, 0.0016619657, 145044.55, 145044.55, 0.0, 2.500469, 2.4995434 
1.287744e+2, 8.621245e+1, 143678.77, -135003.27, -1898.9651, 0.0001596691, 0.0018740796, 143691.7, 143691.7, 0.0, 2.5004666, 2.4995434 
1.287744e+2, 8.8712e+1, 142195.58, -135728.22, -1969.9258, 0.0008662705, 0.0020841947, 142209.53, 142209.53, 0.0, 2.5004642, 2.4995434 
1.2877437e+2, 9.121163e+1, 184294.19, -46541.145, -148.6807, -0.0022021283, 0.004079656, 184294.28, 184294.28, 0.0, 2.5004623, 2.4996974 
1.2877439e+2, 9.3711317e+1, 186029.92, -43495.73, -1515.3967, -0.001498852, 0.0023872338, 186039.92, 186039.92, 0.0, 2.5004628, 2.4997025 
1.2877439e+2, 9.6211e+1, 186103.69, -43481.27, -1272.8264, -0.00079090043, 0.0006509273, 186110.75, 186110.75, 0.0, 2.500463, 2.4997025 
1.2877439e+2, 9.8710686e+1, 185905.13, -43597.97, -1020.3621, -0.00013741455, -0.0010878018, 185909.66, 185909.66, 0.0, 2.5004628, 2.4997025 
1.3127479e+2, 1.2491663e+0, -192670.33, -840076.44, 108.705376, -0.001459562, -0.000010016362, -192670.3, -192670.3, 0.0, 2.5004735, 2.4983304 
1.312748e+2, 3.7474987e+0, -193795.42, -840990.0, 68.41846, -0.0012292257, -0.000030419478, -193795.4, -193795.4, 0.0, 2.5004718, 2.4983296 
1.312748e+2, 6.245831e+0, -194693.98, -841430.94, 101.40815, -0.0009865619, -0.000051315677, -194693.97, -194693.97, 0.0, 2.5004704, 2.4983296 
1.312748e+2, 8.7441635e+0, -195593.77, -841872.5, 134.56218, -0.0007315708, -0.00007270507, -195593.73, -195593.73, 0.0, 2.5004687, 2.4983296 
1.312748e+2, 1.1242577e+1, -152409.05, -751956.5, -120.307915, -0.00040464604, 0.00031452594, -152409.03, -152409.03, 0.0, 2.5004685, 2.498484 
1.312748e+2, 1.3741069e+1, -151618.23, -751081.56, 7.6456738, -0.000056593013, 0.00072139874, -151618.23, -151618.23, 0.0, 2.5004694, 2.4984848 
1.3127482e+2, 1.6239561e+1, -151155.17, -750885.94, -99.22059, 0.00030189365, 0.001127878, -151155.16, -151155.16, 0.0, 2.5004702, 2.4984848 
1.3127482e+2, 1.8738052e+1, -150692.86, -750690.6, -205.74797, 0.00067086605, 0.001534419, -150692.8, -150692.8, 0.0, 2.500471, 2.4984848 
1.3127482e+2, 2.1236616e+1, -110289.12, -667173.56, -264.39914, 0.00072962657, 0.002263028, -110288.99, -110288.99, 0.0, 2.5004716, 2.498628 
1.312748e+2, 2.3735252e+1, -109675.79, -665752.2, 310.87466, -0.00008582908, 0.0025178667, -109675.62, -109675.62, 0.0, 2.5004714, 2.4986303 
1.312748e+2, 2.6233888e+1, -109791.836, -665846.0, 503.6973, -0.0008911607, 0.0027734293, -109791.38, -109791.38, 0.0, 2.500471, 2.4986303 
1.3127479e+2, 2.8732523e+1, -109907.76, -665939.7, 696.51434, -0.0016849453, 0.0030316699, -109906.88, -109906.88, 0.0, 2.500471, 2.4986303 
1.3127479e+2, 3.123123e+1, -66952.27, -576482.4, 759.8693, -0.002115252, 0.0030519676, -66951.14, -66951.14, 0.0, 2.5004709, 2.4987838 
1.312748e+2, 3.3730012e+1, -66345.72, -574499.5, 983.2041, -0.0020979939, 0.0020568713, -66343.81, -66343.81, 0.0, 2.5004702, 2.4987876 
1.312748e+2, 3.622879e+1, -66829.61, -574776.75, 767.968, -0.0020686635, 0.0010614395, -66828.445, -66828.445, 0.0, 2.5004692, 2.4987874 
1.312748e+2, 3.872757e+1, -67315.94, -575055.1, 552.6391, -0.0020275705, 0.00006834676, -67315.336, -67315.336, 0.0, 2.5004685, 2.4987874 
1.3127482e+2, 4.122643e+1, -27534.1, -492673.8, -110.372826, -0.0013906466, 0.00033701115, -27534.074, -27534.074, 0.0, 2.5004687, 2.4989285 
1.3127483e+2, 4.3725368e+1, -25352.914, -489243.72, 469.87665, -0.0004649315, 0.00066285033, -25352.44, -25352.44, 0.0, 2.50047, 2.4989338 
1.3127483e+2, 4.6224308e+1, -24693.766, -488968.88, 649.2744, 0.0004752544, 0.0009846347, -24692.857, -24692.857, 0.0, 2.500471, 2.4989338 
1.3127485e+2, 4.8723245e+1, -24038.316, -488695.84, 828.5064, 0.0014313088, 0.0013078778, -24036.84, -24036.84, 0.0, 2.5004723, 2.4989336 
1.3127485e+2, 5.122226e+1, 17193.67, -403021.22, 993.8459, 0.0009757427, 0.002113051, 17196.021, 17196.021, 0.0, 2.5004723, 2.4990807 
1.3127485e+2, 5.3721344e+1, 18439.39, -399439.56, 1365.4316, -0.0004460812, 0.0019258228, 18443.854, 18443.854, 0.0, 2.500471, 2.4990873 
1.3127483e+2, 5.622043e+1, 17789.193, -399790.28, 1465.1532, -0.0018489466, 0.001731054, 17794.334, 17794.334, 0.0, 2.5004702, 2.4990873 
1.3127482e+2, 5.871952e+1, 17135.12, -400142.8, 1564.616, -0.003235555, 0.0015366027, 17140.986, 17140.986, 0.0, 2.500469, 2.499087 
1.3127482e+2, 6.121868e+1, 58350.953, -314015.38, 555.0784, -0.0034926257, 0.0019340483, 58351.78, 58351.78, 0.0, 2.5004685, 2.4992352 
1.3127483e+2, 6.371792e+1, 60771.26, -309626.9, 371.24362, -0.0021276406, 0.0011733591, 60771.633, 60771.633, 0.0, 2.5004692, 2.4992425 
1.3127485e+2, 6.6217154e+1, 61152.06, -309471.6, 194.69156, -0.00074431195, 0.00040259887, 61152.164, 61152.164, 0.0, 2.50047, 2.4992423 
1.3127488e+2, 6.8716383e+1, 61527.945, -309318.66, 17.897196, 0.0006543545, -0.00036771706, 61527.95, 61527.95, 0.0, 2.5004706, 2.4992423 
1.3127488e+2, 7.121571e+1, 101346.61, -226550.95, 544.62506, 0.000186249, 0.0003909327, 101347.516, 101347.516, 0.0, 2.5004704, 2.4993844 
1.3127485e+2, 7.3715097e+1, 103687.45, -222278.81, 400.6387, -0.00040822203, 0.00043889013, 103687.945, 103687.945, 0.0, 2.500471, 2.4993916 
1.3127485e+2, 7.621449e+1, 104046.14, -222125.89, 665.54913, -0.0009741927, 0.0004736529, 104047.5, 104047.5, 0.0, 2.5004718, 2.4993913 
1.3127485e+2, 7.871388e+1, 104399.98, -221975.3, 929.90466, -0.001523916, 0.00051028165, 104402.625, 104402.625, 0.0, 2.5004723, 2.4993913 
1.3127485e+2, 8.1213355e+1, 144845.53, -137272.39, 981.4091, -0.0014418603, 0.0015066632, 144848.95, 144848.95, 0.0, 2.5004716, 2.4995372 
1.3127485e+2, 8.37129e+1, 146386.1, -133768.92, 124.76164, -0.0004283054, 0.0016181659, 146386.14, 146386.14, 0.0, 2.5004714, 2.4995434 
1.3127488e+2, 8.621244e+1, 146190.45, -133874.58, 156.22003, 0.00060746906, 0.001716611, 146190.53, 146190.53, 0.0, 2.500471, 2.4995434 
1.3127488e+2, 8.871199e+1, 145988.34, -133983.34, 187.31567, 0.0016635148, 0.0018149371, 145988.47, 145988.47, 0.0, 2.5004706, 2.4995432 
1.3127483e+2, 9.121162e+1, 188458.05, -44439.445, 1844.0924, -0.001516604, 0.003720497, 188472.66, 188472.66, 0.0, 2.5004692, 2.4996977 
1.3127483e+2, 9.371131e+1, 189906.2, -41645.023, 148.75478, -0.0009908727, 0.0022475095, 189906.3, 189906.3, 0.0, 2.5004694, 2.4997025 
1.3127483e+2, 9.621099e+1, 190023.97, -41599.63, -200.58197, -0.00038383278, 0.00072457094, 190024.14, 190024.14, 0.0, 2.5004697, 2.4997025 
1.3127485e+2, 9.871068e+1, 190119.72, -41564.832, -551.6885, 0.0002424842, -0.0008091074, 190121.03, 190121.03, 0.0, 2.50047, 2.4997025 
1.3377528e+2, 1.2491677e+0, -192591.31, -839911.94, -123.6792, -0.0011696843, 0.00011544152, -192591.28, -192591.28, 0.0, 2.5004735, 2.4983306 
1.3377528e+2, 3.747503e+0, -193711.2, -840813.94, -165.93251, -0.00086809555, 0.000346464, -193711.16, -193711.16, 0.0, 2.5004718, 2.4983299 
1.3377528e+2, 6.2458384e+0, -194610.3, -841255.25, -131.05656, -0.0005597328, 0.00057767314, -194610.27, -194610.27, 0.0, 2.5004704, 2.4983299 
1.3377528e+2, 8.744173e+0, -195510.61, -841697.2, -96.01625, -0.000244596, 0.0008090688, -195510.6, -195510.6, 0.0, 2.5004687, 2.4983299 
1.3377528e+2, 1.1242585e+1, -152589.7, -752324.75, 20.967976, -0.000113389346, 0.0011082697, -152589.7, -152589.7, 0.0, 2.5004685, 2.4984832 
1.3377528e+2, 1.3741072e+1, -151798.52, -751447.44, 129.20718, -0.00022262106, 0.0010761591, -151798.48, -151798.48, 0.0, 2.5004694, 2.4984844 
1.3377528e+2, 1.623956e+1, -151335.34, -751250.06, 24.207195, -0.00032475797, 0.001044664, -151335.34, -151335.34, 0.0, 2.5004702, 2.4984844 
1.3377528e+2, 1.8738045e+1, -150872.94, -751053.0, -80.4539, -0.00041973006, 0.0010142534, -150872.92, -150872.92, 0.0, 2.500471, 2.4984841 
1.3377528e+2, 2.1236609e+1, -109895.9, -666336.0, -274.5948, -0.00034300776, 0.001533029, -109895.766, -109895.766, 0.0, 2.5004716, 2.4986293 
1.3377528e+2, 2.3735246e+1, -109309.05, -664969.2, 282.6549, -0.0005359997, 0.0019042894, -109308.9, -109308.9, 0.0, 2.5004714, 2.4986317 
1.3377528e+2, 2.6233882e+1, -109425.66, -665060.6, 478.32928, -0.00072336476, 0.0022762024, -109425.25, -109425.25, 0.0, 2.500471, 2.4986317 
1.3377528e+2, 2.873252e+1, -109543.93, -665152.9, 674.4809, -0.0009039717, 0.00265048, -109543.11, -109543.11, 0.0, 2.500471, 2.4986315 
1.3377528e+2, 3.123123e+1, -67366.87, -577287.94, 672.3127, -0.0010384734, 0.002842102, -67365.984, -67365.984, 0.0, 2.5004709, 2.4987824 
1.3377528e+2, 3.3730012e+1, -66762.96, -575302.3, 866.3827, -0.0011402089, 0.0020298182, -66761.484, -66761.484, 0.0, 2.50047, 2.4987862 
1.3377528e+2, 3.622879e+1, -67249.32, -575578.0, 656.64404, -0.0012350932, 0.0012161849, -67248.48, -67248.48, 0.0, 2.5004692, 2.4987862 
1.3377528e+2, 3.872757e+1, -67737.055, -575854.4, 447.35974, -0.0013230896, 0.00040405084, -67736.664, -67736.664, 0.0, 2.5004685, 2.498786 
1.337753e+2, 4.122643e+1, -27217.295, -491926.84, 88.87561, -0.0011086576, 0.00063058967, -27217.277, -27217.277, 0.0, 2.5004687, 2.49893 
1.337753e+2, 4.3725368e+1, -25051.365, -488528.53, 669.34534, -0.0007509209, 0.0007624353, -25050.398, -25050.398, 0.0, 2.50047, 2.4989352 
1.3377531e+2, 4.6224305e+1, -24389.828, -488250.7, 857.58765, -0.0003865748, 0.0008894656, -24388.242, -24388.242, 0.0, 2.500471, 2.498935 
1.3377531e+2, 4.8723245e+1, -23730.85, -487974.1, 1046.212, -0.00001492598, 0.001016842, -23728.492, -23728.492, 0.0, 2.5004723, 2.498935 
1.3377531e+2, 5.122226e+1, 17379.186, -402549.2, 844.3756, -0.00027748142, 0.001753363, 17380.885, 17380.885, 0.0, 2.5004723, 2.4990816 
1.3377531e+2, 5.372135e+1, 18590.592, -399043.72, 1248.481, -0.0008229685, 0.001696756, 18594.324, 18594.324, 0.0, 2.500471, 2.499088 
1.3377531e+2, 5.6220436e+1, 17945.273, -399391.9, 1358.5491, -0.0013596843, 0.0016324301, 17949.695, 17949.695, 0.0, 2.5004702, 2.499088 
1.3377531e+2, 5.871952e+1, 17297.178, -399741.44, 1468.9672, -0.0018897338, 0.0015678938, 17302.352, 17302.352, 0.0, 2.500469, 2.4990878 
1.3377531e+2, 6.1218685e+1, 58032.94, -314632.44, 653.0094, -0.0020526485, 0.0020287645, 58034.086, 58034.086, 0.0, 2.5004685, 2.4992342 
1.3377532e+2, 6.371792e+1, 60434.42, -310291.72, 555.4602, -0.0012815708, 0.0013296274, 60435.254, 60435.254, 0.0, 2.5004692, 2.4992414 
1.3377532e+2, 6.6217154e+1, 60821.727, -310133.75, 391.7061, -0.0005020065, 0.0006207467, 60822.14, 60822.14, 0.0, 2.50047, 2.4992414 
1.3377534e+2, 6.8716395e+1, 61205.594, -309977.4, 228.07051, 0.00028246237, -0.000087754655, 61205.734, 61205.734, 0.0, 2.5004706, 2.499241 
1.3377532e+2, 7.1215713e+1, 101896.44, -225438.9, 604.2417, -0.00047186672, 0.0006464298, 101897.555, 101897.555, 0.0, 2.5004706, 2.4993863 
1.3377532e+2, 7.37151e+1, 104217.8, -221223.72, 611.1213, -0.001044038, 0.0006877325, 104218.945, 104218.945, 0.0, 2.500471, 2.4993932 
1.3377532e+2, 7.62145e+1, 104585.555, -221069.02, 888.1159, -0.0015998547, 0.0007162329, 104587.98, 104587.98, 0.0, 2.5004718, 2.4993932 
1.3377531e+2, 7.871389e+1, 104949.09, -220916.34, 1164.8821, -0.0021514257, 0.00074627745, 104953.26, 104953.26, 0.0, 2.5004725, 2.4993932 
1.3377532e+2, 8.121336e+1, 145057.83, -136964.23, 889.33954, -0.0018416033, 0.0015445654, 145060.64, 145060.64, 0.0, 2.5004718, 2.4995377 
1.3377532e+2, 8.3712906e+1, 146546.22, -133587.64, 221.7852, -0.0004918426, 0.001362877, 146546.39, 146546.39, 0.0, 2.5004716, 2.4995437 
1.3377534e+2, 8.621245e+1, 146360.47, -133691.25, 260.68326, 0.00086424354, 0.0011698124, 146360.7, 146360.7, 0.0, 2.500471, 2.4995434 
1.3377534e+2, 8.871199e+1, 146168.53, -133797.83, 299.31125, 0.0022256286, 0.0009776003, 146168.86, 146168.86, 0.0, 2.5004709, 2.4995434 
1.3377531e+2, 9.121162e+1, 188127.17, -45424.855, 1752.9088, -0.0010812721, 0.0029096897, 188140.33, 188140.33, 0.0, 2.5004697, 2.499696 
1.3377531e+2, 9.371131e+1, 189518.94, -42805.625, 352.66025, -0.0007993179, 0.0021549033, 189519.47, 189519.47, 0.0, 2.50047, 2.4997003 
1.3377531e+2, 9.6211004e+1, 189680.45, -42740.977, 20.041613, -0.0004602184, 0.0013555132, 189680.45, 189680.45, 0.0, 2.5004702, 2.4997003 
1.3377531e+2, 9.871069e+1, 189829.48, -42682.34, -312.54895, -0.00012854318, 0.00054797984, 189829.9, 189829.9, 0.0, 2.5004704, 2.4997003 
1.3627575e+2, 1.24916896e+0, -192512.53, -839747.94, -356.41852, -0.0008799422, 0.00024025394, -192512.34, -192512.34, 0.0, 2.5004735, 2.498331 
1.3627575e+2, 3.747507e+0, -193627.92, -840639.9, -400.38055, -0.00050737226, 0.0007214111, -193627.67, -193627.67, 0.0, 2.5004718, 2.49833 
1.3627575e+2, 6.245845e+0, -194527.56, -841081.56, -363.61832, -0.00013358168, 0.0012034347, -194527.36, -194527.36, 0.0, 2.5004704, 2.49833 
1.3627575e+2, 8.7441826e+0, -195428.4, -841523.9, -326.69174, 0.00024142957, 0.0016863245, -195428.25, -195428.25, 0.0, 2.5004687, 2.49833 
1.3627575e+2, 1.1242594e+1, -152778.05, -752709.0, 161.45729, 0.0001785829, 0.001903051, -152778.0, -152778.0, 0.0, 2.5004685, 2.4984825 
1.3627575e+2, 1.3741076e+1, -151979.94, -751815.75, 250.43665, -0.00038963673, 0.0014281974, -151979.83, -151979.83, 0.0, 2.5004694, 2.4984837 
1.3627574e+2, 1.6239557e+1, -151516.67, -751616.56, 147.30293, -0.0009541041, 0.00095495034, -151516.64, -151516.64, 0.0, 2.5004702, 2.4984837 
1.3627574e+2, 1.8738039e+1, -151054.17, -751417.75, 44.508118, -0.0015147276, 0.00048381026, -151054.17, -151054.17, 0.0, 2.500471, 2.4984837 
1.3627574e+2, 2.1236598e+1, -109516.625, -665527.4, -288.0031, -0.0014089473, 0.0008045889, -109516.48, -109516.48, 0.0, 2.5004716, 2.4986308 
1.3627575e+2, 2.3735239e+1, -108943.0, -664188.06, 253.83331, -0.000981812, 0.0012888043, -108942.88, -108942.88, 0.0, 2.5004714, 2.4986331 
1.3627575e+2, 2.623388e+1, -109057.96, -664276.2, 451.87442, -0.00055360224, 0.0017735328, -109057.59, -109057.59, 0.0, 2.500471, 2.498633 
1.3627575e+2, 2.873252e+1, -109174.58, -664365.06, 650.39276, -0.00012342336, 0.0022603117, -109173.82, -109173.82, 0.0, 2.500471, 2.498633 
1.3627575e+2, 3.123123e+1, -67779.19, -578106.9, 577.4072, 0.00004106923, 0.0026291227, -67778.54, -67778.54, 0.0, 2.5004706, 2.498781 
1.3627575e+2, 3.3730012e+1, -67165.0, -576099.06, 743.43115, -0.00018113661, 0.0019969915, -67163.914, -67163.914, 0.0, 2.50047, 2.4987848 
1.3627575e+2, 3.622879e+1, -67650.07, -576371.44, 535.73553, -0.0004017429, 0.0013624363, -67649.51, -67649.51, 0.0, 2.5004692, 2.4987848 
1.3627577e+2, 3.8727573e+1, -68136.516, -576644.44, 328.49426, -0.00062033586, 0.00072854036, -68136.305, -68136.305, 0.0, 2.5004683, 2.4987848 
1.3627577e+2, 4.1226432e+1, -26885.13, -491186.0, 266.56256, -0.00081959466, 0.00092294905, -26884.979, -26884.979, 0.0, 2.5004685, 2.4989312 
1.3627577e+2, 4.3725368e+1, -24727.098, -487803.63, 846.3884, -0.0010298574, 0.0008578146, -24725.55, -24725.55, 0.0, 2.5004697, 2.4989364 
1.3627577e+2, 4.6224305e+1, -24064.63, -487523.5, 1038.0027, -0.0012414639, 0.00078699744, -24062.307, -24062.307, 0.0, 2.5004709, 2.4989364 
1.3627577e+2, 4.8723245e+1, -23404.727, -487244.6, 1229.999, -0.001454334, 0.0007154146, -23401.465, -23401.465, 0.0, 2.500472, 2.4989362 
1.3627577e+2, 5.122225e+1, 17570.078, -402092.28, 652.9544, -0.0015295538, 0.0013917321, 17571.094, 17571.094, 0.0, 2.500472, 2.4990823 
1.3627578e+2, 5.372135e+1, 18753.633, -398643.38, 1085.5585, -0.0011974585, 0.0014619265, 18756.455, 18756.455, 0.0, 2.500471, 2.4990888 
1.3627578e+2, 5.6220436e+1, 18107.63, -398991.78, 1199.5348, -0.00086672575, 0.0015241125, 18111.08, 18111.08, 0.0, 2.50047, 2.4990888 
1.362758e+2, 5.871953e+1, 17458.854, -399341.5, 1313.8612, -0.0005389173, 0.0015855599, 17462.994, 17462.994, 0.0, 2.500469, 2.4990885 
1.362758e+2, 6.121869e+1, 57694.504, -315282.22, 684.487, -0.0006069237, 0.0021240357, 57695.76, 57695.76, 0.0, 2.5004685, 2.4992332 
1.362758e+2, 6.3717926e+1, 60084.367, -310964.06, 664.5821, -0.00042762325, 0.0014826191, 60085.56, 60085.56, 0.0, 2.5004692, 2.4992402 
1.362758e+2, 6.621716e+1, 60470.266, -310807.22, 505.12994, -0.00024969794, 0.0008315797, 60470.953, 60470.953, 0.0, 2.5004697, 2.4992402 
1.362758e+2, 6.8716395e+1, 60852.73, -310652.03, 345.79626, -0.000077301105, 0.00018085448, 60853.05, 60853.05, 0.0, 2.5004704, 2.4992402 
1.362758e+2, 7.1215713e+1, 102392.195, -224375.73, 567.4459, -0.0011251544, 0.0009022167, 102393.18, 102393.18, 0.0, 2.5004704, 2.4993882 
1.3627578e+2, 7.371511e+1, 104697.945, -220193.73, 714.059, -0.0016720984, 0.0009340819, 104699.516, 104699.516, 0.0, 2.500471, 2.4993951 
1.3627578e+2, 7.621451e+1, 105064.33, -220042.28, 995.4476, -0.0022147337, 0.00095335237, 105067.375, 105067.375, 0.0, 2.5004718, 2.499395 
1.3627578e+2, 7.87139e+1, 105426.49, -219892.86, 1276.6077, -0.0027651254, 0.00097384513, 105431.5, 105431.5, 0.0, 2.5004725, 2.499395 
1.3627578e+2, 8.121337e+1, 145174.77, -136722.34, 672.78973, -0.0022357728, 0.0015812635, 145176.38, 145176.38, 0.0, 2.5004718, 2.499538 
1.362758e+2, 8.3712906e+1, 146611.17, -133452.92, 188.15826, -0.0005473256, 0.0011041311, 146611.3, 146611.3, 0.0, 2.5004716, 2.499544 
1.3627581e+2, 8.621245e+1, 146422.92, -133560.44, 232.23091, 0.0011316895, 0.00061717414, 146423.11, 146423.11, 0.0, 2.500471, 2.4995437 
1.3627581e+2, 8.871198e+1, 146228.48, -133670.92, 276.03348, 0.0028010316, 0.00013204104, 146228.75, 146228.75, 0.0, 2.5004709, 2.4995437 
1.3627578e+2, 9.121162e+1, 187632.06, -46522.668, 1535.6133, -0.00062237587, 0.0021113188, 187642.13, 187642.13, 0.0, 2.5004697, 2.4996939 
1.3627578e+2, 9.3711317e+1, 188949.4, -44055.37, 414.5372, -0.00058252376, 0.0020692216, 188950.14, 188950.14, 0.0, 2.50047, 2.4996982 
1.3627578e+2, 9.6211016e+1, 189107.44, -43994.215, 92.92286, -0.00050983584, 0.0019875201, 189107.48, 189107.48, 0.0, 2.5004702, 2.4996982 
1.3627578e+2, 9.871071e+1, 189253.0, -43939.07, -228.6634, -0.00047127568, 0.0019002735, 189253.22, 189253.22, 0.0, 2.5004706, 2.499698 
1.3877623e+2, 1.2491703e+0, -192729.48, -839727.25, -590.8877, -0.00058722903, 0.00036439003, -192728.95, -192728.95, 0.0, 2.500473, 2.4983313 
1.3877623e+2, 3.7475112e+0, -193734.02, -840558.94, -639.7019, -0.00014434037, 0.0010943075, -193733.38, -193733.38, 0.0, 2.5004716, 2.4983306 
1.3877623e+2, 6.245852e+0, -194581.98, -840975.94, -605.0573, 0.0002944546, 0.0018257423, -194581.42, -194581.42, 0.0, 2.5004702, 2.4983304 
1.3877623e+2, 8.744192e+0, -195486.02, -841419.9, -570.7886, 0.0007291559, 0.0025586942, -195485.52, -195485.52, 0.0, 2.5004685, 2.4983304 
1.3877623e+2, 1.1242602e+1, -153092.97, -753167.1, 279.30222, 0.000473984, 0.0026984466, -153092.84, -153092.84, 0.0, 2.5004683, 2.498482 
1.3877621e+2, 1.3741079e+1, -152221.75, -752215.56, 336.42453, -0.00055499276, 0.0017771249, -152221.56, -152221.56, 0.0, 2.5004692, 2.4984832 
1.3877621e+2, 1.6239555e+1, -151733.31, -752002.56, 221.88312, -0.0015834598, 0.0008583519, -151733.23, -151733.23, 0.0, 2.5004702, 2.498483 
1.387762e+2, 1.8738031e+1, -151280.23, -751806.6, 107.459595, -0.0026113, -0.000057323043, -151280.2, -151280.2, 0.0, 2.5004709, 2.498483 
1.387762e+2, 2.1236591e+1, -109164.36, -664754.75, -384.18427, -0.0024653934, 0.00007725783, -109164.09, -109164.09, 0.0, 2.5004714, 2.498632 
1.3877621e+2, 2.3735233e+1, -108516.625, -663380.3, 119.65735, -0.0014206608, 0.00067092205, -108516.6, -108516.6, 0.0, 2.5004714, 2.4986343 
1.3877623e+2, 2.6233876e+1, -108584.68, -663443.3, 291.34213, -0.00037934654, 0.0012648684, -108584.53, -108584.53, 0.0, 2.5004714, 2.4986343 
1.3877624e+2, 2.873252e+1, -108683.664, -663521.2, 460.07758, 0.00065926305, 0.0018605292, -108683.28, -108683.28, 0.0, 2.500471, 2.4986343 
1.3877624e+2, 3.123123e+1, -68042.94, -578869.4, 288.48267, 0.0011259149, 0.0024122822, -68042.77, -68042.77, 0.0, 2.5004709, 2.4987795 
1.3877624e+2, 3.3730012e+1, -67353.04, -576794.94, 414.11523, 0.00078166655, 0.0019575316, -67352.7, -67352.7, 0.0, 2.5004702, 2.4987836 
1.3877624e+2, 3.6228794e+1, -67808.41, -577050.3, 189.08293, 0.0004338361, 0.0014992255, -67808.336, -67808.336, 0.0, 2.5004694, 2.4987833 
1.3877624e+2, 3.8727573e+1, -68293.32, -577319.94, -38.38222, 0.000083245024, 0.0010407392, -68293.32, -68293.32, 0.0, 2.5004687, 2.4987833 
1.3877623e+2, 4.1226432e+1, -26301.947, -490338.72, 162.20616, -0.0005209273, 0.0012129111, -26301.89, -26301.89, 0.0, 2.500469, 2.4989324 
1.3877623e+2, 4.3725368e+1, -24134.082, -486951.53, 706.5814, -0.0012992776, 0.000947736, -24133.002, -24133.002, 0.0, 2.5004702, 2.4989376 
1.3877623e+2, 4.6224305e+1, -23519.258, -486692.56, 860.42926, -0.0020867768, 0.00067593256, -23517.66, -23517.66, 0.0, 2.5004714, 2.4989376 
1.3877623e+2, 4.872324e+1, -22965.611, -486463.06, 1012.27893, -0.0028838664, 0.00040228144, -22963.4, -22963.4, 0.0, 2.5004723, 2.4989376 
1.3877624e+2, 5.122225e+1, 17839.277, -401616.53, 20.01905, -0.0027774759, 0.0010267479, 17839.277, 17839.277, 0.0, 2.5004723, 2.499083 
1.3877624e+2, 5.372135e+1, 19057.156, -398177.8, 450.46896, -0.001567049, 0.0012197386, 19057.643, 19057.643, 0.0, 2.5004714, 2.4990895 
1.3877626e+2, 5.622044e+1, 18387.74, -398537.38, 534.10004, -0.0003677764, 0.0014043403, 18388.424, 18388.424, 0.0, 2.5004702, 2.4990895 
1.3877627e+2, 5.8719534e+1, 17640.803, -398934.3, 616.73987, 0.0008192697, 0.0015876947, 17641.717, 17641.717, 0.0, 2.500469, 2.4990892 
1.3877627e+2, 6.1218697e+1, 57292.082, -315986.66, 133.57664, 0.0008468483, 0.002217894, 57292.13, 57292.13, 0.0, 2.5004683, 2.499232 
1.3877627e+2, 6.371793e+1, 59636.652, -311685.4, 146.28836, 0.0004362732, 0.0016303636, 59636.71, 59636.71, 0.0, 2.500469, 2.4992392 
1.3877627e+2, 6.621716e+1, 59887.203, -311594.2, -49.985115, 0.000014794584, 0.0010330975, 59887.21, 59887.21, 0.0, 2.5004694, 2.499239 
1.3877627e+2, 6.87164e+1, 60048.168, -311546.13, -242.74123, -0.00042230618, 0.00043605233, 60048.33, 60048.33, 0.0, 2.5004697, 2.499239 
1.3877626e+2, 7.121572e+1, 102260.375, -223638.19, -210.79483, -0.0017710311, 0.0011562409, 102260.516, 102260.516, 0.0, 2.5004694, 2.49939 
1.3877626e+2, 7.371511e+1, 104458.484, -219511.73, 28.692316, -0.0022903765, 0.0011759646, 104458.49, 104458.49, 0.0, 2.50047, 2.4993968 
1.3877626e+2, 7.621451e+1, 104618.52, -219462.22, 273.4249, -0.0028169733, 0.0011830878, 104618.76, 104618.76, 0.0, 2.5004702, 2.4993968 
1.3877624e+2, 7.8713906e+1, 104674.32, -219462.9, 520.3304, -0.0033629418, 0.0011910837, 104675.16, 104675.16, 0.0, 2.5004704, 2.4993968 
1.3877626e+2, 8.121338e+1, 143798.19, -137219.55, -434.49475, -0.0026223972, 0.0016149918, 143798.86, 143798.86, 0.0, 2.5004692, 2.4995384 
1.3877627e+2, 8.371291e+1, 144995.05, -134127.83, -749.7184, -0.0005931719, 0.0008403799, 144997.06, 144997.06, 0.0, 2.5004687, 2.4995441 
1.3877629e+2, 8.621245e+1, 144487.48, -134391.67, -700.5524, 0.0014114775, 0.000057281875, 144489.25, 144489.25, 0.0, 2.5004678, 2.499544 
1.387763e+2, 8.871198e+1, 143856.97, -134714.73, -642.0485, 0.003391959, -0.00072310434, 143858.45, 143858.45, 0.0, 2.5004668, 2.499544 
1.3877626e+2, 9.121162e+1, 184278.14, -49028.37, 429.5665, -0.00013774994, 0.0013242473, 184278.94, 184278.94, 0.0, 2.500465, 2.499692 
1.3877626e+2, 9.3711317e+1, 185096.08, -46885.695, -452.10043, -0.00033886888, 0.0019897162, 185096.97, 185096.97, 0.0, 2.5004644, 2.499696 
1.3877626e+2, 9.621102e+1, 184590.97, -47145.707, -786.424, -0.0005307722, 0.0026201024, 184593.63, 184593.63, 0.0, 2.5004635, 2.4996958 
1.3877624e+2, 9.871072e+1, 183860.2, -47514.38, -1117.7019, -0.0007826722, 0.003247411, 183865.61, 183865.61, 0.0, 2.5004623, 2.4996958 
1.412767e+2, 1.24917015e+0, -196138.22, -841204.9, -490.36697, 0.00008979709, 0.0003337645, -196137.84, -196137.84, 0.0, 2.5004668, 2.4983315 
1.412767e+2, 3.7475106e+0, -194947.81, -840972.7, -512.9769, 0.00028723368, 0.0010004373, -194947.4, -194947.4, 0.0, 2.5004692, 2.4983308 
1.412767e+2, 6.245851e+0, -193552.84, -840311.94, -449.3965, 0.0004999518, 0.001665969, -193552.53, -193552.53, 0.0, 2.5004716, 2.4983308 
1.412767e+2, 8.744191e+0, -192160.17, -839652.25, -385.28317, 0.00072795135, 0.0023303598, -192159.94, -192159.94, 0.0, 2.5004742, 2.4983308 
1.412767e+2, 1.12426005e+1, -149689.25, -751765.94, 412.0859, 0.00046176795, 0.0024922285, -149688.97, -149688.97, 0.0, 2.5004745, 2.4984813 
1.4127669e+2, 1.3741077e+1, -150372.94, -751567.44, 513.7446, -0.00043469263, 0.0016838419, -150372.5, -150372.5, 0.0, 2.5004728, 2.4984825 
1.4127669e+2, 1.6239555e+1, -151403.77, -752087.8, 456.93466, -0.0013227152, 0.0008739382, -151403.4, -151403.4, 0.0, 2.5004709, 2.4984825 
1.4127667e+2, 1.8738031e+1, -152435.9, -752608.8, 400.418, -0.0022021227, 0.000063065796, -152435.64, -152435.64, 0.0, 2.5004692, 2.4984825 
1.4127667e+2, 2.1236591e+1, -110663.51, -665225.75, -50.240498, -0.0020247945, 0.00016828414, -110663.5, -110663.5, 0.0, 2.5004685, 2.4986327 
1.4127669e+2, 2.3735233e+1, -110053.87, -663888.7, 242.96854, -0.0009984851, 0.0006091134, -110053.76, -110053.76, 0.0, 2.5004685, 2.4986348 
1.412767e+2, 2.6233873e+1, -110125.12, -663962.9, 234.54799, 0.00003474621, 0.0010479938, -110125.02, -110125.02, 0.0, 2.5004685, 2.4986348 
1.4127672e+2, 2.8732514e+1, -110197.58, -664037.7, 226.79153, 0.0010754365, 0.0014863281, -110197.484, -110197.484, 0.0, 2.5004683, 2.4986348 
1.4127672e+2, 3.1231228e+1, -69288.61, -579580.8, 251.0307, 0.001551838, 0.0020115552, -69288.484, -69288.484, 0.0, 2.500469, 2.4987793 
1.4127672e+2, 3.3730006e+1, -67606.97, -577054.2, 738.8464, 0.0011620843, 0.0016561672, -67605.9, -67605.9, 0.0, 2.50047, 2.498783 
1.4127672e+2, 3.622879e+1, -67028.766, -576818.75, 898.7473, 0.00077660405, 0.0012974729, -67027.18, -67027.18, 0.0, 2.500471, 2.498783 
1.4127672e+2, 3.8727573e+1, -66451.89, -576583.9, 1059.2213, 0.00039643608, 0.0009388791, -66449.69, -66449.69, 0.0, 2.500472, 2.498783 
1.4127672e+2, 4.122643e+1, -24671.086, -489493.3, 1277.8002, -0.00023290343, 0.0011301753, -24667.572, -24667.572, 0.0, 2.5004718, 2.4989326 
1.412767e+2, 4.3725365e+1, -24358.912, -487038.84, 1559.2822, -0.0009918102, 0.0008336824, -24353.658, -24353.658, 0.0, 2.5004697, 2.4989376 
1.412767e+2, 4.6224305e+1, -25520.283, -487641.4, 1457.1102, -0.0017396657, 0.0005339497, -25515.69, -25515.69, 0.0, 2.5004678, 2.4989376 
1.412767e+2, 4.872324e+1, -26683.58, -488244.9, 1355.4337, -0.0024770475, 0.0002356182, -26679.6, -26679.6, 0.0, 2.5004659, 2.4989376 
1.4127672e+2, 5.122225e+1, 14005.156, -403405.47, 295.29025, -0.0023461578, 0.00078853266, 14005.365, 14005.365, 0.0, 2.5004656, 2.4990833 
1.4127672e+2, 5.3721344e+1, 16586.24, -399360.34, 658.6284, -0.001149237, 0.0008920663, 16587.283, 16587.283, 0.0, 2.500467, 2.4990895 
1.4127673e+2, 5.6220436e+1, 17383.139, -399017.5, 651.1197, 0.00005976922, 0.0009907321, 17384.156, 17384.156, 0.0, 2.5004685, 2.4990895 
1.4127675e+2, 5.871953e+1, 18177.168, -398676.03, 643.43835, 0.0012798151, 0.0010915052, 18178.16, 18178.16, 0.0, 2.50047, 2.4990892 
1.4127675e+2, 6.121869e+1, 58577.203, -315307.7, 371.44183, 0.0012472436, 0.0017185641, 58577.574, 58577.574, 0.0, 2.5004704, 2.499232 
1.4127675e+2, 6.3717926e+1, 60765.563, -311124.28, 916.9827, 0.000674871, 0.0012625817, 60767.824, 60767.824, 0.0, 2.5004709, 2.4992392 
1.4127675e+2, 6.621716e+1, 60976.457, -311048.4, 1172.0525, 0.000118941716, 0.0007969081, 60980.152, 60980.152, 0.0, 2.500471, 2.499239 
1.4127675e+2, 6.87164e+1, 61184.277, -310974.03, 1426.9912, -0.0004251979, 0.00033115846, 61189.75, 61189.75, 0.0, 2.5004716, 2.499239 
1.4127673e+2, 7.1215713e+1, 102752.23, -223262.47, 1207.7051, -0.0017201743, 0.0010078562, 102756.7, 102756.7, 0.0, 2.5004702, 2.4993904 
1.4127673e+2, 7.371511e+1, 103398.91, -219923.73, 1203.8154, -0.002029435, 0.0008820873, 103403.38, 103403.38, 0.0, 2.500468, 2.499397 
1.4127673e+2, 7.621451e+1, 102133.58, -220558.14, 1067.62, -0.0023146763, 0.00074350066, 102137.12, 102137.12, 0.0, 2.5004659, 2.499397 
1.4127672e+2, 7.8713906e+1, 100864.76, -221194.23, 930.9191, -0.002587928, 0.0006050331, 100867.445, 100867.445, 0.0, 2.5004637, 2.499397 
1.4127673e+2, 8.121337e+1, 140902.5, -138323.14, 125.106224, -0.0019594885, 0.0009493655, 140902.56, 140902.56, 0.0, 2.500464, 2.4995391 
1.4127673e+2, 8.3712906e+1, 145389.84, -133683.7, 95.955666, -0.00050313177, 0.00022414298, 145389.89, 145389.89, 0.0, 2.500469, 2.4995446 
1.4127675e+2, 8.621245e+1, 148327.25, -132272.14, 212.96515, 0.00096852984, -0.0005154126, 148327.4, 148327.4, 0.0, 2.5004742, 2.4995446 
1.4127676e+2, 8.871198e+1, 151260.0, -130862.805, 329.28693, 0.002456403, -0.0012585459, 151260.39, 151260.39, 0.0, 2.5004792, 2.4995446 
1.4127672e+2, 9.1211617e+1, 192240.95, -45240.844, 777.12335, -0.0010341163, 0.00075509236, 192243.5, 192243.5, 0.0, 2.5004785, 2.499692 
1.4127672e+2, 9.3711317e+1, 190928.64, -44188.64, 617.99554, -0.0006234399, 0.0016142763, 190930.27, 190930.27, 0.0, 2.5004745, 2.4996955 
1.4127672e+2, 9.621102e+1, 188552.7, -45347.42, 744.3031, -0.00013521849, 0.0024285975, 188555.06, 188555.06, 0.0, 2.5004704, 2.4996955 
1.4127672e+2, 9.8710716e+1, 186166.28, -46511.246, 871.078, 0.0003614017, 0.003227727, 186169.55, 186169.55, 0.0, 2.5004663, 2.4996955 
1.4377718e+2, 1.2491687e+0, -196003.83, -840924.0, -135.73572, 0.00055199896, 0.00015988394, -196003.81, -196003.81, 0.0, 2.5004668, 2.498332 
1.4377718e+2, 3.7475058e+0, -194808.58, -840678.3, -154.857, 0.00028593728, 0.00047970057, -194808.53, -194808.53, 0.0, 2.5004692, 2.4983313 
1.4377718e+2, 6.245843e+0, -193415.64, -840018.4, -87.540215, 0.000023949406, 0.00079958275, -193415.64, -193415.64, 0.0, 2.5004716, 2.4983313 
1.4377718e+2, 8.744181e+0, -192025.0, -839359.5, -19.690498, -0.0002339647, 0.0011195304, -192025.0, -192025.0, 0.0, 2.500474, 2.4983313 
1.4377716e+2, 1.12425916e+1, -149759.13, -751909.2, 149.81564, -0.00035041635, 0.0014163362, -149759.1, -149759.1, 0.0, 2.5004745, 2.498481 
1.4377716e+2, 1.3741075e+1, -150457.88, -751739.3, 245.90848, -0.00051817164, 0.0012619442, -150457.78, -150457.78, 0.0, 2.5004728, 2.4984822 
1.4377716e+2, 1.6239557e+1, -151490.03, -752259.9, 191.72139, -0.0006836705, 0.0011069974, -151489.97, -151489.97, 0.0, 2.5004709, 2.4984822 
1.4377716e+2, 1.873804e+1, -152523.52, -752781.06, 137.82768, -0.00084665016, 0.0009519982, -152523.48, -152523.48, 0.0, 2.5004692, 2.4984822 
1.4377716e+2, 2.1236601e+1, -110666.61, -665201.56, -29.602783, -0.0006484822, 0.0011920299, -110666.6, -110666.6, 0.0, 2.5004685, 2.4986327 
1.4377716e+2, 2.3735239e+1, -110071.69, -663890.8, 227.3669, -0.00021767952, 0.0012338185, -110071.59, -110071.59, 0.0, 2.5004685, 2.498635 
1.4377718e+2, 2.6233876e+1, -110144.805, -663964.75, 220.84084, 0.00021655411, 0.0012747581, -110144.72, -110144.72, 0.0, 2.5004685, 2.4986348 
1.4377718e+2, 2.8732514e+1, -110219.13, -664039.3, 214.97887, 0.0006545473, 0.0013162819, -110219.05, -110219.05, 0.0, 2.5004683, 2.4986348 
1.4377718e+2, 3.1231225e+1, -68965.74, -578867.44, 421.77365, 0.00085724617, 0.0016393051, -68965.39, -68965.39, 0.0, 2.500469, 2.4987805 
1.4377718e+2, 3.3730006e+1, -67323.62, -576416.8, 894.9521, 0.00051847385, 0.0013316121, -67322.04, -67322.04, 0.0, 2.50047, 2.4987843 
1.4377718e+2, 3.622879e+1, -66748.67, -576180.8, 1057.1664, 0.00018149627, 0.0010208179, -66746.484, -66746.484, 0.0, 2.5004709, 2.4987843 
1.4377718e+2, 3.8727573e+1, -66174.766, -575945.4, 1220.0317, -0.00015261203, 0.0007101357, -66171.84, -66171.84, 0.0, 2.500472, 2.498784 
1.4377718e+2, 4.1226432e+1, -24852.77, -489794.9, 997.4193, -0.00044080574, 0.0009802755, -24850.629, -24850.629, 0.0, 2.5004716, 2.4989321 
1.4377719e+2, 4.3725368e+1, -24584.84, -487422.75, 1271.5062, -0.000586098, 0.00083515485, -24581.346, -24581.346, 0.0, 2.5004697, 2.4989371 
1.4377719e+2, 4.6224308e+1, -25750.934, -488026.06, 1173.543, -0.00072507485, 0.00068700145, -25747.955, -25747.955, 0.0, 2.5004678, 2.498937 
1.4377719e+2, 4.8723245e+1, -26918.623, -488630.13, 1076.2649, -0.00085819047, 0.00054028275, -26916.113, -26916.113, 0.0, 2.5004659, 2.498937 
1.4377719e+2, 5.122225e+1, 13979.118, -403351.7, 501.1381, -0.0008349429, 0.0010256361, 13979.72, 13979.72, 0.0, 2.5004654, 2.4990835 
1.437772e+2, 5.3721344e+1, 16518.387, -399392.4, 893.46265, -0.00042401336, 0.0008736125, 16520.307, 16520.307, 0.0, 2.5004668, 2.4990895 
1.437772e+2, 5.6220436e+1, 17316.59, -399047.34, 892.46497, -0.0000069661123, 0.00071738457, 17318.504, 17318.504, 0.0, 2.5004683, 2.4990895 
1.4377722e+2, 5.871952e+1, 18112.82, -398703.22, 891.943, 0.0004148607, 0.0005637394, 18114.729, 18114.729, 0.0, 2.5004697, 2.4990892 
1.437772e+2, 6.121869e+1, 59065.125, -314208.6, 381.69977, 0.00017297178, 0.0011113918, 59065.516, 59065.516, 0.0, 2.5004704, 2.499234 
1.437772e+2, 6.3717926e+1, 61198.27, -310141.72, 1012.0192, -0.00009405602, 0.00086677965, 61201.027, 61201.027, 0.0, 2.5004706, 2.4992409 
1.437772e+2, 6.621716e+1, 61409.492, -310067.38, 1273.6722, -0.00035144825, 0.0006143822, 61413.86, 61413.86, 0.0, 2.500471, 2.4992409 
1.437772e+2, 6.8716407e+1, 61618.6, -309994.03, 1535.7, -0.0006033302, 0.0003631576, 61624.95, 61624.95, 0.0, 2.5004716, 2.4992406 
1.437772e+2, 7.121572e+1, 102535.39, -223681.3, 798.7862, -0.0014775647, 0.00095443724, 102537.35, 102537.35, 0.0, 2.5004702, 2.4993896 
1.437772e+2, 7.371511e+1, 103138.625, -220448.33, 937.6179, -0.0012868639, 0.0005422334, 103141.34, 103141.34, 0.0, 2.500468, 2.499396 
1.437772e+2, 7.621451e+1, 101884.19, -221077.44, 807.62665, -0.0010796319, 0.00011916181, 101886.21, 101886.21, 0.0, 2.5004659, 2.499396 
1.437772e+2, 7.87139e+1, 100627.02, -221707.86, 677.6956, -0.0008675472, -0.00030255067, 100628.445, 100628.445, 0.0, 2.5004637, 2.499396 
1.437772e+2, 8.121336e+1, 141231.92, -137746.92, 716.77783, -0.000650721, 0.000037012658, 141233.77, 141233.77, 0.0, 2.5004642, 2.49954 
1.437772e+2, 8.3712906e+1, 145702.83, -133162.86, 927.43854, -0.0005839633, -0.00034331146, 145705.92, 145705.92, 0.0, 2.5004692, 2.4995453 
1.437772e+2, 8.621245e+1, 148651.66, -131749.31, 1049.0145, -0.0005101593, -0.0007357973, 148655.58, 148655.58, 0.0, 2.5004742, 2.4995453 
1.437772e+2, 8.871199e+1, 151597.11, -130337.4, 1170.3306, -0.00042808393, -0.0011300991, 151601.97, 151601.97, 0.0, 2.5004792, 2.4995453 
1.4377718e+2, 9.121162e+1, 192706.92, -44544.27, -14.313665, -0.003716788, 0.0007011477, 192706.92, 192706.92, 0.0, 2.500479, 2.499693 
1.4377719e+2, 9.3711317e+1, 191387.97, -43548.184, 97.455444, -0.0017347271, 0.001170159, 191388.02, 191388.02, 0.0, 2.500475, 2.4996965 
1.4377719e+2, 9.621102e+1, 189040.48, -44693.5, 234.3536, 0.00030850002, 0.0015996846, 189040.72, 189040.72, 0.0, 2.5004709, 2.4996965 
1.437772e+2, 9.8710716e+1, 186686.47, -45841.96, 371.34607, 0.0023460472, 0.002016825, 186687.06, 186687.06, 0.0, 2.5004668, 2.4996965 
1.4627765e+2, 1.2491671e+0, -195869.97, -840644.2, 218.05643, 0.0010144045, -0.00001497473, -195869.89, -195869.89, 0.0, 2.5004668, 2.4983325 
1.4627765e+2, 3.7475014e+0, -194670.89, -840387.2, 202.88979, 0.0002852518, -0.00004397054, -194670.83, -194670.83, 0.0, 2.5004692, 2.4983318 
1.4627764e+2, 6.245836e+0, -193280.0, -839728.06, 273.94296, -0.00045103478, -0.00007169415, -193279.88, -193279.88, 0.0, 2.5004716, 2.4983318 
1.4627764e+2, 8.74417e+0, -191891.39, -839070.0, 345.52905, -0.0011944553, -0.0000981457, -191891.2, -191891.2, 0.0, 2.500474, 2.4983318 
1.4627764e+2, 1.1242583e+1, -149839.25, -752073.7, -109.92923, -0.0011632909, 0.0003404935, -149839.22, -149839.22, 0.0, 2.5004745, 2.4984808 
1.4627764e+2, 1.3741072e+1, -150544.34, -751914.44, -22.129377, -0.00060239126, 0.0008364277, -150544.34, -150544.34, 0.0, 2.5004728, 2.498482 
1.4627764e+2, 1.6239561e+1, -151577.83, -752435.1, -73.69353, -0.0000454111, 0.0013327475, -151577.81, -151577.81, 0.0, 2.5004709, 2.498482 
1.4627765e+2, 1.8738051e+1, -152612.64, -752956.44, -124.96431, 0.0005079925, 0.0018299316, -152612.63, -152612.63, 0.0, 2.5004692, 2.4984818 
1.4627765e+2, 2.1236612e+1, -110679.13, -665197.0, -12.426764, 0.000728901, 0.002212222, -110679.13, -110679.13, 0.0, 2.5004685, 2.4986327 
1.4627765e+2, 2.3735245e+1, -110090.83, -663895.75, 211.30136, 0.00056429923, 0.0018515396, -110090.74, -110090.74, 0.0, 2.5004685, 2.498635 
1.4627765e+2, 2.6233876e+1, -110165.81, -663969.4, 206.66978, 0.0003996287, 0.0014910605, -110165.734, -110165.734, 0.0, 2.5004683, 2.4986348 
1.4627765e+2, 2.873251e+1, -110242.01, -664043.6, 202.70232, 0.00023501845, 0.0011322955, -110241.93, -110241.93, 0.0, 2.5004683, 2.4986348 
1.4627765e+2, 3.1231222e+1, -68653.86, -578178.44, 592.12384, 0.00016828347, 0.0012628693, -68653.17, -68653.17, 0.0, 2.5004687, 2.498782 
1.4627765e+2, 3.3730003e+1, -67038.33, -575780.06, 1049.2488, -0.00011988657, 0.0010005387, -67036.164, -67036.164, 0.0, 2.50047, 2.4987855 
1.4627765e+2, 3.622879e+1, -66463.99, -575542.4, 1212.6708, -0.0004087716, 0.0007352234, -66461.1, -66461.1, 0.0, 2.5004709, 2.4987853 
1.4627765e+2, 3.8727573e+1, -65890.69, -575305.1, 1376.7438, -0.00069723045, 0.00047003155, -65886.97, -65886.97, 0.0, 2.5004718, 2.4987853 
1.4627765e+2, 4.1226438e+1, -25032.664, -490109.6, 710.41644, -0.00065075146, 0.00082493445, -25031.578, -25031.578, 0.0, 2.5004716, 2.4989316 
1.4627767e+2, 4.372537e+1, -24797.342, -487801.7, 975.82697, -0.00018220037, 0.0008281561, -24795.285, -24795.285, 0.0, 2.5004697, 2.4989364 
1.4627767e+2, 4.622431e+1, -25964.64, -488404.06, 879.9022, 0.00028798578, 0.00082848646, -25962.967, -25962.967, 0.0, 2.5004678, 2.4989364 
1.4627768e+2, 4.8723248e+1, -27133.535, -489007.22, 784.66284, 0.0007594206, 0.0008302849, -27132.203, -27132.203, 0.0, 2.5004656, 2.4989364 
1.4627768e+2, 5.122226e+1, 13966.46, -403305.5, 689.9699, 0.00068678806, 0.0012581915, 13967.602, 13967.602, 0.0, 2.5004654, 2.4990835 
1.4627768e+2, 5.372135e+1, 16470.424, -399416.38, 1110.2418, 0.00031207417, 0.0008467452, 16473.389, 16473.389, 0.0, 2.5004668, 2.4990895 
1.4627768e+2, 5.622043e+1, 17267.613, -399070.22, 1112.1016, -0.00006261812, 0.0004316282, 17270.584, 17270.584, 0.0, 2.5004683, 2.4990895 
1.4627768e+2, 5.871952e+1, 18062.826, -398725.0, 1114.4369, -0.0004387912, 0.000019569216, 18065.807, 18065.807, 0.0, 2.5004697, 2.4990892 
1.4627768e+2, 6.1218685e+1, 59544.55, -313146.8, 366.46048, -0.0009023893, 0.00050447154, 59544.91, 59544.91, 0.0, 2.5004702, 2.4992359 
1.4627768e+2, 6.3717926e+1, 61639.89, -309156.47, 1074.8765, -0.000862766, 0.00046676316, 61643.008, 61643.008, 0.0, 2.5004706, 2.4992425 
1.4627768e+2, 6.621717e+1, 61848.656, -309085.0, 1339.7341, -0.00082015246, 0.00042293788, 61853.496, 61853.496, 0.0, 2.500471, 2.4992425 
1.4627768e+2, 6.871641e+1, 62055.313, -309014.53, 1604.9666, -0.0007783079, 0.0003815347, 62062.254, 62062.254, 0.0, 2.5004714, 2.4992425 
1.4627768e+2, 7.121573e+1, 102302.0, -224128.77, 351.642, -0.0012244469, 0.0008989985, 102302.38, 102302.38, 0.0, 2.5004702, 2.499389 
1.4627768e+2, 7.371512e+1, 102863.3, -220981.06, 625.4537, -0.00053304445, 0.0001980103, 102864.5, 102864.5, 0.0, 2.500468, 2.4993954 
1.4627768e+2, 7.621451e+1, 101607.414, -221610.81, 498.23178, 0.00016730845, -0.00051208463, 101608.19, 101608.19, 0.0, 2.5004659, 2.4993951 
1.4627768e+2, 7.871389e+1, 100348.805, -222241.88, 371.07016, 0.0008653765, -0.0012195806, 100349.234, 100349.234, 0.0, 2.5004637, 2.4993951 
1.4627768e+2, 8.121336e+1, 141491.55, -137230.83, 1264.3607, 0.00066021504, -0.0008756642, 141497.28, 141497.28, 0.0, 2.5004642, 2.4995408 
1.4627768e+2, 8.3712906e+1, 145948.8, -132675.44, 1702.2113, -0.00066087797, -0.00091389334, 145959.2, 145959.2, 0.0, 2.5004692, 2.4995463 
1.4627767e+2, 8.6212456e+1, 148894.98, -131266.69, 1826.9415, -0.0019830284, -0.00096226716, 148906.89, 148906.89, 0.0, 2.5004742, 2.4995463 
1.4627767e+2, 8.8712e+1, 151837.8, -129859.57, 1951.4119, -0.0033048475, -0.0010106947, 151851.33, 151851.33, 0.0, 2.5004795, 2.4995463 
1.4627762e+2, 9.121163e+1, 193033.42, -43949.215, -860.0324, -0.0063763172, 0.00065955264, 193036.55, 193036.55, 0.0, 2.500479, 2.4996939 
1.4627765e+2, 9.371133e+1, 191699.94, -42980.04, -491.14175, -0.0028227505, 0.00073386525, 191700.97, 191700.97, 0.0, 2.500475, 2.4996974 
1.4627767e+2, 9.621102e+1, 189349.69, -44126.93, -348.24908, 0.0007753933, 0.00077369774, 189350.2, 189350.2, 0.0, 2.5004709, 2.4996974 
1.462777e+2, 9.8710716e+1, 186992.89, -45276.965, -205.26205, 0.004353779, 0.0008039491, 186993.08, 186993.08, 0.0, 2.5004668, 2.4996974 
1.4877813e+2, 1.2491655e+0, -196305.36, -840639.9, 568.541, 0.0014812208, -0.00019081036, -196304.86, -196304.86, 0.0, 2.5004659, 2.498333 
1.4877813e+2, 3.7474966e+0, -194916.11, -840283.44, 551.4224, 0.00028857376, -0.0005705726, -194915.64, -194915.64, 0.0, 2.5004687, 2.4983323 
1.4877811e+2, 6.2458277e+0, -193482.23, -839603.4, 620.0312, -0.00092177687, -0.00094785634, -193481.64, -193481.64, 0.0, 2.500471, 2.4983323 
1.487781e+2, 8.744159e+0, -192192.98, -838993.1, 689.19446, -0.002149831, -0.0013226615, -192192.25, -192192.25, 0.0, 2.5004733, 2.4983323 
1.4877811e+2, 1.1242573e+1, -150362.05, -752468.1, -391.67303, -0.001973092, -0.00073531864, -150361.8, -150361.8, 0.0, 2.5004737, 2.4984806 
1.4877811e+2, 1.3741069e+1, -150915.64, -752229.44, -316.5719, -0.0006841237, 0.0004072051, -150915.47, -150915.47, 0.0, 2.5004723, 2.4984815 
1.4877813e+2, 1.6239563e+1, -151879.05, -752715.8, -366.67712, 0.0005951015, 0.0015510127, -151878.83, -151878.83, 0.0, 2.5004706, 2.4984815 
1.4877813e+2, 1.8738058e+1, -152921.48, -753240.3, -415.97385, 0.0018650012, 0.00269658, -152921.2, -152921.2, 0.0, 2.5004687, 2.4984815 
1.4877813e+2, 2.1236622e+1, -110876.516, -665296.94, -32.85224, 0.0021105697, 0.003228525, -110876.516, -110876.516, 0.0, 2.5004683, 2.4986327 
1.4877813e+2, 2.373525e+1, -110174.25, -663934.1, 148.21413, 0.0013504293, 0.0024619726, -110174.21, -110174.21, 0.0, 2.5004683, 2.498635 
1.4877811e+2, 2.6233882e+1, -110192.96, -663979.5, 133.74776, 0.00058693276, 0.0016966226, -110192.93, -110192.93, 0.0, 2.5004683, 2.4986348 
1.4877811e+2, 2.8732508e+1, -110267.23, -664051.6, 120.63614, -0.00017998173, 0.0009341115, -110267.2, -110267.2, 0.0, 2.5004683, 2.4986348 
1.4877811e+2, 3.123122e+1, -68341.11, -577508.44, 683.31525, -0.0005118236, 0.0008819551, -68340.195, -68340.195, 0.0, 2.5004687, 2.4987829 
1.4877811e+2, 3.3730003e+1, -66695.375, -575117.56, 1113.101, -0.00074994616, 0.0006625688, -66692.94, -66692.94, 0.0, 2.50047, 2.4987864 
1.4877811e+2, 3.622879e+1, -66102.87, -574869.1, 1265.1154, -0.0009912169, 0.00044022538, -66099.72, -66099.72, 0.0, 2.5004709, 2.4987864 
1.4877813e+2, 3.8727573e+1, -65539.3, -574634.56, 1416.214, -0.001234397, 0.00021801653, -65535.36, -65535.36, 0.0, 2.500472, 2.4987864 
1.4877813e+2, 4.1226438e+1, -25127.117, -490397.53, 292.01837, -0.00085980754, 0.00066354196, -25126.934, -25126.934, 0.0, 2.5004716, 2.498931 
1.4877814e+2, 4.3725377e+1, -24859.73, -488110.3, 536.7653, 0.0002225995, 0.00081201765, -24859.11, -24859.11, 0.0, 2.50047, 2.498936 
1.4877814e+2, 4.6224317e+1, -26002.648, -488699.44, 429.34308, 0.0013021397, 0.00095764274, -26002.25, -26002.25, 0.0, 2.500468, 2.4989357 
1.4877816e+2, 4.872325e+1, -27178.463, -489304.44, 321.7571, 0.0023784395, 0.0011047337, -27178.238, -27178.238, 0.0, 2.5004659, 2.4989357 
1.4877816e+2, 5.1222265e+1, 14106.803, -403199.97, 691.5124, 0.0022216109, 0.0014852637, 14107.949, 14107.949, 0.0, 2.5004656, 2.4990835 
1.4877816e+2, 5.372135e+1, 16561.797, -399375.03, 1128.3903, 0.0010614768, 0.00081055553, 16564.857, 16564.857, 0.0, 2.500467, 2.4990895 
1.4877814e+2, 5.622043e+1, 17289.846, -399060.63, 1119.5204, -0.00010463888, 0.00013251041, 17292.855, 17292.855, 0.0, 2.5004683, 2.4990895 
1.4877814e+2, 5.8719516e+1, 17969.307, -398769.6, 1110.9744, -0.0012782747, -0.00054207165, 17972.268, 17972.268, 0.0, 2.5004694, 2.4990892 
1.4877814e+2, 6.121868e+1, 59876.84, -312189.47, 112.0959, -0.001975997, -0.00010329318, 59876.875, 59876.875, 0.0, 2.50047, 2.4992378 
1.4877814e+2, 6.3717926e+1, 61904.68, -308258.34, 873.21484, -0.0016288274, 0.00006151428, 61906.74, 61906.74, 0.0, 2.5004702, 2.4992442 
1.4877814e+2, 6.621717e+1, 62013.613, -308236.63, 1120.0183, -0.0012849588, 0.00022158228, 62017.004, 62017.004, 0.0, 2.5004704, 2.4992442 
1.4877816e+2, 6.8716425e+1, 62072.56, -308238.97, 1367.5168, -0.00094794604, 0.00038526836, 62077.605, 62077.605, 0.0, 2.5004706, 2.4992442 
1.4877816e+2, 7.1215737e+1, 101528.79, -224856.44, -410.9454, -0.0009588443, 0.0008405471, 101529.305, 101529.305, 0.0, 2.5004692, 2.499388 
1.4877816e+2, 7.371512e+1, 101979.74, -221807.17, -12.4847555, 0.00023361798, -0.00015148277, 101979.74, 101979.74, 0.0, 2.5004668, 2.4993944 
1.4877816e+2, 7.621451e+1, 100576.29, -222507.9, -141.25478, 0.0014275848, -0.0011511059, 100576.35, 100576.35, 0.0, 2.5004644, 2.4993944 
1.4877817e+2, 7.871389e+1, 99104.73, -223241.45, -268.67514, 0.002612357, -0.0021469495, 99104.95, 99104.95, 0.0, 2.500462, 2.4993942 
1.4877816e+2, 8.1213355e+1, 140508.88, -137338.38, 1494.0981, 0.001974808, -0.0017895219, 140516.9, 140516.9, 0.0, 2.500462, 2.4995418 
1.4877814e+2, 8.3712906e+1, 144642.25, -132935.7, 2157.4595, -0.00073247263, -0.0014883277, 144659.02, 144659.02, 0.0, 2.5004666, 2.499547 
1.4877813e+2, 8.6212456e+1, 147168.36, -131732.8, 2295.353, -0.0034484544, -0.00119545, 147187.25, 147187.25, 0.0, 2.5004709, 2.499547 
1.4877811e+2, 8.8712007e+1, 149600.9, -130574.945, 2433.387, -0.00617174, -0.00090089603, 149622.03, 149622.03, 0.0, 2.5004752, 2.499547 
1.4877808e+2, 9.121164e+1, 190490.4, -44768.465, -1992.1752, -0.009010668, 0.0006299929, 190507.28, 190507.28, 0.0, 2.5004742, 2.4996948 
1.4877811e+2, 9.3711334e+1, 188804.8, -43955.605, -1371.9269, -0.0038859148, 0.00030542884, 188812.88, 188812.88, 0.0, 2.5004694, 2.4996984 
1.4877816e+2, 9.621102e+1, 185813.83, -45411.13, -1208.2079, 0.001267423, -0.000049152393, 185820.14, 185820.14, 0.0, 2.5004644, 2.4996984 
1.4877819e+2, 9.8710716e+1, 182535.8, -47004.895, -1033.4695, 0.0063877357, -0.00041068465, 182540.45, 182540.45, 0.0, 2.5004587, 2.4996984 
1.512786e+2, 1.2491654e+0, -191479.05, -838282.75, 516.6797, 0.0012953497, -0.00021351913, -191478.64, -191478.64, 0.0, 2.5004742, 2.4983332 
1.5127859e+2, 3.747496e+0, -193252.25, -839442.25, 383.371, 0.00030341887, -0.0006390866, -193252.02, -193252.02, 0.0, 2.5004714, 2.4983325 
1.5127859e+2, 6.2458265e+0, -194844.52, -840219.7, 332.02512, -0.00065683044, -0.0010626923, -194844.34, -194844.34, 0.0, 2.5004687, 2.4983325 
1.5127859e+2, 8.7441576e+0, -196440.67, -840998.94, 280.29178, -0.0015853981, -0.0014843362, -196440.56, -196440.56, 0.0, 2.5004659, 2.4983325 
1.5127859e+2, 1.12425715e+1, -154851.42, -754318.44, -591.83105, -0.0013151546, -0.0009154714, -154850.84, -154850.84, 0.0, 2.5004656, 2.4984813 
1.5127859e+2, 1.3741069e+1, -153469.89, -753148.3, -240.15863, -0.00012575641, 0.00023741598, -153469.8, -153469.8, 0.0, 2.5004675, 2.4984822 
1.512786e+2, 1.6239563e+1, -152421.86, -752665.75, 7.4935937, 0.0010804568, 0.0013895764, -152421.86, -152421.86, 0.0, 2.5004694, 2.4984822 
1.512786e+2, 1.873806e+1, -151376.83, -752184.7, 255.837, 0.0023038608, 0.0025414831, -151376.72, -151376.72, 0.0, 2.500471, 2.4984822 
1.512786e+2, 2.1236624e+1, -108684.08, -664484.3, 759.49927, 0.002479989, 0.0030888824, -108683.04, -108683.04, 0.0, 2.5004723, 2.4986322 
1.512786e+2, 2.3735252e+1, -108098.734, -663191.9, 767.8027, 0.0015814975, 0.0023305286, -108097.67, -108097.67, 0.0, 2.500472, 2.4986343 
1.5127859e+2, 2.6233882e+1, -108170.42, -663260.6, 608.4959, 0.0006965389, 0.0015723312, -108169.76, -108169.76, 0.0, 2.500472, 2.4986343 
1.5127859e+2, 2.8732508e+1, -108243.9, -663330.25, 449.63583, -0.00017484925, 0.00081597036, -108243.53, -108243.53, 0.0, 2.500472, 2.4986343 
1.5127859e+2, 3.1231216e+1, -66817.88, -576533.75, 858.0936, -0.0004904739, 0.00073408085, -66816.44, -66816.44, 0.0, 2.500471, 2.4987836 
1.5127859e+2, 3.3730003e+1, -66882.51, -574996.75, 1110.5186, -0.00055664004, 0.00046184976, -66880.08, -66880.08, 0.0, 2.5004694, 2.498787 
1.5127859e+2, 3.6228788e+1, -67956.53, -575553.8, 1108.9563, -0.0006177166, 0.00018706328, -67954.11, -67954.11, 0.0, 2.5004675, 2.498787 
1.512786e+2, 3.8727573e+1, -69031.016, -576111.2, 1107.8688, -0.0006726104, -0.00008723545, -69028.59, -69028.59, 0.0, 2.5004659, 2.498787 
1.512786e+2, 4.1226438e+1, -28451.982, -492045.8, 94.16954, -0.00024756935, 0.00035955315, -28451.963, -28451.963, 0.0, 2.500466, 2.498931 
1.5127861e+2, 4.3725377e+1, -25963.652, -488746.34, 487.67993, 0.00072525896, 0.0005634312, -25963.139, -25963.139, 0.0, 2.500468, 2.4989357 
1.5127861e+2, 4.6224317e+1, -24819.555, -488235.22, 542.3612, 0.0017029284, 0.00076237053, -24818.92, -24818.92, 0.0, 2.5004702, 2.4989355 
1.5127863e+2, 4.872325e+1, -23677.674, -487725.16, 597.64087, 0.0026851601, 0.00096068095, -23676.904, -23676.904, 0.0, 2.500472, 2.4989355 
1.5127863e+2, 5.1222265e+1, 17950.602, -401400.34, 990.7414, 0.0024865677, 0.0013632278, 17952.941, 17952.941, 0.0, 2.5004723, 2.4990835 
1.5127863e+2, 5.372135e+1, 18620.979, -398497.94, 1416.9514, 0.0013390217, 0.00070859276, 18625.793, 18625.793, 0.0, 2.5004706, 2.4990892 
1.5127861e+2, 5.622043e+1, 17650.746, -399001.16, 1370.2479, 0.00020125746, 0.00004627572, 17655.254, 17655.254, 0.0, 2.500469, 2.4990892 
1.5127861e+2, 5.8719516e+1, 16678.643, -399505.25, 1324.3837, -0.000928227, -0.00061708863, 16682.857, 16682.857, 0.0, 2.5004673, 2.499089 
1.5127861e+2, 6.121868e+1, 57856.285, -312771.44, 163.86316, -0.0016180248, -0.00023528203, 57856.36, 57856.36, 0.0, 2.500466, 2.4992385 
1.5127861e+2, 6.3717926e+1, 59379.77, -309136.78, 758.5828, -0.0013330765, -0.00016423738, 59381.332, 59381.332, 0.0, 2.5004656, 2.4992452 
1.5127861e+2, 6.621717e+1, 59065.11, -309318.28, 768.7364, -0.0010389412, -0.000101034784, 59066.715, 59066.715, 0.0, 2.5004652, 2.499245 
1.5127863e+2, 6.871641e+1, 58747.406, -309501.25, 779.33325, -0.0007389863, -0.00003751621, 58749.055, 58749.055, 0.0, 2.5004644, 2.499245 
1.5127861e+2, 7.1215737e+1, 99494.98, -225959.2, -1008.8947, -0.0007301272, 0.00038712626, 99498.1, 99498.1, 0.0, 2.5004656, 2.4993877 
1.5127863e+2, 7.371512e+1, 103525.3, -221240.2, -336.2633, 0.00044773507, -0.0004836586, 103525.64, 103525.64, 0.0, 2.5004697, 2.499394 
1.5127863e+2, 7.621451e+1, 105803.78, -220163.69, -326.84363, 0.0016419175, -0.0013662876, 105804.11, 105804.11, 0.0, 2.5004735, 2.499394 
1.5127864e+2, 7.871389e+1, 108080.24, -219088.14, -317.8467, 0.002842389, -0.0022499287, 108080.55, 108080.55, 0.0, 2.5004776, 2.499394 
1.5127863e+2, 8.1213355e+1, 148695.72, -133160.78, 1021.23145, 0.0021837365, -0.0018962057, 148699.42, 148699.42, 0.0, 2.500476, 2.4995422 
1.5127861e+2, 8.3712906e+1, 146611.92, -131756.08, 1717.4341, -0.0005097975, -0.0016784422, 146622.52, 146622.52, 0.0, 2.5004697, 2.4995477 
1.512786e+2, 8.6212456e+1, 143010.53, -133502.94, 1702.3026, -0.0031908837, -0.0014715425, 143021.02, 143021.02, 0.0, 2.5004635, 2.4995475 
1.5127859e+2, 8.8712007e+1, 139401.63, -135253.4, 1686.7958, -0.00585865, -0.001265784, 139411.98, 139411.98, 0.0, 2.5004573, 2.4995475 
1.5127854e+2, 9.121164e+1, 181152.38, -49257.91, -2624.2837, -0.008576007, 0.000099146746, 181182.27, 181182.27, 0.0, 2.5004582, 2.4996948 
1.5127859e+2, 9.371133e+1, 188292.33, -44153.438, -2093.3857, -0.0038146959, -0.00022527561, 188311.19, 188311.19, 0.0, 2.5004687, 2.4996986 
1.5127861e+2, 9.621102e+1, 194387.0, -41218.375, -2317.9119, 0.0010313408, -0.00059416937, 194409.8, 194409.8, 0.0, 2.500479, 2.4996986 
1.5127864e+2, 9.871071e+1, 200469.6, -38289.12, -2542.1448, 0.005905005, -0.0009864054, 200496.66, 200496.66, 0.0, 2.5004895, 2.4996986 
1.5377906e+2, 1.2491665e+0, -191553.89, -838439.1, 91.122665, -0.0003130557, -0.0000847775, -191553.89, -191553.89, 0.0, 2.5004742, 2.498333 
1.5377906e+2, 3.7474996e+0, -193320.48, -839586.75, -31.478325, -0.00029675075, -0.00025393514, -193320.48, -193320.48, 0.0, 2.5004714, 2.4983323 
1.5377906e+2, 6.2458324e+0, -194910.22, -840360.7, -76.55895, -0.00026843965, -0.00042256227, -194910.22, -194910.22, 0.0, 2.5004687, 2.4983323 
1.5377906e+2, 8.7441653e+0, -196503.84, -841136.5, -122.02701, -0.00022812231, -0.000590659, -196503.83, -196503.83, 0.0, 2.5004659, 2.4983323 
1.5377906e+2, 1.1242578e+1, -154375.94, -753311.06, -305.20636, 0.000077679666, -0.00019497948, -154375.78, -154375.78, 0.0, 2.5004656, 2.498483 
1.5377906e+2, 1.374107e+1, -153002.69, -752154.94, 28.52155, 0.00046663568, 0.00036353478, -153002.69, -153002.69, 0.0, 2.5004675, 2.4984841 
1.5377907e+2, 1.6239561e+1, -151956.73, -751673.56, 280.88995, 0.0008597749, 0.00092141173, -151956.6, -151956.6, 0.0, 2.5004692, 2.498484 
1.5377907e+2, 1.8738054e+1, -150913.75, -751193.56, 533.9495, 0.0012573422, 0.0014791209, -150913.28, -150913.28, 0.0, 2.500471, 2.498484 
1.5377907e+2, 2.1236616e+1, -108958.26, -665030.44, 770.1782, 0.001252977, 0.0019230277, -108957.19, -108957.19, 0.0, 2.5004723, 2.4986312 
1.5377906e+2, 2.3735249e+1, -108393.75, -663779.25, 750.2665, 0.0007099072, 0.0015744587, -108392.734, -108392.734, 0.0, 2.500472, 2.4986334 
1.5377906e+2, 2.623388e+1, -108464.99, -663845.06, 593.5683, 0.00017328147, 0.0012252952, -108464.36, -108464.36, 0.0, 2.500472, 2.4986334 
1.5377906e+2, 2.873251e+1, -108538.02, -663911.7, 437.31686, -0.00035655565, 0.00087717635, -108537.68, -108537.68, 0.0, 2.5004718, 2.4986331 
1.5377906e+2, 3.1231222e+1, -66819.97, -576487.06, 605.9286, -0.0003817693, 0.0009257963, -66819.25, -66819.25, 0.0, 2.500471, 2.4987836 
1.5377906e+2, 3.3730003e+1, -66906.09, -574991.44, 838.085, -0.00012120007, 0.0005247085, -66904.71, -66904.71, 0.0, 2.5004692, 2.498787 
1.5377906e+2, 3.622879e+1, -67980.48, -575546.2, 838.0144, 0.00014123021, 0.00012100868, -67979.09, -67979.09, 0.0, 2.5004675, 2.498787 
1.5377907e+2, 3.8727573e+1, -69056.05, -576101.5, 838.63666, 0.00040630784, -0.0002823423, -69054.66, -69054.66, 0.0, 2.5004656, 2.498787 
1.5377907e+2, 4.1226438e+1, -28339.945, -491739.84, 412.6616, 0.00062729075, 0.00008861443, -28339.578, -28339.578, 0.0, 2.5004659, 2.4989314 
1.5377907e+2, 4.372537e+1, -25901.682, -488538.7, 792.9812, 0.0008227534, 0.00027343383, -25900.322, -25900.322, 0.0, 2.500468, 2.498936 
1.5377909e+2, 4.622431e+1, -24759.697, -488026.6, 850.267, 0.0010188913, 0.00045417223, -24758.137, -24758.137, 0.0, 2.50047, 2.498936 
1.5377909e+2, 4.872325e+1, -23619.229, -487515.22, 908.35535, 0.0012155977, 0.00063514884, -23617.45, -23617.45, 0.0, 2.500472, 2.498936 
1.5377909e+2, 5.1222265e+1, 17868.71, -401493.3, 723.4966, 0.0010289653, 0.0011421028, 17869.959, 17869.959, 0.0, 2.500472, 2.4990833 
1.5377909e+2, 5.372135e+1, 18487.76, -398688.25, 1176.9941, 0.0007003829, 0.000782229, 18491.08, 18491.08, 0.0, 2.5004704, 2.499089 
1.5377909e+2, 5.6220436e+1, 17513.041, -399191.8, 1132.9803, 0.00037688296, 0.00041718915, 17516.121, 17516.121, 0.0, 2.500469, 2.499089 
1.5377909e+2, 5.871952e+1, 16536.79, -399696.1, 1089.7882, 0.00005702843, 0.000053285527, 16539.64, 16539.64, 0.0, 2.5004673, 2.4990888 
1.5377909e+2, 6.121869e+1, 57880.31, -312635.7, 29.30456, -0.0003731698, 0.00036792873, 57880.31, 57880.31, 0.0, 2.5004659, 2.499239 
1.5377909e+2, 6.371793e+1, 59345.62, -309120.5, 694.40076, -0.0004383161, 0.00004607097, 59346.93, 59346.93, 0.0, 2.5004654, 2.4992452 
1.5377909e+2, 6.621717e+1, 59031.875, -309300.56, 707.3701, -0.00049921643, -0.00028162866, 59033.234, 59033.234, 0.0, 2.500465, 2.4992452 
1.5377909e+2, 6.871641e+1, 58716.465, -309481.47, 720.85846, -0.0005589468, -0.0006073052, 58717.88, 58717.88, 0.0, 2.5004644, 2.499245 
1.5377909e+2, 7.121573e+1, 99535.945, -225839.72, -537.2446, -0.0008970901, -0.00018399193, 99536.836, 99536.836, 0.0, 2.5004656, 2.499388 
1.5377909e+2, 7.371512e+1, 103529.086, -221205.84, 277.8783, -0.00016746316, -0.00054967095, 103529.32, 103529.32, 0.0, 2.5004697, 2.499394 
1.537791e+2, 7.621451e+1, 105812.35, -220126.33, 291.44247, 0.0005708317, -0.00092613045, 105812.61, 105812.61, 0.0, 2.5004735, 2.499394 
1.537791e+2, 7.87139e+1, 108093.375, -219047.89, 304.93607, 0.0013085575, -0.0013032331, 108093.66, 108093.66, 0.0, 2.5004776, 2.499394 
1.537791e+2, 8.121337e+1, 148728.38, -133144.22, -50.890038, 0.0010458322, -0.0009824743, 148728.39, 148728.39, 0.0, 2.500476, 2.4995422 
1.5377909e+2, 8.371291e+1, 146639.66, -131760.28, 811.41736, -0.00024632772, -0.0012898897, 146642.02, 146642.02, 0.0, 2.5004697, 2.4995475 
1.5377907e+2, 8.6212456e+1, 143046.7, -133503.56, 802.0858, -0.001537204, -0.0016064107, 143049.03, 143049.03, 0.0, 2.5004637, 2.4995475 
1.5377907e+2, 8.8712e+1, 139450.17, -135248.56, 792.8634, -0.0028268422, -0.0019227637, 139452.47, 139452.47, 0.0, 2.5004575, 2.4995475 
1.5377901e+2, 9.121163e+1, 180911.36, -49997.06, -1340.4016, -0.005517988, -0.00079104485, 180919.14, 180919.14, 0.0, 2.5004585, 2.4996934 
1.5377906e+2, 9.3711317e+1, 188102.84, -44822.273, -474.93607, -0.002921749, -0.000794321, 188103.81, 188103.81, 0.0, 2.500469, 2.4996972 
1.5377907e+2, 9.6211016e+1, 194221.66, -41878.3, -686.89246, -0.00027233368, -0.0008361367, 194223.66, 194223.66, 0.0, 2.5004795, 2.4996972 
1.537791e+2, 9.871071e+1, 200331.64, -38938.58, -898.4185, 0.0023792349, -0.00089727534, 200335.02, 200335.02, 0.0, 2.50049, 2.4996972 
1.562795e+2, 1.24916755e+0, -191629.42, -838596.94, -334.18677, -0.0019221591, 0.000043015523, -191629.25, -191629.25, 0.0, 2.5004742, 2.4983325 
1.5627952e+2, 3.747503e+0, -193390.52, -839734.94, -446.29352, -0.0008990146, 0.00012837052, -193390.22, -193390.22, 0.0, 2.5004714, 2.498332 
1.5627952e+2, 6.2458384e+0, -194977.72, -840505.44, -485.1089, 0.00011646077, 0.00021282474, -194977.34, -194977.34, 0.0, 2.5004687, 2.498332 
1.5627952e+2, 8.744173e+0, -196568.8, -841277.75, -524.31165, 0.0011242669, 0.00029637807, -196568.38, -196568.38, 0.0, 2.500466, 2.498332 
1.5627953e+2, 1.1242585e+1, -153907.97, -752319.4, -24.846783, 0.0014753689, 0.0005238774, -153907.97, -153907.97, 0.0, 2.5004656, 2.4984846 
1.5627952e+2, 1.3741073e+1, -152537.19, -751165.06, 296.70297, 0.0010650639, 0.00048471242, -152537.05, -152537.05, 0.0, 2.5004675, 2.4984858 
1.5627952e+2, 1.623956e+1, -151493.3, -750684.8, 553.78754, 0.00064628397, 0.00044498197, -151492.78, -151492.78, 0.0, 2.5004692, 2.4984858 
1.5627952e+2, 1.8738046e+1, -150452.39, -750206.0, 811.56323, 0.0002191696, 0.00040516947, -150451.3, -150451.3, 0.0, 2.500471, 2.4984856 
1.5627952e+2, 2.1236609e+1, -109243.64, -665599.8, 783.7839, 0.000018312405, 0.00075110444, -109242.53, -109242.53, 0.0, 2.500472, 2.4986303 
1.5627952e+2, 2.3735245e+1, -108690.17, -664369.56, 732.1747, -0.0001700815, 0.000809489, -108689.2, -108689.2, 0.0, 2.500472, 2.4986324 
1.5627952e+2, 2.623388e+1, -108760.97, -664432.4, 578.0851, -0.00035903716, 0.0008664906, -108760.37, -108760.37, 0.0, 2.500472, 2.4986324 
1.562795e+2, 2.8732514e+1, -108833.555, -664496.06, 424.4423, -0.0005479861, 0.00092374464, -108833.23, -108833.23, 0.0, 2.5004718, 2.4986322 
1.5627952e+2, 3.1231222e+1, -66830.73, -576458.3, 347.38763, -0.0002657203, 0.0011123446, -66830.484, -66830.484, 0.0, 2.500471, 2.4987836 
1.5627952e+2, 3.3730006e+1, -66930.83, -574988.56, 564.9786, 0.00032078917, 0.0005800275, -66930.2, -66930.2, 0.0, 2.5004692, 2.4987872 
1.5627953e+2, 3.622879e+1, -68005.57, -575540.94, 566.39954, 0.000905802, 0.00004496055, -68004.94, -68004.94, 0.0, 2.5004675, 2.498787 
1.5627953e+2, 3.8727573e+1, -69081.49, -576093.9, 568.5134, 0.0014899268, -0.00048989657, -69080.86, -69080.86, 0.0, 2.5004656, 2.498787 
1.5627953e+2, 4.1226432e+1, -28233.207, -491446.97, 729.0064, 0.0015017724, -0.00019227032, -28232.06, -28232.06, 0.0, 2.5004659, 2.4989321 
1.5627953e+2, 4.372537e+1, -25838.363, -488332.03, 1096.52, 0.0009190147, -0.00002929379, -25835.764, -25835.764, 0.0, 2.5004678, 2.4989364 
1.5627953e+2, 4.622431e+1, -24697.602, -487818.53, 1155.61, 0.00033281735, 0.00013042321, -24694.719, -24694.719, 0.0, 2.50047, 2.4989364 
1.5627953e+2, 4.872325e+1, -23558.357, -487305.78, 1215.5022, -0.00025680513, 0.00029124567, -23555.172, -23555.172, 0.0, 2.5004718, 2.4989362 
1.5627953e+2, 5.1222265e+1, 17774.955, -401618.16, 454.22748, -0.00042422928, 0.00091934815, 17775.447, 17775.447, 0.0, 2.500472, 2.4990833 
1.5627953e+2, 5.3721356e+1, 18360.266, -398877.63, 932.53394, 0.0000653761, 0.00085025834, 18362.35, 18362.35, 0.0, 2.5004704, 2.4990888 
1.5627955e+2, 5.622044e+1, 17383.074, -399380.56, 890.9543, 0.0005552897, 0.0007783174, 17384.979, 17384.979, 0.0, 2.5004687, 2.4990885 
1.5627955e+2, 5.8719534e+1, 16404.352, -399884.25, 850.1963, 0.0010442142, 0.0007096962, 16406.088, 16406.088, 0.0, 2.500467, 2.4990885 
1.5627955e+2, 6.1218697e+1, 57904.586, -312517.66, -106.22126, 0.00087533356, 0.0009643635, 57904.617, 57904.617, 0.0, 2.5004659, 2.4992392 
1.5627955e+2, 6.371793e+1, 59321.438, -309100.72, 624.46576, 0.0004588047, 0.00024670621, 59322.496, 59322.496, 0.0, 2.5004654, 2.4992452 
1.5627955e+2, 6.621717e+1, 59006.61, -309280.38, 639.5518, 0.000041565163, -0.00047490947, 59007.72, 59007.72, 0.0, 2.500465, 2.4992452 
1.5627955e+2, 6.8716407e+1, 58690.113, -309460.8, 655.15674, -0.0003791542, -0.001192795, 58691.277, 58691.277, 0.0, 2.5004644, 2.4992452 
1.5627953e+2, 7.121573e+1, 99562.29, -225752.19, -66.79471, -0.0010572309, -0.0007554075, 99562.305, 99562.305, 0.0, 2.5004656, 2.4993882 
1.5627953e+2, 7.3715127e+1, 103529.28, -221174.58, 883.5448, -0.0007771476, -0.0006186557, 103531.69, 103531.69, 0.0, 2.5004697, 2.4993942 
1.5627955e+2, 7.6214516e+1, 105813.805, -220093.75, 899.9979, -0.00049614906, -0.0004918572, 105816.29, 105816.29, 0.0, 2.5004735, 2.4993942 
1.5627955e+2, 7.871391e+1, 108096.09, -219014.02, 916.3805, -0.0002225775, -0.00036533276, 108098.66, 108098.66, 0.0, 2.5004776, 2.499394 
1.5627955e+2, 8.121338e+1, 148732.7, -133166.06, -1126.6707, -0.000087486034, -0.00007150978, 148737.2, 148737.2, 0.0, 2.500476, 2.4995422 
1.5627955e+2, 8.3712924e+1, 146646.97, -131775.27, -107.99438, 0.000021943699, -0.0009070254, 146647.02, 146647.02, 0.0, 2.50047, 2.4995475 
1.5627955e+2, 8.6212456e+1, 143052.77, -133519.64, -112.80703, 0.00012146202, -0.0017500061, 143052.81, 143052.81, 0.0, 2.5004637, 2.4995475 
1.5627953e+2, 8.8712e+1, 139454.98, -135265.73, -117.51048, 0.00021013679, -0.0025915096, 139455.03, 139455.03, 0.0, 2.5004575, 2.4995475 
1.562795e+2, 9.121162e+1, 180577.55, -50828.453, -55.507587, -0.0024535328, -0.0016615606, 180577.56, 180577.56, 0.0, 2.5004585, 2.499692 
1.5627952e+2, 9.3711317e+1, 187822.58, -45536.074, 1122.6083, -0.0020195975, -0.0013482778, 187827.98, 187827.98, 0.0, 2.500469, 2.499696 
1.5627953e+2, 9.6211016e+1, 193934.6, -42598.09, 920.43353, -0.0015640561, -0.0010681122, 193938.17, 193938.17, 0.0, 2.5004795, 2.499696 
1.5627955e+2, 9.871071e+1, 200037.78, -39664.36, 718.68884, -0.0011318376, -0.0008032498, 200039.94, 200039.94, 0.0, 2.50049, 2.499696 
1.5877996e+2, 1.24916874e+0, -192373.52, -839078.25, -759.63745, -0.003527505, 0.00016985383, -192372.63, -192372.63, 0.0, 2.500473, 2.4983323 
1.5877998e+2, 3.747506e+0, -193941.86, -840118.2, -865.0428, -0.0014998188, 0.00050783716, -193940.7, -193940.7, 0.0, 2.5004706, 2.4983318 
1.5878e+2, 6.245843e+0, -195480.98, -840863.25, -903.7236, 0.00050123874, 0.00084352214, -195479.72, -195479.72, 0.0, 2.500468, 2.4983318 
1.5878001e+2, 8.744181e+0, -197166.86, -841679.1, -945.3145, 0.002475667, 0.0011769085, -197165.47, -197165.47, 0.0, 2.5004652, 2.4983318 
1.5878001e+2, 1.12425916e+1, -153965.4, -751593.25, 223.48691, 0.002881844, 0.001241265, -153965.33, -153965.33, 0.0, 2.5004647, 2.4984863 
1.5878e+2, 1.3741076e+1, -152438.75, -750355.25, 534.05426, 0.0016728628, 0.00060111703, -152438.27, -152438.27, 0.0, 2.5004668, 2.4984875 
1.5878e+2, 1.6239557e+1, -151351.45, -749854.2, 791.83685, 0.00044328434, -0.0000394887, -151350.4, -151350.4, 0.0, 2.5004687, 2.4984875 
1.5877998e+2, 1.873804e+1, -150374.22, -749406.2, 1050.8638, -0.00080682966, -0.0006800371, -150372.38, -150372.38, 0.0, 2.5004704, 2.4984872 
1.5877998e+2, 2.1236603e+1, -109920.92, -666375.8, 763.5132, -0.001220038, -0.00042655566, -109919.875, -109919.875, 0.0, 2.5004716, 2.4986293 
1.5877998e+2, 2.3735242e+1, -109259.82, -665093.75, 678.25287, -0.0010550187, 0.000035831075, -109258.99, -109258.99, 0.0, 2.5004716, 2.4986315 
1.5877998e+2, 2.6233876e+1, -109272.375, -665125.75, 525.2034, -0.00089726335, 0.0004960507, -109271.88, -109271.88, 0.0, 2.5004716, 2.4986312 
1.5877998e+2, 2.8732514e+1, -109337.805, -665183.25, 369.5068, -0.0007460624, 0.000955773, -109337.555, -109337.555, 0.0, 2.5004716, 2.4986312 
1.5878e+2, 3.1231225e+1, -67012.63, -576526.0, 42.963943, -0.0001393212, 0.0012938201, -67012.625, -67012.625, 0.0, 2.5004706, 2.4987838 
1.5878e+2, 3.3730006e+1, -67031.47, -575024.25, 261.21954, 0.0007722355, 0.0006279118, -67031.336, -67031.336, 0.0, 2.500469, 2.4987872 
1.5878001e+2, 3.622879e+1, -68062.39, -575553.0, 272.24207, 0.0016790002, -0.00004095558, -68062.24, -68062.24, 0.0, 2.5004673, 2.498787 
1.5878001e+2, 3.872757e+1, -69138.06, -576103.3, 282.5385, 0.0025815326, -0.0007097415, -69137.91, -69137.91, 0.0, 2.5004656, 2.498787 
1.5878001e+2, 4.1226432e+1, -28151.082, -491176.5, 1029.9662, 0.0023791203, -0.0004829506, -28148.791, -28148.791, 0.0, 2.5004659, 2.4989326 
1.5878001e+2, 4.372537e+1, -25766.973, -488123.13, 1382.1764, 0.0010169488, -0.0003446657, -25762.84, -25762.84, 0.0, 2.5004678, 2.498937 
1.5878e+2, 4.622431e+1, -24643.227, -487615.84, 1439.365, -0.0003524702, -0.00020887415, -24638.752, -24638.752, 0.0, 2.5004697, 2.4989367 
1.5878e+2, 4.872325e+1, -23563.912, -487130.0, 1497.0204, -0.001729052, -0.000071129456, -23559.078, -23559.078, 0.0, 2.5004716, 2.4989367 
1.5878e+2, 5.1222265e+1, 17593.428, -401811.4, 163.10515, -0.0018700873, 0.00069485937, 17593.492, 17593.492, 0.0, 2.5004718, 2.499083 
1.5878001e+2, 5.3721356e+1, 18203.031, -399083.16, 670.28284, -0.0005634275, 0.0009126454, 18204.107, 18204.107, 0.0, 2.5004704, 2.4990883 
1.5878002e+2, 5.622045e+1, 17215.02, -399589.53, 637.0451, 0.00073890114, 0.0011296213, 17215.992, 17215.992, 0.0, 2.5004687, 2.4990883 
1.5878004e+2, 5.871954e+1, 16174.354, -400121.28, 604.25287, 0.0020358164, 0.0013520279, 16175.23, 16175.23, 0.0, 2.5004668, 2.4990883 
1.5878004e+2, 6.12187e+1, 57790.883, -312483.53, -241.92554, 0.0021298125, 0.0015539237, 57791.043, 57791.043, 0.0, 2.5004656, 2.4992392 
1.5878002e+2, 6.371794e+1, 59164.19, -309146.03, 548.7092, 0.001360261, 0.00043770127, 59165.01, 59165.01, 0.0, 2.5004652, 2.4992452 
1.5878002e+2, 6.621717e+1, 58781.7, -309357.25, 565.5474, 0.00058530376, -0.0006807704, 58782.57, 58782.57, 0.0, 2.5004644, 2.4992452 
1.5878001e+2, 6.8716407e+1, 58336.13, -309598.88, 584.0118, -0.00019750581, -0.0017938631, 58337.055, 58337.055, 0.0, 2.5004637, 2.4992452 
1.5878e+2, 7.121572e+1, 99132.914, -225908.22, 417.4545, -0.001208599, -0.0013270397, 99133.45, 99133.45, 0.0, 2.500465, 2.4993882 
1.5878001e+2, 7.3715127e+1, 102962.21, -221417.0, 1519.6226, -0.0013797546, -0.00069056405, 102969.33, 102969.33, 0.0, 2.5004685, 2.4993942 
1.5878001e+2, 7.621452e+1, 105017.97, -220445.66, 1561.3651, -0.0015573705, -0.0000634277, 105025.46, 105025.46, 0.0, 2.500472, 2.4993942 
1.5878002e+2, 7.871392e+1, 106967.67, -219525.39, 1602.4166, -0.0017487936, 0.0005638269, 106975.54, 106975.54, 0.0, 2.5004756, 2.4993942 
1.5878001e+2, 8.1213397e+1, 147426.58, -133842.5, -2096.0068, -0.0012141796, 0.0008367852, 147442.19, 147442.19, 0.0, 2.5004737, 2.499542 
1.5878002e+2, 8.371293e+1, 145337.66, -132423.95, -905.3539, 0.00029620458, -0.00052970933, 145340.61, 145340.61, 0.0, 2.5004675, 2.4995475 
1.5878002e+2, 8.6212456e+1, 141563.23, -134255.56, -879.46173, 0.001786156, -0.001902164, 141566.05, 141566.05, 0.0, 2.500461, 2.4995475 
1.5878002e+2, 8.871199e+1, 137627.36, -136164.94, -851.65155, 0.0032538872, -0.0032718508, 137630.02, 137630.02, 0.0, 2.5004544, 2.4995475 
1.5878e+2, 9.1211617e+1, 178022.39, -52774.793, 1467.1339, 0.0006188618, -0.0025122217, 178031.72, 178031.72, 0.0, 2.500455, 2.4996903 
1.5878e+2, 9.371131e+1, 184850.7, -47544.914, 2994.7783, -0.0011071123, -0.0018869527, 184889.3, 184889.3, 0.0, 2.5004647, 2.4996946 
1.5878e+2, 9.6211004e+1, 190135.3, -45008.07, 2861.1948, -0.002841747, -0.0012899142, 190170.11, 190170.11, 0.0, 2.5004737, 2.4996946 
1.5878e+2, 9.8710704e+1, 195088.63, -42630.758, 2729.8777, -0.0046238536, -0.00070418324, 195119.97, 195119.97, 0.0, 2.500482, 2.4996946 
1.6128044e+2, 1.24916926e+0, -197043.05, -841176.7, -691.1106, -0.0027657326, 0.00020279946, -197042.3, -197042.3, 0.0, 2.500465, 2.4983327 
1.6128045e+2, 3.7475076e+0, -196080.56, -840996.25, -621.4625, -0.00094829436, 0.0006087919, -196079.95, -196079.95, 0.0, 2.5004668, 2.498332 
1.6128047e+2, 6.245846e+0, -194947.05, -840455.8, -486.0478, 0.0008956809, 0.0010153096, -194946.69, -194946.69, 0.0, 2.5004687, 2.498332 
1.6128048e+2, 8.7441844e+0, -193816.44, -839916.8, -350.4492, 0.0027661931, 0.0014223525, -193816.25, -193816.25, 0.0, 2.5004706, 2.498332 
1.6128048e+2, 1.1242595e+1, -150132.5, -749751.56, 846.3233, 0.0030918862, 0.0014486053, -150131.31, -150131.31, 0.0, 2.5004714, 2.4984863 
1.6128047e+2, 1.3741076e+1, -150456.66, -749408.7, 633.39825, 0.0018336824, 0.0006533994, -150455.98, -150455.98, 0.0, 2.5004702, 2.4984875 
1.6128047e+2, 1.623956e+1, -151109.7, -749745.06, 386.54202, 0.00059742015, -0.00013799881, -151109.45, -151109.45, 0.0, 2.5004692, 2.4984875 
1.6128045e+2, 1.8738039e+1, -151764.92, -750082.5, 139.84644, -0.0006168583, -0.0009250652, -151764.89, -151764.89, 0.0, 2.500468, 2.4984872 
1.6128045e+2, 2.1236601e+1, -112099.914, -667198.7, -177.667, -0.0009607889, -0.0007140103, -112099.86, -112099.86, 0.0, 2.5004675, 2.4986298 
1.6128045e+2, 2.3735239e+1, -111578.26, -665993.44, 136.59644, -0.00070968753, -0.00018624571, -111578.23, -111578.23, 0.0, 2.5004673, 2.498632 
1.6128045e+2, 2.623388e+1, -111674.35, -666068.7, 416.7601, -0.00044959798, 0.00034281934, -111674.04, -111674.04, 0.0, 2.5004673, 2.4986317 
1.6128045e+2, 2.8732517e+1, -111771.96, -666144.7, 697.3338, -0.00017981855, 0.00087485014, -111771.086, -111771.086, 0.0, 2.500467, 2.4986317 
1.6128047e+2, 3.1231228e+1, -68684.734, -577491.2, 563.381, 0.0004199518, 0.001277387, -68684.11, -68684.11, 0.0, 2.500468, 2.4987833 
1.6128047e+2, 3.3730012e+1, -66985.97, -575203.4, 606.151, 0.0012061307, 0.0006589596, -66985.24, -66985.24, 0.0, 2.5004694, 2.4987867 
1.6128048e+2, 3.6228794e+1, -66231.484, -574872.1, 471.6136, 0.0020011577, 0.000038358823, -66231.05, -66231.05, 0.0, 2.5004706, 2.4987867 
1.6128048e+2, 3.8727573e+1, -65478.816, -574541.8, 337.78012, 0.0028055622, -0.00058134977, -65478.594, -65478.594, 0.0, 2.500472, 2.4987864 
1.6128048e+2, 4.1226438e+1, -24525.338, -489296.6, 1034.503, 0.0025656493, -0.0003624024, -24523.035, -24523.035, 0.0, 2.5004718, 2.4989328 
1.6128048e+2, 4.372537e+1, -24436.225, -487396.56, 1318.0441, 0.0012033706, -0.00029417351, -24432.473, -24432.473, 0.0, 2.50047, 2.498937 
1.6128047e+2, 4.622431e+1, -25533.238, -487957.6, 1315.7974, -0.00014679092, -0.00022977417, -25529.494, -25529.494, 0.0, 2.5004683, 2.498937 
1.6128047e+2, 4.872325e+1, -26631.777, -488519.34, 1314.3169, -0.0014846304, -0.00016474506, -26628.04, -26628.04, 0.0, 2.5004663, 2.498937 
1.6128047e+2, 5.1222265e+1, 14353.506, -403204.5, 22.973106, -0.0016080177, 0.000591915, 14353.507, 14353.507, 0.0, 2.500466, 2.4990833 
1.6128048e+2, 5.3721356e+1, 16556.941, -399764.38, 694.5881, -0.0003267273, 0.000864551, 16558.102, 16558.102, 0.0, 2.5004673, 2.4990888 
1.612805e+2, 5.6220454e+1, 17248.219, -399460.88, 814.60785, 0.0009640445, 0.0011304091, 17249.813, 17249.813, 0.0, 2.5004685, 2.4990885 
1.6128051e+2, 5.8719546e+1, 17937.469, -399158.34, 935.19257, 0.002263305, 0.001395712, 17939.566, 17939.566, 0.0, 2.5004697, 2.4990885 
1.612805e+2, 6.121871e+1, 60421.7, -311545.38, -3.224725, 0.00240474, 0.0016594526, 60421.703, 60421.703, 0.0, 2.5004704, 2.4992385 
1.612805e+2, 6.3717943e+1, 62248.453, -308054.4, 543.45483, 0.0016784885, 0.0006539747, 62249.25, 62249.25, 0.0, 2.5004709, 2.4992445 
1.612805e+2, 6.621718e+1, 62422.766, -307994.2, 259.35626, 0.0009656985, -0.00035806393, 62422.95, 62422.95, 0.0, 2.500471, 2.4992445 
1.6128048e+2, 6.8716407e+1, 62595.227, -307934.9, -24.428583, 0.00026424605, -0.0013692037, 62595.227, 62595.227, 0.0, 2.5004714, 2.4992442 
1.6128047e+2, 7.121573e+1, 102461.29, -223897.03, -234.93987, -0.00077503896, -0.0009404037, 102461.46, 102461.46, 0.0, 2.5004702, 2.4993892 
1.6128048e+2, 7.3715127e+1, 102620.4, -221186.25, 1149.7494, -0.0012107819, -0.0004442775, 102624.48, 102624.48, 0.0, 2.5004675, 2.4993951 
1.6128048e+2, 7.621453e+1, 101117.0, -221927.34, 1367.4779, -0.0016195058, 0.00004467753, 101122.79, 101122.79, 0.0, 2.500465, 2.4993951 
1.6128048e+2, 7.871393e+1, 99610.72, -222669.83, 1585.3556, -0.0020076593, 0.0005356801, 99618.52, 99618.52, 0.0, 2.5004625, 2.499395 
1.6128048e+2, 8.1213397e+1, 141303.22, -137200.25, -2362.538, -0.0013966188, 0.00080340024, 141323.25, 141323.25, 0.0, 2.5004637, 2.499541 
1.6128048e+2, 8.371293e+1, 146341.95, -132335.64, -1366.6345, 0.0005079698, -0.00038427152, 146348.64, 146348.64, 0.0, 2.5004697, 2.4995465 
1.612805e+2, 8.621246e+1, 149844.84, -130657.35, -1689.4579, 0.0024407886, -0.001579737, 149855.02, 149855.02, 0.0, 2.5004756, 2.4995465 
1.6128051e+2, 8.8712e+1, 153340.98, -128982.31, -2012.7279, 0.004399816, -0.0027746405, 153355.33, 153355.33, 0.0, 2.5004818, 2.4995465 
1.6128048e+2, 9.1211617e+1, 193296.64, -45502.773, 355.62064, 0.0019362927, -0.0020232834, 193297.17, 193297.17, 0.0, 2.5004814, 2.49969 
1.6128047e+2, 9.371131e+1, 190888.73, -44557.992, 2345.5105, -0.0006393348, -0.001491614, 190912.1, 190912.1, 0.0, 2.500475, 2.4996948 
1.6128047e+2, 9.6211016e+1, 187142.52, -46364.414, 2448.7595, -0.0031367135, -0.0009895216, 187168.2, 187168.2, 0.0, 2.5004685, 2.4996948 
1.6128045e+2, 9.871071e+1, 183375.14, -48181.03, 2553.8645, -0.0055890908, -0.00050086866, 183403.31, 183403.31, 0.0, 2.500462, 2.4996948 
1.6378093e+2, 1.2491691e+0, -196776.25, -840622.2, -408.78046, -0.0005054952, 0.0001473719, -196775.98, -196775.98, 0.0, 2.500465, 2.4983337 
1.6378093e+2, 3.7475073e+0, -195811.67, -840436.8, -330.5834, 0.00008742289, 0.00044235904, -195811.5, -195811.5, 0.0, 2.5004668, 2.498333 
1.6378094e+2, 6.2458456e+0, -194678.39, -839896.44, -190.61574, 0.0006925635, 0.00073767133, -194678.34, -194678.34, 0.0, 2.5004687, 2.498333 
1.6378094e+2, 8.744184e+0, -193548.02, -839357.4, -50.4642, 0.0013099264, 0.0010333086, -193548.02, -193548.02, 0.0, 2.5004706, 2.498333 
1.6378094e+2, 1.1242595e+1, -150573.28, -750657.9, 703.7267, 0.0014046432, 0.0011401471, -150572.47, -150572.47, 0.0, 2.5004714, 2.4984848 
1.6378093e+2, 1.3741079e+1, -150906.02, -750333.6, 462.09964, 0.0009409418, 0.0006295734, -150905.66, -150905.66, 0.0, 2.5004702, 2.4984858 
1.6378093e+2, 1.6239561e+1, -151557.19, -750666.9, 218.70592, 0.0004902805, 0.00012116578, -151557.11, -151557.11, 0.0, 2.5004692, 2.4984858 
1.6378093e+2, 1.8738043e+1, -152210.53, -751001.25, -24.527197, 0.00005271548, -0.0003845652, -152210.53, -152210.53, 0.0, 2.500468, 2.4984858 
1.6378093e+2, 2.1236604e+1, -111583.164, -666094.94, -184.70752, 0.000046814643, -0.00016042925, -111583.1, -111583.1, 0.0, 2.5004675, 2.4986317 
1.6378093e+2, 2.3735243e+1, -111065.69, -664897.94, 114.01899, 0.00021950567, 0.00012507387, -111065.664, -111065.664, 0.0, 2.5004673, 2.4986339 
1.6378093e+2, 2.6233882e+1, -111160.21, -664969.56, 396.42636, 0.0003959859, 0.0004103518, -111159.93, -111159.93, 0.0, 2.5004673, 2.4986336 
1.6378094e+2, 2.873252e+1, -111256.25, -665041.9, 679.2438, 0.00057689456, 0.00069704297, -111255.414, -111255.414, 0.0, 2.500467, 2.4986336 
1.6378094e+2, 3.123123e+1, -68915.73, -577917.56, 808.2118, 0.0008459149, 0.001080402, -68914.44, -68914.44, 0.0, 2.500468, 2.4987826 
1.6378094e+2, 3.3730015e+1, -67260.484, -575717.56, 805.82587, 0.0010870309, 0.00068776624, -67259.2, -67259.2, 0.0, 2.5004692, 2.4987857 
1.6378094e+2, 3.6228797e+1, -66505.93, -575383.75, 673.34937, 0.0013322904, 0.0002928367, -66505.04, -66505.04, 0.0, 2.5004706, 2.4987857 
1.6378094e+2, 3.8727582e+1, -65753.19, -575050.8, 541.5767, 0.0015821254, -0.000101360696, -65752.62, -65752.62, 0.0, 2.500472, 2.4987857 
1.6378094e+2, 4.122644e+1, -24540.648, -489264.1, 759.20087, 0.0014947074, 0.00017733815, -24539.408, -24539.408, 0.0, 2.5004718, 2.4989328 
1.6378094e+2, 4.372538e+1, -24477.537, -487412.56, 1039.9177, 0.0009559284, 0.00014278233, -24475.201, -24475.201, 0.0, 2.50047, 2.498937 
1.6378094e+2, 4.6224317e+1, -25576.459, -487972.06, 1039.6335, 0.00042397948, 0.00010563311, -25574.121, -25574.121, 0.0, 2.500468, 2.498937 
1.6378094e+2, 4.8723257e+1, -26676.908, -488532.25, 1040.1156, -0.00010069697, 0.00007033511, -26674.566, -26674.566, 0.0, 2.500466, 2.498937 
1.6378094e+2, 5.122227e+1, 14594.51, -402626.88, 206.57758, -0.00020672585, 0.0006677413, 14594.612, 14594.612, 0.0, 2.500466, 2.4990845 
1.6378096e+2, 5.3721356e+1, 16737.535, -399309.38, 882.95514, 0.00029340578, 0.000756604, 16739.41, 16739.41, 0.0, 2.5004673, 2.4990895 
1.6378096e+2, 5.6220454e+1, 17427.822, -399004.97, 1005.43585, 0.0007970632, 0.0008395166, 17430.25, 17430.25, 0.0, 2.5004685, 2.4990895 
1.6378097e+2, 5.8719546e+1, 18116.053, -398701.56, 1128.4927, 0.0013031713, 0.00092252187, 18119.107, 18119.107, 0.0, 2.5004697, 2.4990892 
1.6378097e+2, 6.121871e+1, 59911.57, -312550.8, -0.47769365, 0.0013108407, 0.0013618163, 59911.57, 59911.57, 0.0, 2.5004704, 2.4992368 
1.6378096e+2, 6.3717943e+1, 61690.33, -309157.72, 599.0935, 0.0010779164, 0.0009406148, 61691.297, 61691.297, 0.0, 2.5004706, 2.4992425 
1.6378096e+2, 6.6217184e+1, 61864.11, -309096.4, 317.60248, 0.0008520246, 0.0005135558, 61864.383, 61864.383, 0.0, 2.500471, 2.4992425 
1.6378096e+2, 6.8716425e+1, 62036.035, -309036.0, 36.439583, 0.0006313656, 0.00008786652, 62036.04, 62036.04, 0.0, 2.5004714, 2.4992425 
1.6378094e+2, 7.121574e+1, 102874.59, -223025.7, -702.6336, -0.000114751805, 0.00041834754, 102876.11, 102876.11, 0.0, 2.5004702, 2.4993906 
1.6378096e+2, 7.371513e+1, 103026.26, -220329.88, 772.4278, -0.00056003226, 0.00015570453, 103028.1, 103028.1, 0.0, 2.5004675, 2.4993966 
1.6378096e+2, 7.621452e+1, 101521.81, -221072.25, 993.84753, -0.0009892859, -0.00011374063, 101524.875, 101524.875, 0.0, 2.500465, 2.4993966 
1.6378096e+2, 7.871392e+1, 100014.57, -221815.98, 1215.3861, -0.0014082419, -0.0003810502, 100019.164, 100019.164, 0.0, 2.5004625, 2.4993966 
1.6378094e+2, 8.1213385e+1, 140777.14, -138356.19, -1605.6006, -0.001009057, -0.00010956379, 140786.38, 140786.38, 0.0, 2.5004637, 2.4995391 
1.6378096e+2, 8.371293e+1, 145811.11, -133505.34, -448.96973, 0.00045735645, -0.00043454207, 145811.83, 145811.83, 0.0, 2.5004697, 2.4995446 
1.6378097e+2, 8.621247e+1, 149316.03, -131826.47, -764.08386, 0.001931463, -0.00076818955, 149318.11, 149318.11, 0.0, 2.500476, 2.4995446 
1.6378099e+2, 8.871201e+1, 152814.84, -130150.52, -1079.557, 0.0034114623, -0.0011026646, 152818.97, 152818.97, 0.0, 2.5004818, 2.4995446 
1.6378096e+2, 9.121163e+1, 193565.7, -45120.66, -777.5253, 0.0012709061, -0.00020468523, 193568.23, 193568.23, 0.0, 2.5004814, 2.4996908 
1.6378094e+2, 9.371133e+1, 191279.17, -43948.227, 1389.8041, -0.0007997698, -0.00016658558, 191287.39, 191287.39, 0.0, 2.5004752, 2.4996958 
1.6378094e+2, 9.6211016e+1, 187561.19, -45741.055, 1502.3926, -0.0028256588, -0.00015945654, 187570.86, 187570.86, 0.0, 2.5004687, 2.4996958 
1.6378093e+2, 9.871071e+1, 183834.83, -47537.902, 1615.2223, -0.004835087, -0.00016784042, 183846.11, 183846.11, 0.0, 2.5004623, 2.4996958 
1.6628142e+2, 1.24916896e+0, -196510.08, -840068.94, -125.95713, 0.0017548434, 0.00009112828, -196510.06, -196510.06, 0.0, 2.500465, 2.4983346 
1.6628142e+2, 3.747507e+0, -195544.31, -839880.6, -39.853497, 0.0011234435, 0.00027347804, -195544.31, -195544.31, 0.0, 2.5004668, 2.498334 
1.662814e+2, 6.2458456e+0, -194411.27, -839340.2, 104.66712, 0.0004899515, 0.00045595272, -194411.25, -194411.25, 0.0, 2.5004687, 2.498334 
1.662814e+2, 8.744184e+0, -193281.13, -838801.1, 249.3716, -0.00014563256, 0.0006385522, -193281.02, -193281.02, 0.0, 2.5004706, 2.498334 
1.6628139e+2, 1.1242595e+1, -151021.42, -751579.5, 559.7649, -0.00028368703, 0.0008303323, -151020.9, -151020.9, 0.0, 2.5004714, 2.4984832 
1.662814e+2, 1.3741079e+1, -151356.98, -751261.9, 290.43204, 0.00004610789, 0.0006009528, -151356.84, -151356.84, 0.0, 2.5004702, 2.4984844 
1.662814e+2, 1.6239563e+1, -152006.27, -751592.06, 50.500805, 0.00038004585, 0.00037208165, -152006.27, -152006.27, 0.0, 2.5004692, 2.4984841 
1.662814e+2, 1.8738046e+1, -152657.73, -751923.25, -189.2698, 0.00071819255, 0.00014423215, -152657.67, -152657.67, 0.0, 2.500468, 2.4984841 
1.662814e+2, 2.1236609e+1, -111078.16, -665015.6, -197.59105, 0.0010580863, 0.00039044564, -111078.086, -111078.086, 0.0, 2.5004675, 2.4986336 
1.6628142e+2, 2.3735246e+1, -110554.55, -663805.4, 90.84306, 0.0011508476, 0.00043023337, -110554.53, -110554.53, 0.0, 2.5004673, 2.4986358 
1.6628142e+2, 2.6233882e+1, -110647.5, -663873.3, 375.49414, 0.0012421564, 0.0004682147, -110647.24, -110647.24, 0.0, 2.500467, 2.4986355 
1.6628142e+2, 2.873252e+1, -110741.96, -663942.0, 660.5553, 0.0013326321, 0.0005060569, -110741.17, -110741.17, 0.0, 2.500467, 2.4986355 
1.6628142e+2, 3.1231233e+1, -69156.695, -578364.7, 1048.1528, 0.0012720625, 0.0008768465, -69154.54, -69154.54, 0.0, 2.500468, 2.498782 
1.6628142e+2, 3.3730018e+1, -67536.17, -576234.2, 1004.7082, 0.0009668111, 0.00070737675, -67534.19, -67534.19, 0.0, 2.5004692, 2.498785 
1.6628142e+2, 3.6228803e+1, -66781.55, -575897.75, 874.29254, 0.00066099083, 0.00053543266, -66780.05, -66780.05, 0.0, 2.5004706, 2.4987848 
1.6628142e+2, 3.8727587e+1, -66028.734, -575562.2, 744.5808, 0.00035494383, 0.00036406063, -66027.65, -66027.65, 0.0, 2.5004718, 2.4987848 
1.6628142e+2, 4.1226447e+1, -24564.22, -489248.72, 482.7646, 0.0004259197, 0.0007098134, -24563.72, -24563.72, 0.0, 2.5004718, 2.498933 
1.6628142e+2, 4.3725383e+1, -24519.877, -487430.72, 761.04193, 0.0007096977, 0.000570053, -24518.625, -24518.625, 0.0, 2.50047, 2.4989371 
1.6628142e+2, 4.6224323e+1, -25620.707, -487988.66, 762.7202, 0.0009949631, 0.00042884937, -25619.447, -25619.447, 0.0, 2.500468, 2.498937 
1.6628143e+2, 4.872326e+1, -26723.064, -488547.3, 765.1648, 0.0012824513, 0.00029071842, -26721.795, -26721.795, 0.0, 2.500466, 2.498937 
1.6628143e+2, 5.122227e+1, 14827.252, -402066.4, 391.2407, 0.0011950043, 0.00073516316, 14827.619, 14827.619, 0.0, 2.5004659, 2.4990854 
1.6628143e+2, 5.372136e+1, 16917.244, -398856.22, 1070.7427, 0.00091328274, 0.00063774065, 16920.002, 16920.002, 0.0, 2.500467, 2.4990902 
1.6628143e+2, 5.6220454e+1, 17606.54, -398550.9, 1195.6843, 0.0006291209, 0.0005351133, 17609.975, 17609.975, 0.0, 2.5004685, 2.4990902 
1.6628143e+2, 5.8719546e+1, 18293.78, -398246.6, 1321.2021, 0.0003413715, 0.0004332263, 18297.969, 18297.969, 0.0, 2.5004697, 2.4990902 
1.6628143e+2, 6.121871e+1, 59390.117, -313579.9, 7.748782, 0.00021743479, 0.0010591384, 59390.117, 59390.117, 0.0, 2.5004704, 2.4992352 
1.6628143e+2, 6.3717955e+1, 61131.438, -310262.72, 654.40814, 0.0004772625, 0.0012193735, 61132.59, 61132.59, 0.0, 2.5004706, 2.4992406 
1.6628143e+2, 6.6217196e+1, 61304.645, -310200.34, 375.52466, 0.0007376608, 0.0013742977, 61305.027, 61305.027, 0.0, 2.500471, 2.4992406 
1.6628143e+2, 6.8716437e+1, 61476.0, -310138.84, 96.96934, 0.0009971873, 0.0015310623, 61476.023, 61476.023, 0.0, 2.5004714, 2.4992406 
1.6628143e+2, 7.121575e+1, 103275.08, -222181.6, -1161.4972, 0.00054374867, 0.0017747006, 103279.22, 103279.22, 0.0, 2.5004702, 2.499392 
1.6628143e+2, 7.371514e+1, 103431.945, -219474.5, 395.11365, 0.000089993104, 0.0007510714, 103432.43, 103432.43, 0.0, 2.5004675, 2.499398 
1.6628142e+2, 7.621452e+1, 101926.3, -220218.23, 620.2389, -0.00035872316, -0.0002791731, 101927.49, 101927.49, 0.0, 2.500465, 2.499398 
1.6628142e+2, 7.871391e+1, 100417.85, -220963.33, 845.4831, -0.00080741494, -0.001307194, 100420.08, 100420.08, 0.0, 2.5004625, 2.499398 
1.6628142e+2, 8.121338e+1, 140233.72, -139546.64, -833.8274, -0.0006279997, -0.0010248489, 140236.2, 140236.2, 0.0, 2.5004637, 2.499537 
1.6628143e+2, 8.371293e+1, 145277.48, -134677.42, 468.92426, 0.0004019732, -0.00048998743, 145278.27, 145278.27, 0.0, 2.50047, 2.4995425 
1.6628145e+2, 8.621248e+1, 148782.67, -132998.8, 161.34656, 0.0014192095, 0.000035205878, 148782.77, 148782.77, 0.0, 2.500476, 2.4995425 
1.6628145e+2, 8.871202e+1, 152281.75, -131323.13, -146.59021, 0.0024220226, 0.0005581819, 152281.81, 152281.81, 0.0, 2.5004818, 2.4995425 
1.6628143e+2, 9.1211647e+1, 193797.08, -44799.13, -1896.2751, 0.000597757, 0.0016313057, 193812.14, 193812.14, 0.0, 2.5004816, 2.4996912 
1.6628142e+2, 9.3711334e+1, 191643.08, -43352.508, 433.02435, -0.0009655566, 0.0011713778, 191643.89, 191643.89, 0.0, 2.5004752, 2.4996967 
1.662814e+2, 9.621102e+1, 187924.88, -45145.434, 556.0407, -0.0025174501, 0.0006786082, 187926.2, 187926.2, 0.0, 2.500469, 2.4996967 
1.662814e+2, 9.871071e+1, 184198.3, -46942.383, 679.29846, -0.004081425, 0.000168252, 184200.3, 184200.3, 0.0, 2.5004625, 2.4996967 
1.687819e+2, 1.24916896e+0, -196778.6, -839774.7, 153.53026, 0.004018499, 0.000034104796, -196778.55, -196778.55, 0.0, 2.500464, 2.4983356 
1.6878189e+2, 3.7475067e+0, -195762.0, -839560.8, 241.3719, 0.0021627676, 0.000102255945, -195761.9, -195761.9, 0.0, 2.5004659, 2.498335 
1.6878188e+2, 6.245845e+0, -194640.56, -839025.8, 385.61752, 0.00029101133, 0.00017032985, -194640.33, -194640.33, 0.0, 2.5004678, 2.498335 
1.6878186e+2, 8.7441826e+0, -193583.86, -838522.0, 531.2715, -0.0015967698, 0.00023832638, -193583.42, -193583.42, 0.0, 2.5004697, 2.498335 
1.6878185e+2, 1.12425946e+1, -152044.88, -752790.0, 396.90625, -0.0019692648, 0.00051941414, -152044.61, -152044.61, 0.0, 2.5004704, 2.4984815 
1.6878186e+2, 1.374108e+1, -152283.08, -752421.56, 102.12063, -0.00084745727, 0.0005677745, -152283.06, -152283.06, 0.0, 2.5004694, 2.4984827 
1.6878188e+2, 1.6239566e+1, -152872.33, -752720.6, -134.29974, 0.0002697503, 0.00061500276, -152872.3, -152872.3, 0.0, 2.5004685, 2.4984827 
1.6878188e+2, 1.8738051e+1, -153500.03, -753038.2, -371.76627, 0.0013824288, 0.0006616302, -153499.8, -153499.8, 0.0, 2.5004673, 2.4984827 
1.6878189e+2, 2.1236612e+1, -110938.836, -664131.44, -235.24536, 0.002075778, 0.00093898195, -110938.734, -110938.734, 0.0, 2.5004668, 2.4986353 
1.6878189e+2, 2.3735249e+1, -110337.055, -662856.8, 45.70949, 0.0020870757, 0.0007296974, -110337.05, -110337.05, 0.0, 2.5004668, 2.4986374 
1.6878189e+2, 2.6233888e+1, -110395.08, -662905.06, 329.2077, 0.0020917987, 0.0005170153, -110394.88, -110394.88, 0.0, 2.5004666, 2.4986374 
1.6878189e+2, 2.8732523e+1, -110482.99, -662967.75, 612.14966, 0.0020905898, 0.00030268694, -110482.31, -110482.31, 0.0, 2.5004666, 2.4986374 
1.6878189e+2, 3.1231236e+1, -69647.64, -578947.9, 1254.3075, 0.0017016041, 0.0006675674, -69644.55, -69644.55, 0.0, 2.5004675, 2.4987812 
1.6878188e+2, 3.373002e+1, -68029.445, -576857.25, 1179.193, 0.00084838585, 0.0007185214, -68026.71, -68026.71, 0.0, 2.5004687, 2.498784 
1.6878188e+2, 3.622881e+1, -67281.49, -576521.5, 1055.6223, -0.000009947861, 0.0007667602, -67279.305, -67279.305, 0.0, 2.5004702, 2.498784 
1.6878188e+2, 3.8727593e+1, -66565.664, -576201.2, 932.24835, -0.00087313645, 0.00081541087, -66563.96, -66563.96, 0.0, 2.5004714, 2.498784 
1.6878188e+2, 4.1226456e+1, -24826.926, -489361.6, 198.8025, -0.0006379519, 0.001235578, -24826.84, -24826.84, 0.0, 2.5004714, 2.498933 
1.6878189e+2, 4.3725392e+1, -24712.055, -487522.53, 486.2777, 0.00046722975, 0.0009884024, -24711.545, -24711.545, 0.0, 2.5004694, 2.4989371 
1.6878189e+2, 4.6224326e+1, -25783.014, -488063.66, 500.90137, 0.0015686855, 0.00074079423, -25782.47, -25782.47, 0.0, 2.5004678, 2.498937 
1.687819e+2, 4.8723263e+1, -26905.775, -488629.72, 516.0231, 0.0026674995, 0.00049742666, -26905.2, -26905.2, 0.0, 2.5004659, 2.498937 
1.687819e+2, 5.1222277e+1, 14918.994, -401586.9, 608.032, 0.0025997285, 0.0007952499, 14919.882, 14919.882, 0.0, 2.5004656, 2.4990864 
1.687819e+2, 5.372136e+1, 16992.508, -398454.56, 1288.2775, 0.0015350945, 0.00050907256, 16996.502, 16996.502, 0.0, 2.5004668, 2.4990911 
1.6878189e+2, 5.6220454e+1, 17662.152, -398157.3, 1416.5385, 0.00046233938, 0.00021836095, 17666.979, 17666.979, 0.0, 2.500468, 2.4990911 
1.6878189e+2, 5.8719546e+1, 18281.896, -397884.1, 1546.9777, -0.00061974465, -0.00007095441, 18287.646, 18287.646, 0.0, 2.5004692, 2.499091 
1.6878189e+2, 6.121871e+1, 58633.34, -314739.94, 71.98581, -0.00087320816, 0.0007526392, 58633.35, 58633.35, 0.0, 2.50047, 2.4992332 
1.6878189e+2, 6.3717955e+1, 60343.01, -311479.0, 790.4427, -0.00012165729, 0.0014914086, 60344.69, 60344.69, 0.0, 2.5004702, 2.4992387 
1.687819e+2, 6.62172e+1, 60459.023, -311442.78, 544.9623, 0.0006242096, 0.0022252537, 60459.824, 60459.824, 0.0, 2.5004704, 2.4992387 
1.6878192e+2, 6.871645e+1, 60521.344, -311432.44, 300.07437, 0.00136334, 0.0029614076, 60521.586, 60521.586, 0.0, 2.5004706, 2.4992387 
1.687819e+2, 7.1215767e+1, 103222.98, -221575.72, -1444.7327, 0.0012018993, 0.0031296818, 103229.41, 103229.41, 0.0, 2.5004694, 2.4993935 
1.687819e+2, 7.371515e+1, 103391.32, -218834.05, 205.267, 0.0007403743, 0.0013429292, 103391.445, 103391.445, 0.0, 2.5004668, 2.4993994 
1.6878189e+2, 7.621452e+1, 101787.164, -219625.88, 461.96008, 0.0002732598, -0.00045043533, 101787.83, 101787.83, 0.0, 2.500464, 2.4993994 
1.6878189e+2, 7.8713906e+1, 100089.26, -220462.84, 725.97125, -0.0002037486, -0.0022414904, 100090.91, 100090.91, 0.0, 2.500461, 2.4993994 
1.6878188e+2, 8.121337e+1, 138804.34, -141188.1, 247.8281, -0.00025225812, -0.0019412811, 138804.56, 138804.56, 0.0, 2.5004623, 2.4995348 
1.6878189e+2, 8.371293e+1, 143737.69, -136333.1, 1733.6986, 0.0003425658, -0.0005496494, 143748.42, 143748.42, 0.0, 2.5004683, 2.4995406 
1.687819e+2, 8.621248e+1, 146938.8, -134801.16, 1489.3435, 0.00090529164, 0.0008312474, 146946.67, 146946.67, 0.0, 2.5004737, 2.4995403 
1.6878192e+2, 8.8712037e+1, 149965.44, -133353.25, 1248.8088, 0.0014342392, 0.0022085926, 149970.94, 149970.94, 0.0, 2.500479, 2.4995403 
1.687819e+2, 9.1211665e+1, 191959.05, -45514.254, -2455.7742, -0.00008045581, 0.00348521, 191984.44, 191984.44, 0.0, 2.5004783, 2.4996915 
1.6878189e+2, 9.371134e+1, 189793.9, -43821.516, 116.92356, -0.0011353005, 0.00252265, 189793.95, 189793.95, 0.0, 2.5004716, 2.4996977 
1.6878188e+2, 9.621103e+1, 185547.8, -45868.67, 345.41736, -0.002210458, 0.001525065, 185548.31, 185548.31, 0.0, 2.5004644, 2.4996977 
1.6878186e+2, 9.871071e+1, 180942.2, -48088.95, 571.1622, -0.0033246994, 0.00050798536, 180943.63, 180943.63, 0.0, 2.5004563, 2.4996977 
1.7128238e+2, 1.24916874e+0, -194699.39, -838618.8, 194.28471, 0.0045832773, -0.000002592353, -194699.33, -194699.33, 0.0, 2.5004673, 2.4983358 
1.7128237e+2, 3.747506e+0, -195084.13, -839077.06, 115.60076, 0.0026123752, -0.000008037098, -195084.1, -195084.1, 0.0, 2.5004668, 2.4983354 
1.7128235e+2, 6.245844e+0, -195301.34, -839185.56, 88.54002, 0.0006512328, -0.000013827901, -195301.34, -195301.34, 0.0, 2.5004666, 2.4983351 
1.7128232e+2, 8.744181e+0, -195519.72, -839294.6, 61.59932, -0.0013001501, -0.000019964898, -195519.72, -195519.72, 0.0, 2.500466, 2.4983351 
1.7128232e+2, 1.1242594e+1, -154387.58, -753921.44, -45.897602, -0.001661238, 0.00029443201, -154387.56, -154387.56, 0.0, 2.5004663, 2.4984815 
1.7128234e+2, 1.374108e+1, -153884.27, -753200.94, 94.138855, -0.00047641082, 0.00049115135, -153884.25, -153884.25, 0.0, 2.5004666, 2.4984827 
1.7128235e+2, 1.6239567e+1, -153691.9, -753124.75, 315.48154, 0.000713458, 0.0006892986, -153691.75, -153691.75, 0.0, 2.500467, 2.4984827 
1.7128235e+2, 1.8738054e+1, -153500.45, -753049.0, 536.94293, 0.0019084542, 0.00088940014, -153499.97, -153499.97, 0.0, 2.5004673, 2.4984825 
1.7128237e+2, 2.1236616e+1, -110156.305, -663687.0, 797.8809, 0.0026055768, 0.0012157202, -110155.16, -110155.16, 0.0, 2.500468, 2.4986355 
1.7128237e+2, 2.3735252e+1, -109148.04, -662237.1, 537.23267, 0.0025774376, 0.0009500633, -109147.516, -109147.516, 0.0, 2.5004687, 2.4986377 
1.7128237e+2, 2.6233888e+1, -108759.086, -662070.6, 301.67703, 0.0025541692, 0.00068440737, -108758.92, -108758.92, 0.0, 2.5004694, 2.4986377 
1.7128237e+2, 2.8732526e+1, -108371.51, -661904.75, 66.49352, 0.002536328, 0.00042050396, -108371.5, -108371.5, 0.0, 2.5004702, 2.4986374 
1.7128237e+2, 3.123124e+1, -68036.71, -578089.8, 581.70764, 0.0020860715, 0.0007642357, -68036.05, -68036.05, 0.0, 2.5004702, 2.4987814 
1.7128235e+2, 3.3730027e+1, -67814.58, -576703.1, 746.33154, 0.001086005, 0.0008152542, -67813.484, -67813.484, 0.0, 2.5004692, 2.4987843 
1.7128235e+2, 3.622881e+1, -68411.46, -577014.9, 891.2495, 0.00009311729, 0.00086348923, -68409.9, -68409.9, 0.0, 2.500468, 2.498784 
1.7128234e+2, 3.8727596e+1, -69009.766, -577327.25, 1036.7534, -0.0008921899, 0.00091209495, -69007.65, -69007.65, 0.0, 2.500467, 2.498784 
1.7128235e+2, 4.122646e+1, -27045.111, -490408.66, 401.3193, -0.0006309304, 0.0013753816, -27044.764, -27044.764, 0.0, 2.5004673, 2.498933 
1.7128237e+2, 4.3725395e+1, -25274.96, -487830.8, 621.97015, 0.00065908284, 0.0012239184, -25274.125, -25274.125, 0.0, 2.5004685, 2.498937 
1.7128237e+2, 4.6224332e+1, -24604.156, -487532.22, 581.9642, 0.0019582768, 0.0010670961, -24603.426, -24603.426, 0.0, 2.5004697, 2.498937 
1.7128238e+2, 4.8723266e+1, -23935.152, -487234.5, 542.45374, 0.0032677061, 0.0009095355, -23934.518, -23934.518, 0.0, 2.5004709, 2.498937 
1.7128238e+2, 5.122228e+1, 18078.113, -400050.47, 509.13226, 0.003208007, 0.001233586, 18078.732, 18078.732, 0.0, 2.500471, 2.4990864 
1.7128238e+2, 5.372137e+1, 18552.123, -397752.03, 893.1235, 0.0018934405, 0.0009169777, 18554.04, 18554.04, 0.0, 2.5004697, 2.499091 
1.7128237e+2, 5.622046e+1, 17713.31, -398175.88, 729.44794, 0.00059250096, 0.0005965241, 17714.59, 17714.59, 0.0, 2.5004683, 2.499091 
1.7128237e+2, 5.8719546e+1, 16872.627, -398600.63, 565.9437, -0.00069572637, 0.00027815814, 16873.398, 16873.398, 0.0, 2.5004668, 2.499091 
1.7128235e+2, 6.1218715e+1, 56768.07, -315464.28, -690.0968, -0.0009969805, 0.0010794635, 56769.35, 56769.35, 0.0, 2.5004666, 2.4992337 
1.7128237e+2, 6.371796e+1, 58617.484, -312164.8, 638.4637, -0.00016292174, 0.001798533, 58618.586, 58618.586, 0.0, 2.500467, 2.4992392 
1.7128238e+2, 6.621721e+1, 58944.86, -312023.0, 977.9441, 0.00068219565, 0.0025122918, 58947.438, 58947.438, 0.0, 2.5004678, 2.499239 
1.7128238e+2, 6.8716455e+1, 59270.52, -311882.0, 1317.5989, 0.001537486, 0.0032280018, 59275.195, 59275.195, 0.0, 2.5004683, 2.499239 
1.7128238e+2, 7.1215767e+1, 102820.36, -222097.44, -701.337, 0.001519736, 0.003420024, 102821.875, 102821.875, 0.0, 2.500469, 2.4993927 
1.7128237e+2, 7.371515e+1, 104941.266, -218406.39, 279.44626, 0.0010895979, 0.0017168897, 104941.51, 104941.51, 0.0, 2.5004697, 2.4993987 
1.7128237e+2, 7.621453e+1, 105383.266, -218199.02, -197.5158, 0.0006765277, 0.0000065309237, 105383.39, 105383.39, 0.0, 2.5004706, 2.4993987 
1.7128237e+2, 7.871391e+1, 105823.05, -217992.7, -674.37695, 0.00027719353, -0.001702225, 105824.45, 105824.45, 0.0, 2.5004714, 2.4993987 
1.7128235e+2, 8.121338e+1, 143920.52, -138494.02, -798.4335, 0.00011225437, -0.0013721373, 143922.78, 143922.78, 0.0, 2.5004709, 2.4995353 
1.7128237e+2, 8.3712935e+1, 144790.86, -135501.13, 1457.683, 0.00042464587, 0.000010033857, 144798.44, 144798.44, 0.0, 2.5004697, 2.4995413 
1.7128238e+2, 8.621249e+1, 144048.05, -135855.89, 1873.1217, 0.0007709536, 0.0013868925, 144060.58, 144060.58, 0.0, 2.5004685, 2.4995413 
1.712824e+2, 8.871204e+1, 143301.61, -136212.39, 2288.628, 0.0011494622, 0.0027655717, 143320.34, 143320.34, 0.0, 2.500467, 2.4995413 
1.7128237e+2, 9.121167e+1, 185782.53, -48092.348, -1854.3185, -0.000032371572, 0.0040232474, 185797.23, 185797.23, 0.0, 2.5004673, 2.4996924 
1.7128237e+2, 9.371136e+1, 188217.53, -43990.67, 707.3874, -0.0009007898, 0.0030462814, 188219.69, 188219.69, 0.0, 2.5004683, 2.499699 
1.7128235e+2, 9.6211046e+1, 188801.38, -43712.66, 822.12976, -0.0016946936, 0.0020476973, 188804.28, 188804.28, 0.0, 2.5004692, 2.499699 
1.7128234e+2, 9.871072e+1, 189367.36, -43443.258, 938.34644, -0.0024277186, 0.0010429365, 189371.14, 189371.14, 0.0, 2.5004702, 2.4996989 
1.7378284e+2, 1.2491684e+0, -194747.58, -838718.6, 130.16692, 0.0029126324, -0.000025460366, -194747.55, -194747.55, 0.0, 2.5004673, 2.4983356 
1.7378283e+2, 3.7475052e+0, -195131.81, -839175.25, 56.865402, 0.0019518874, -0.00007646819, -195131.81, -195131.81, 0.0, 2.5004668, 2.4983351 
1.7378281e+2, 6.245842e+0, -195349.77, -839284.6, 31.583618, 0.0009953824, -0.00012759147, -195349.77, -195349.77, 0.0, 2.5004666, 2.4983351 
1.7378281e+2, 8.744179e+0, -195568.86, -839394.5, 6.4218698, 0.00004311765, -0.00017883036, -195568.86, -195568.86, 0.0, 2.500466, 2.4983351 
1.7378281e+2, 1.1242593e+1, -153969.58, -753049.7, 16.21946, -0.00008855627, 0.000113931026, -153969.58, -153969.58, 0.0, 2.5004663, 2.4984832 
1.7378281e+2, 1.374108e+1, -153471.55, -752339.4, 143.27898, 0.00053460035, 0.00033641965, -153471.52, -153471.52, 0.0, 2.5004666, 2.4984841 
1.7378283e+2, 1.6239569e+1, -153279.16, -752262.3, 366.43903, 0.0011598618, 0.00056014647, -153278.92, -153278.92, 0.0, 2.500467, 2.4984841 
1.7378283e+2, 1.8738057e+1, -153087.64, -752185.6, 589.7177, 0.0017873363, 0.0007856101, -153087.06, -153087.06, 0.0, 2.5004673, 2.4984841 
1.7378283e+2, 2.123662e+1, -110565.54, -664522.75, 935.42206, 0.002161002, 0.0011711535, -110563.95, -110563.95, 0.0, 2.500468, 2.498634 
1.7378283e+2, 2.3735256e+1, -109593.29, -663145.75, 638.0784, 0.0021424298, 0.0010225167, -109592.555, -109592.555, 0.0, 2.5004687, 2.498636 
1.7378283e+2, 2.6233894e+1, -109204.86, -662978.4, 404.1437, 0.0021254339, 0.0008739529, -109204.56, -109204.56, 0.0, 2.5004694, 2.498636 
1.7378283e+2, 2.873253e+1, -108817.8, -662811.6, 170.58113, 0.0021103646, 0.0007271567, -108817.74, -108817.74, 0.0, 2.5004702, 2.498636 
1.7378283e+2, 3.1231242e+1, -67776.33, -577505.75, 446.90497, 0.0018564374, 0.0010219718, -67775.94, -67775.94, 0.0, 2.5004702, 2.4987824 
1.7378283e+2, 3.3730027e+1, -67572.29, -576152.2, 594.0706, 0.0011560086, 0.0008784648, -67571.6, -67571.6, 0.0, 2.500469, 2.4987853 
1.7378283e+2, 3.622881e+1, -68170.98, -576463.2, 740.8013, 0.00045823143, 0.00073315034, -68169.9, -68169.9, 0.0, 2.500468, 2.498785 
1.7378281e+2, 3.8727596e+1, -68771.08, -576774.9, 888.11786, -0.00023615778, 0.0005891308, -68769.52, -68769.52, 0.0, 2.500467, 2.498785 
1.7378283e+2, 4.122646e+1, -27081.936, -490436.03, 600.1772, -0.0000698283, 0.0010593168, -27081.158, -27081.158, 0.0, 2.5004673, 2.498933 
1.7378283e+2, 4.3725398e+1, -25372.043, -487980.7, 800.2281, 0.00082669104, 0.0011647202, -25370.658, -25370.658, 0.0, 2.5004685, 2.4989367 
1.7378284e+2, 4.6224335e+1, -24701.848, -487680.6, 762.4935, 0.0017270927, 0.001265091, -24700.592, -24700.592, 0.0, 2.5004697, 2.4989367 
1.7378286e+2, 4.8723274e+1, -24033.453, -487381.38, 725.25464, 0.0026320117, 0.0013648373, -24032.318, -24032.318, 0.0, 2.5004709, 2.4989367 
1.7378286e+2, 5.122229e+1, 17775.672, -400613.84, 304.35022, 0.0025899236, 0.0018786625, 17775.893, 17775.893, 0.0, 2.5004709, 2.4990854 
1.7378284e+2, 5.372138e+1, 18209.988, -398397.56, 680.1127, 0.0016129155, 0.001680116, 18211.098, 18211.098, 0.0, 2.5004697, 2.49909 
1.7378284e+2, 5.6220466e+1, 17371.83, -398819.75, 518.57745, 0.00064329925, 0.0014766434, 17372.477, 17372.477, 0.0, 2.5004683, 2.49909 
1.7378284e+2, 5.871956e+1, 16531.805, -399242.84, 357.21365, -0.000319242, 0.0012742041, 16532.111, 16532.111, 0.0, 2.5004668, 2.49909 
1.7378283e+2, 6.121872e+1, 57401.246, -314117.9, -609.6341, -0.0005710746, 0.0018375827, 57402.246, 57402.246, 0.0, 2.5004666, 2.499236 
1.7378284e+2, 6.371796e+1, 59235.563, -310848.88, 731.91113, 0.000029527691, 0.001966882, 59237.008, 59237.008, 0.0, 2.500467, 2.4992414 
1.7378284e+2, 6.621721e+1, 59563.137, -310705.28, 1073.2356, 0.0006371028, 0.0020903016, 59566.246, 59566.246, 0.0, 2.5004678, 2.4992414 
1.7378286e+2, 6.8716455e+1, 59889.0, -310562.5, 1414.7346, 0.0012507483, 0.002215056, 59894.402, 59894.402, 0.0, 2.5004683, 2.4992414 
1.7378284e+2, 7.1215767e+1, 101987.88, -223848.2, -625.4415, 0.0012583918, 0.0025288167, 101989.086, 101989.086, 0.0, 2.500469, 2.49939 
1.7378284e+2, 7.3715156e+1, 104084.2, -220206.61, 400.32605, 0.00096138235, 0.0017213766, 104084.695, 104084.695, 0.0, 2.50047, 2.4993956 
1.7378284e+2, 7.621454e+1, 104523.61, -220002.17, -73.98674, 0.00067440054, 0.00090727094, 104523.625, 104523.625, 0.0, 2.5004706, 2.4993956 
1.7378284e+2, 7.871393e+1, 104960.79, -219798.8, -548.19867, 0.00039521916, 0.000095069896, 104961.72, 104961.72, 0.0, 2.5004714, 2.4993956 
1.7378283e+2, 8.1213397e+1, 144700.95, -136964.6, -1076.4258, 0.00026633363, 0.0004901348, 144705.08, 144705.08, 0.0, 2.500471, 2.499538 
1.7378284e+2, 8.371294e+1, 145648.8, -133809.2, 1271.4026, 0.0005269539, 0.0010566824, 145654.58, 145654.58, 0.0, 2.5004697, 2.4995441 
1.7378286e+2, 8.621249e+1, 144903.23, -134167.02, 1690.804, 0.00081114646, 0.001617674, 144913.47, 144913.47, 0.0, 2.5004685, 2.4995441 
1.7378286e+2, 8.871204e+1, 144154.03, -134526.58, 2110.273, 0.0011171289, 0.0021804615, 144170.02, 144170.02, 0.0, 2.5004673, 2.4995441 
1.7378284e+2, 9.121167e+1, 186134.47, -47568.938, -1768.4104, 0.00027882817, 0.0032299703, 186147.84, 186147.84, 0.0, 2.5004675, 2.4996932 
1.7378283e+2, 9.371136e+1, 188656.73, -43282.72, 865.3688, -0.0005039907, 0.0027493143, 188659.95, 188659.95, 0.0, 2.5004685, 2.4997 
1.7378283e+2, 9.621105e+1, 189238.52, -43003.707, 990.4799, -0.001242908, 0.0022460101, 189242.73, 189242.73, 0.0, 2.5004694, 2.4997 
1.7378281e+2, 9.8710746e+1, 189808.95, -42730.168, 1116.0149, -0.0019464243, 0.0017349896, 189814.31, 189814.31, 0.0, 2.5004704, 2.4997 
1.7628329e+2, 1.2491681e+0, -194796.31, -838819.56, 66.3105, 0.0012422465, -0.000049104685, -194796.31, -194796.31, 0.0, 2.5004673, 2.4983356 
1.7628329e+2, 3.7475044e+0, -195180.95, -839276.4, -1.8869089, 0.0012921758, -0.00014722822, -195180.95, -195180.95, 0.0, 2.5004668, 2.498335 
1.7628329e+2, 6.245841e+0, -195399.63, -839386.6, -25.389736, 0.001340826, -0.0002452366, -195399.63, -195399.63, 0.0, 2.5004666, 2.498335 
1.7628329e+2, 8.7441766e+0, -195619.45, -839497.4, -48.772526, 0.001388197, -0.00034313, -195619.45, -195619.45, 0.0, 2.500466, 2.498335 
1.7628329e+2, 1.1242591e+1, -153559.08, -752193.44, 78.490234, 0.0014831645, -0.000068206165, -153559.06, -153559.06, 0.0, 2.5004663, 2.4984846 
1.7628329e+2, 1.374108e+1, -153060.5, -751481.25, 192.29883, 0.0015444066, 0.00017600102, -153060.44, -153060.44, 0.0, 2.5004666, 2.4984856 
1.7628329e+2, 1.623957e+1, -152868.05, -751403.25, 417.27618, 0.0016048237, 0.00042124293, -152867.75, -152867.75, 0.0, 2.500467, 2.4984856 
1.7628329e+2, 1.873806e+1, -152676.48, -751325.7, 642.37225, 0.0016645394, 0.0006680043, -152675.8, -152675.8, 0.0, 2.5004673, 2.4984856 
1.762833e+2, 2.1236624e+1, -110989.9, -665389.94, 1071.1675, 0.0017187768, 0.0011266607, -110987.83, -110987.83, 0.0, 2.500468, 2.4986327 
1.762833e+2, 2.373526e+1, -110039.78, -664056.94, 738.50806, 0.001709199, 0.0010920691, -110038.8, -110038.8, 0.0, 2.5004687, 2.4986346 
1.762833e+2, 2.6233897e+1, -109651.875, -663888.7, 506.19424, 0.0016978836, 0.0010575406, -109651.41, -109651.41, 0.0, 2.5004694, 2.4986346 
1.762833e+2, 2.8732532e+1, -109265.32, -663721.06, 274.25256, 0.0016849937, 0.0010247949, -109265.19, -109265.19, 0.0, 2.5004702, 2.4986343 
1.762833e+2, 3.1231242e+1, -67522.8, -576935.94, 309.14178, 0.0016257598, 0.0012713434, -67522.61, -67522.61, 0.0, 2.50047, 2.4987833 
1.762833e+2, 3.3730027e+1, -67331.1, -575603.44, 441.17896, 0.0012245249, 0.0009306317, -67330.72, -67330.72, 0.0, 2.500469, 2.4987862 
1.762833e+2, 3.622881e+1, -67931.586, -575913.8, 589.72235, 0.0008214268, 0.0005890696, -67930.91, -67930.91, 0.0, 2.500468, 2.498786 
1.762833e+2, 3.8727596e+1, -68533.484, -576224.9, 738.8517, 0.00041752393, 0.00024972652, -68532.414, -68532.414, 0.0, 2.500467, 2.498786 
1.762833e+2, 4.122646e+1, -27131.396, -490489.63, 800.86554, 0.0004913577, 0.00073935976, -27130.012, -27130.012, 0.0, 2.5004673, 2.498933 
1.762833e+2, 4.3725398e+1, -25470.104, -488132.6, 977.84204, 0.0009937077, 0.0010990462, -25468.037, -25468.037, 0.0, 2.5004685, 2.4989364 
1.7628331e+2, 4.6224344e+1, -24800.518, -487831.03, 942.379, 0.0014946238, 0.001453896, -24798.6, -24798.6, 0.0, 2.5004697, 2.4989364 
1.7628331e+2, 4.872328e+1, -24132.732, -487530.3, 907.41156, 0.0019943393, 0.001808235, -24130.957, -24130.957, 0.0, 2.5004709, 2.4989364 
1.7628331e+2, 5.12223e+1, 17463.635, -401197.2, 98.91248, 0.001967803, 0.002518047, 17463.658, 17463.658, 0.0, 2.5004709, 2.4990845 
1.7628331e+2, 5.3721386e+1, 17867.016, -399044.8, 466.74066, 0.0013275912, 0.0024351766, 17867.54, 17867.54, 0.0, 2.5004694, 2.4990888 
1.7628331e+2, 5.622047e+1, 17029.516, -399465.34, 307.3458, 0.00068855344, 0.0023462123, 17029.742, 17029.742, 0.0, 2.500468, 2.4990888 
1.762833e+2, 5.8719563e+1, 16190.145, -399886.8, 148.12234, 0.000050953513, 0.0022572277, 16190.197, 16190.197, 0.0, 2.5004666, 2.4990888 
1.762833e+2, 6.1218727e+1, 58024.93, -312791.25, -524.1966, -0.00014494914, 0.0025904323, 58025.67, 58025.67, 0.0, 2.5004666, 2.4992383 
1.762833e+2, 6.371797e+1, 59852.887, -309534.53, 824.94354, 0.00022184534, 0.0021275969, 59854.727, 59854.727, 0.0, 2.500467, 2.4992437 
1.7628331e+2, 6.621721e+1, 60180.664, -309389.13, 1168.1122, 0.00059144426, 0.0016582008, 60184.355, 60184.355, 0.0, 2.5004675, 2.4992437 
1.7628331e+2, 6.871645e+1, 60506.727, -309244.56, 1511.4552, 0.0009630108, 0.001189523, 60512.906, 60512.906, 0.0, 2.5004683, 2.4992435 
1.7628331e+2, 7.1215767e+1, 101141.02, -225628.88, -537.8792, 0.0009854834, 0.0016365077, 101141.91, 101141.91, 0.0, 2.500469, 2.4993868 
1.7628331e+2, 7.3715156e+1, 103226.39, -222008.36, 521.2064, 0.00082340883, 0.0017214952, 103227.22, 103227.22, 0.0, 2.50047, 2.4993925 
1.7628331e+2, 7.6214546e+1, 103663.195, -221806.88, 49.542904, 0.00066446234, 0.001800198, 103663.2, 103663.2, 0.0, 2.5004706, 2.4993925 
1.7628331e+2, 7.871394e+1, 104097.79, -221606.45, -422.01978, 0.0005073806, 0.0018811072, 104098.336, 104098.336, 0.0, 2.5004714, 2.4993925 
1.762833e+2, 8.121341e+1, 145462.28, -135474.9, -1338.9055, 0.00041139565, 0.002353323, 145468.66, 145468.66, 0.0, 2.500471, 2.4995406 
1.7628331e+2, 8.3712953e+1, 146506.19, -132118.4, 1085.1893, 0.00062354247, 0.0021008959, 146510.42, 146510.42, 0.0, 2.50047, 2.499547 
1.7628331e+2, 8.6212504e+1, 145757.86, -132479.28, 1508.5535, 0.00084897433, 0.0018424686, 145766.05, 145766.05, 0.0, 2.5004685, 2.499547 
1.7628333e+2, 8.871204e+1, 145005.9, -132841.89, 1931.9851, 0.0010857852, 0.0015858123, 145019.34, 145019.34, 0.0, 2.5004673, 2.499547 
1.7628331e+2, 9.121167e+1, 186461.13, -47098.043, -1656.1002, 0.00055919884, 0.002448846, 186472.86, 186472.86, 0.0, 2.5004678, 2.4996939 
1.762833e+2, 9.3711364e+1, 189095.02, -42576.652, 1023.00464, -0.00013588229, 0.0024594485, 189099.53, 189099.53, 0.0, 2.5004687, 2.4997013 
1.762833e+2, 9.621106e+1, 189674.73, -42296.645, 1158.4845, -0.000817172, 0.002446016, 189680.53, 189680.53, 0.0, 2.5004697, 2.4997013 
1.7628329e+2, 9.8710763e+1, 190243.11, -42022.105, 1294.3883, -0.0014885388, 0.0024233279, 190250.33, 190250.33, 0.0, 2.5004706, 2.4997013 
1.7878374e+2, 1.2491678e+0, -195506.33, -839240.2, 1.6037818, -0.00042466156, -0.00007348742, -195506.33, -195506.33, 0.0, 2.500466, 2.4983354 
1.7878374e+2, 3.7475032e+0, -195819.28, -839663.8, -63.34959, 0.0006359985, -0.00022021352, -195819.28, -195819.28, 0.0, 2.5004659, 2.4983346 
1.7878376e+2, 6.2458384e+0, -196014.34, -839763.2, -85.56581, 0.0016901484, -0.0003666073, -196014.33, -196014.33, 0.0, 2.5004656, 2.4983346 
1.7878377e+2, 8.744174e+0, -196259.16, -839886.5, -106.484886, 0.0027377878, -0.0005126689, -196259.14, -196259.14, 0.0, 2.5004652, 2.4983346 
1.7878377e+2, 1.1242589e+1, -153723.89, -751626.7, 133.76859, 0.00305662, -0.00025168428, -153723.86, -153723.86, 0.0, 2.5004654, 2.498486 
1.7878377e+2, 1.374108e+1, -153140.45, -750862.56, 222.79312, 0.0025554672, 0.000010351105, -153140.38, -153140.38, 0.0, 2.5004659, 2.498487 
1.7878376e+2, 1.6239573e+1, -152900.92, -750761.0, 439.05237, 0.0020507104, 0.00027318168, -152900.6, -152900.6, 0.0, 2.500466, 2.498487 
1.7878376e+2, 1.8738064e+1, -152693.73, -750675.06, 656.1559, 0.0015424816, 0.00053729187, -152693.02, -152693.02, 0.0, 2.5004666, 2.498487 
1.7878376e+2, 2.1236628e+1, -111833.336, -666483.06, 1163.944, 0.001281289, 0.0010830307, -111830.9, -111830.9, 0.0, 2.5004673, 2.498631 
1.7878376e+2, 2.3735264e+1, -110869.82, -665154.7, 803.2139, 0.0012800791, 0.0011595413, -110868.66, -110868.66, 0.0, 2.500468, 2.498633 
1.7878376e+2, 2.62339e+1, -110504.0, -664995.94, 580.76276, 0.0012740355, 0.0012359687, -110503.39, -110503.39, 0.0, 2.5004687, 2.498633 
1.7878376e+2, 2.8732535e+1, -110182.76, -664858.7, 361.0604, 0.0012631546, 0.001314139, -110182.52, -110182.52, 0.0, 2.5004692, 2.498633 
1.7878377e+2, 3.1231245e+1, -67715.71, -576592.4, 153.18532, 0.001396933, 0.0015131697, -67715.664, -67715.664, 0.0, 2.5004692, 2.4987843 
1.7878377e+2, 3.3730027e+1, -67413.13, -575212.44, 261.64465, 0.0012939591, 0.0009728617, -67413.0, -67413.0, 0.0, 2.5004685, 2.4987872 
1.7878377e+2, 3.622881e+1, -67953.67, -575492.4, 402.3679, 0.0011848958, 0.00043259416, -67953.36, -67953.36, 0.0, 2.5004675, 2.4987872 
1.7878377e+2, 3.8727593e+1, -68551.35, -575799.9, 544.82764, 0.001071112, -0.00010457775, -68550.766, -68550.766, 0.0, 2.5004666, 2.498787 
1.7878377e+2, 4.122646e+1, -27438.873, -490687.8, 956.0491, 0.0010548381, 0.00041713062, -27436.9, -27436.9, 0.0, 2.5004668, 2.4989328 
1.7878377e+2, 4.3725404e+1, -25793.816, -488394.94, 1107.9519, 0.0011621332, 0.001028545, -25791.164, -25791.164, 0.0, 2.500468, 2.4989362 
1.7878377e+2, 4.6224347e+1, -25150.025, -488104.03, 1074.2456, 0.0012629041, 0.0016352157, -25147.533, -25147.533, 0.0, 2.5004692, 2.4989362 
1.7878379e+2, 4.872329e+1, -24553.928, -487836.1, 1040.0437, 0.0013570001, 0.0022415174, -24551.592, -24551.592, 0.0, 2.5004702, 2.4989362 
1.7878379e+2, 5.1222306e+1, 16834.436, -401948.4, -150.39043, 0.0013438788, 0.0031535616, 16834.488, 16834.488, 0.0, 2.5004704, 2.4990835 
1.7878379e+2, 5.372139e+1, 17305.863, -399798.4, 220.01204, 0.0010392907, 0.0031840093, 17305.98, 17305.98, 0.0, 2.500469, 2.4990878 
1.7878377e+2, 5.6220484e+1, 16498.39, -400203.25, 69.36654, 0.0007299694, 0.0032071949, 16498.402, 16498.402, 0.0, 2.5004678, 2.4990878 
1.7878377e+2, 5.8719575e+1, 15628.194, -400638.28, -84.711136, 0.00041674142, 0.0032293904, 15628.212, 15628.212, 0.0, 2.500466, 2.4990878 
1.7878377e+2, 6.121873e+1, 58396.785, -311600.56, -447.9925, 0.000283273, 0.003340214, 58397.33, 58397.33, 0.0, 2.500466, 2.4992406 
1.7878377e+2, 6.3717973e+1, 60231.57, -308335.84, 920.3044, 0.0004156067, 0.0022827347, 60233.87, 60233.87, 0.0, 2.5004666, 2.499246 
1.7878379e+2, 6.621721e+1, 60525.707, -308205.0, 1280.8761, 0.00054665835, 0.0012179588, 60530.156, 60530.156, 0.0, 2.500467, 2.499246 
1.7878379e+2, 6.871645e+1, 60779.83, -308093.44, 1640.2285, 0.00067573955, 0.00015334146, 60787.125, 60787.125, 0.0, 2.5004675, 2.499246 
1.7878377e+2, 7.121576e+1, 99892.05, -227624.95, -373.69186, 0.0007022949, 0.00074502244, 99892.48, 99892.48, 0.0, 2.5004685, 2.4993837 
1.7878377e+2, 7.3715156e+1, 101965.97, -224003.92, 760.5681, 0.00067657203, 0.0017190989, 101967.75, 101967.75, 0.0, 2.5004692, 2.4993894 
1.7878379e+2, 7.6214564e+1, 102346.7, -223831.1, 346.2578, 0.0006474137, 0.0026870419, 102347.07, 102347.07, 0.0, 2.50047, 2.4993894 
1.7878379e+2, 7.871396e+1, 102685.87, -223678.3, -66.77376, 0.000614379, 0.0036574418, 102685.875, 102685.875, 0.0, 2.5004704, 2.4993894 
1.7878377e+2, 8.1213427e+1, 145555.56, -134335.75, -1305.54, 0.0005480883, 0.004218808, 145561.64, 145561.64, 0.0, 2.5004702, 2.499543 
1.7878377e+2, 8.3712965e+1, 146601.31, -130793.81, 1226.6985, 0.0007149357, 0.003143941, 146606.73, 146606.73, 0.0, 2.5004687, 2.4995499 
1.7878379e+2, 8.6212504e+1, 145692.14, -131233.81, 1704.0928, 0.00088502653, 0.002062431, 145702.63, 145702.63, 0.0, 2.500467, 2.4995499 
1.787838e+2, 8.871204e+1, 144734.05, -131697.38, 2184.299, 0.0010562743, 0.0009826702, 144751.31, 144751.31, 0.0, 2.5004654, 2.4995499 
1.7878379e+2, 9.1211665e+1, 185460.28, -47304.16, -1007.3949, 0.00080949237, 0.0016808419, 185464.64, 185464.64, 0.0, 2.5004656, 2.4996946 
1.7878377e+2, 9.371137e+1, 187992.73, -42611.34, 1794.6498, 0.00020422078, 0.0021775854, 188006.7, 188006.7, 0.0, 2.5004663, 2.4997025 
1.7878377e+2, 9.6211076e+1, 188164.94, -42525.63, 2044.6776, -0.000416118, 0.0026485168, 188183.05, 188183.05, 0.0, 2.5004666, 2.4997025 
1.7878376e+2, 9.8710775e+1, 188157.72, -42526.313, 2294.9539, -0.001051264, 0.00310862, 188180.55, 188180.55, 0.0, 2.5004666, 2.4997025 
1.8128419e+2, 1.2491679e+0, -195702.77, -839342.6, 34.575138, -0.0004280649, -0.000060438986, -195702.77, -195702.77, 0.0, 2.5004659, 2.4983354 
1.812842e+2, 3.7475038e+0, -195687.88, -839608.0, 19.982027, 0.0008284869, -0.00018144133, -195687.88, -195687.88, 0.0, 2.500466, 2.4983346 
1.8128422e+2, 6.2458396e+0, -195506.66, -839525.0, 44.63197, 0.0020958383, -0.0003026088, -195506.66, -195506.66, 0.0, 2.5004666, 2.4983346 
1.8128423e+2, 8.744175e+0, -195327.17, -839442.8, 69.392914, 0.0033739894, -0.00042394153, -195327.17, -195327.17, 0.0, 2.5004668, 2.4983346 
1.8128423e+2, 1.124259e+1, -152536.27, -750943.1, 256.4062, 0.0037092855, -0.00013890755, -152536.16, -152536.16, 0.0, 2.5004673, 2.4984863 
1.8128423e+2, 1.3741082e+1, -152023.1, -750216.5, -16.270678, 0.0030169191, 0.00014816536, -152023.1, -152023.1, 0.0, 2.5004675, 2.4984872 
1.8128422e+2, 1.6239575e+1, -151819.98, -750131.44, -148.11325, 0.002327843, 0.0004345172, -151819.95, -151819.95, 0.0, 2.500468, 2.4984872 
1.8128422e+2, 1.8738066e+1, -151618.38, -750047.06, -280.0059, 0.0016421669, 0.0007206296, -151618.25, -151618.25, 0.0, 2.5004683, 2.4984872 
1.8128422e+2, 2.1236631e+1, -111202.984, -666202.5, 262.40277, 0.0012781842, 0.0012923568, -111202.86, -111202.86, 0.0, 2.5004685, 2.498631 
1.8128422e+2, 2.3735267e+1, -110929.99, -665224.56, 285.84943, 0.0012520949, 0.0014018957, -110929.84, -110929.84, 0.0, 2.500468, 2.498633 
1.8128422e+2, 2.6233903e+1, -111199.25, -665369.3, 476.80237, 0.0012364556, 0.0015074823, -111198.836, -111198.836, 0.0, 2.5004675, 2.498633 
1.8128422e+2, 2.8732538e+1, -111470.375, -665514.9, 668.0709, 0.0012312735, 0.0016109324, -111469.57, -111469.57, 0.0, 2.500467, 2.498633 
1.8128422e+2, 3.1231248e+1, -68675.02, -576984.7, 593.94977, 0.0014370325, 0.0018182243, -68674.336, -68674.336, 0.0, 2.5004675, 2.4987845 
1.8128422e+2, 3.373003e+1, -67279.64, -575110.44, 439.93683, 0.001483464, 0.0012834664, -67279.26, -67279.26, 0.0, 2.5004687, 2.4987872 
1.8128423e+2, 3.6228812e+1, -66650.7, -574824.4, 327.5828, 0.0015418892, 0.00074446364, -66650.49, -66650.49, 0.0, 2.5004697, 2.4987872 
1.8128423e+2, 3.8727596e+1, -66023.945, -574539.4, 215.44298, 0.0016136526, 0.00020422298, -66023.85, -66023.85, 0.0, 2.5004709, 2.4987872 
1.8128423e+2, 4.1226465e+1, -25111.203, -489445.28, 525.959, 0.0015611945, 0.00073844247, -25110.607, -25110.607, 0.0, 2.5004706, 2.498933 
1.8128423e+2, 4.3725407e+1, -25286.021, -488072.78, 762.68134, 0.0013958075, 0.001365917, -25284.766, -25284.766, 0.0, 2.5004687, 2.4989364 
1.8128423e+2, 4.622435e+1, -26389.31, -488622.88, 849.60333, 0.0012393114, 0.0019900675, -26387.75, -26387.75, 0.0, 2.500467, 2.4989364 
1.8128423e+2, 4.8723292e+1, -27495.104, -489174.2, 936.62415, 0.0010915811, 0.0026153496, -27493.203, -27493.203, 0.0, 2.5004652, 2.4989364 
1.8128423e+2, 5.122231e+1, 13964.016, -403329.4, 87.905754, 0.0010736856, 0.0035332113, 13964.034, 13964.034, 0.0, 2.5004654, 2.4990835 
1.8128423e+2, 5.3721404e+1, 16284.001, -400339.88, 699.94293, 0.000989016, 0.003561238, 16285.177, 16285.177, 0.0, 2.5004673, 2.4990876 
1.8128423e+2, 5.622049e+1, 17413.656, -399816.5, 810.72437, 0.0009192526, 0.0035872613, 17415.23, 17415.23, 0.0, 2.5004692, 2.4990876 
1.8128423e+2, 5.8719575e+1, 18540.777, -399294.38, 921.7295, 0.00086535304, 0.0036175533, 18542.813, 18542.813, 0.0, 2.5004714, 2.4990876 
1.8128423e+2, 6.1218745e+1, 61780.367, -309762.4, 277.87613, 0.00080265093, 0.0037018305, 61780.574, 61780.574, 0.0, 2.5004716, 2.499241 
1.8128423e+2, 6.3717973e+1, 61994.465, -307297.5, 1028.9547, 0.0007637592, 0.0025727013, 61997.332, 61997.332, 0.0, 2.5004694, 2.4992464 
1.8128423e+2, 6.621721e+1, 60718.543, -307920.16, 795.817, 0.00073301885, 0.0014394189, 60720.258, 60720.258, 0.0, 2.5004673, 2.4992464 
1.8128423e+2, 6.871645e+1, 59440.336, -308543.9, 562.433, 0.0007099706, 0.00030949514, 59441.195, 59441.195, 0.0, 2.5004652, 2.4992464 
1.8128423e+2, 7.1215767e+1, 98178.2, -228517.4, -989.64813, 0.00072943605, 0.00093731965, 98181.2, 98181.2, 0.0, 2.5004656, 2.4993834 
1.8128423e+2, 7.371516e+1, 101358.26, -224320.64, 942.9513, 0.00075388537, 0.0020168053, 101360.984, 101360.984, 0.0, 2.5004683, 2.4993894 
1.8128423e+2, 7.621457e+1, 102859.81, -223603.16, 1317.667, 0.0007851915, 0.0030868407, 102865.125, 102865.125, 0.0, 2.5004706, 2.4993894 
1.8128425e+2, 7.8713965e+1, 104358.68, -222886.95, 1692.5043, 0.0008235725, 0.0041562435, 104367.44, 104367.44, 0.0, 2.5004733, 2.4993894 
1.8128423e+2, 8.121343e+1, 147581.36, -133247.95, -121.06606, 0.0006846744, 0.004685437, 147581.42, 147581.42, 0.0, 2.5004735, 2.4995432 
1.8128423e+2, 8.371298e+1, 147863.88, -129921.305, 1636.6357, 0.00067940925, 0.0034339717, 147873.52, 147873.52, 0.0, 2.5004706, 2.4995503 
1.8128423e+2, 8.621251e+1, 146146.52, -130739.4, 1310.073, 0.00068706606, 0.002175903, 146152.72, 146152.72, 0.0, 2.5004675, 2.4995503 
1.8128425e+2, 8.871205e+1, 144425.38, -131559.31, 983.5577, 0.00070521125, 0.0009196959, 144428.88, 144428.88, 0.0, 2.5004647, 2.4995503 
1.8128423e+2, 9.121167e+1, 184868.38, -47742.375, -2259.1484, 0.0007644187, 0.0016166042, 184890.31, 184890.31, 0.0, 2.500465, 2.499694 
1.8128423e+2, 9.371138e+1, 188567.27, -42274.71, 43.400684, 0.00043342603, 0.002230497, 188567.28, 188567.28, 0.0, 2.5004673, 2.4997025 
1.8128423e+2, 9.621108e+1, 189944.55, -41609.457, -214.9258, 0.00012485331, 0.002818104, 189944.75, 189944.75, 0.0, 2.5004697, 2.4997025 
1.8128422e+2, 9.871079e+1, 191313.78, -40948.09, -472.42813, -0.00015701493, 0.0033949206, 191314.73, 191314.73, 0.0, 2.5004718, 2.4997025 
1.8378468e+2, 1.2491684e+0, -195657.69, -839248.7, 76.07748, 0.0006321644, -0.000017294042, -195657.67, -195657.67, 0.0, 2.5004659, 2.4983356 
1.8378468e+2, 3.7475052e+0, -195644.45, -839516.9, 65.52104, 0.0013719639, -0.000051682066, -195644.44, -195644.44, 0.0, 2.500466, 2.498335 
1.8378468e+2, 6.245842e+0, -195464.39, -839435.6, 92.84603, 0.0021149067, -0.00008580267, -195464.38, -195464.38, 0.0, 2.5004666, 2.498335 
1.837847e+2, 8.744179e+0, -195286.06, -839355.3, 120.28202, 0.002860993, -0.000119656, -195286.05, -195286.05, 0.0, 2.5004668, 2.498335 
1.837847e+2, 1.1242594e+1, -152769.56, -751432.3, 319.158, 0.003008148, 0.00020949762, -152769.39, -152769.39, 0.0, 2.5004673, 2.4984853 
1.837847e+2, 1.3741085e+1, -152267.36, -750727.25, 33.29017, 0.002518201, 0.00050053984, -152267.36, -152267.36, 0.0, 2.5004675, 2.4984865 
1.837847e+2, 1.6239576e+1, -152064.75, -750641.9, -96.17248, 0.002025865, 0.000791279, -152064.73, -152064.73, 0.0, 2.500468, 2.4984865 
1.8378468e+2, 1.8738067e+1, -151863.64, -750557.25, -225.68521, 0.0015311893, 0.0010821961, -151863.55, -151863.55, 0.0, 2.5004683, 2.4984863 
1.8378468e+2, 2.1236633e+1, -110829.78, -665418.8, 216.6958, 0.0012805505, 0.001598883, -110829.695, -110829.695, 0.0, 2.5004685, 2.4986324 
1.8378468e+2, 2.373527e+1, -110581.11, -664488.06, 214.99297, 0.0012121502, 0.0016602726, -110581.03, -110581.03, 0.0, 2.500468, 2.498634 
1.837847e+2, 2.6233906e+1, -110853.17, -664635.4, 408.7104, 0.0011473825, 0.0017193916, -110852.87, -110852.87, 0.0, 2.5004675, 2.498634 
1.837847e+2, 2.873254e+1, -111127.1, -664783.5, 602.74347, 0.001086447, 0.001777901, -111126.445, -111126.445, 0.0, 2.500467, 2.498634 
1.837847e+2, 3.123125e+1, -68849.49, -577344.25, 768.06244, 0.0012442353, 0.0020388556, -68848.336, -68848.336, 0.0, 2.5004675, 2.4987838 
1.837847e+2, 3.373004e+1, -67486.766, -575535.6, 601.91034, 0.0013751222, 0.0016609646, -67486.055, -67486.055, 0.0, 2.5004685, 2.4987864 
1.837847e+2, 3.622882e+1, -66858.555, -575248.7, 492.34048, 0.0015109826, 0.0012793309, -66858.08, -66858.08, 0.0, 2.5004697, 2.4987864 
1.8378471e+2, 3.8727605e+1, -66232.53, -574962.8, 382.98486, 0.0016527271, 0.0008969433, -66232.24, -66232.24, 0.0, 2.5004709, 2.4987864 
1.8378471e+2, 4.122647e+1, -24950.25, -489071.06, 273.41278, 0.0016383498, 0.0014082596, -24950.09, -24950.09, 0.0, 2.5004706, 2.4989338 
1.8378471e+2, 4.372541e+1, -25144.549, -487739.7, 477.16324, 0.0013591626, 0.0018179143, -25144.057, -25144.057, 0.0, 2.5004687, 2.498937 
1.8378471e+2, 4.6224353e+1, -26246.02, -488286.9, 567.16113, 0.0010798747, 0.002223134, -26245.322, -26245.322, 0.0, 2.5004668, 2.498937 
1.8378471e+2, 4.8723298e+1, -27349.992, -488835.3, 657.2579, 0.00080088765, 0.00262844, -27349.055, -27349.055, 0.0, 2.5004652, 2.498937 
1.8378471e+2, 5.122231e+1, 14201.848, -402820.0, 408.65543, 0.0007702132, 0.0033583133, 14202.248, 14202.248, 0.0, 2.5004654, 2.4990845 
1.8378471e+2, 5.3721404e+1, 16490.203, -399897.75, 996.99084, 0.0008666146, 0.0032683425, 16492.59, 16492.59, 0.0, 2.5004673, 2.4990885 
1.8378471e+2, 5.622049e+1, 17621.89, -399371.47, 1110.8102, 0.0009703768, 0.003175477, 17624.85, 17624.85, 0.0, 2.5004692, 2.4990883 
1.8378471e+2, 5.8719575e+1, 18751.047, -398846.44, 1224.8531, 0.0010821028, 0.0030858114, 18754.64, 18754.64, 0.0, 2.5004714, 2.4990883 
1.8378471e+2, 6.1218745e+1, 61375.867, -310602.4, -12.46737, 0.0011075103, 0.00333443, 61375.867, 61375.867, 0.0, 2.5004716, 2.4992397 
1.8378471e+2, 6.371798e+1, 61571.594, -308179.7, 700.585, 0.0010097752, 0.0026630664, 61572.92, 61572.92, 0.0, 2.5004694, 2.499245 
1.8378471e+2, 6.6217214e+1, 60300.11, -308797.03, 470.2443, 0.00091384514, 0.001985551, 60300.71, 60300.71, 0.0, 2.5004673, 2.499245 
1.8378471e+2, 6.871646e+1, 59026.348, -309415.44, 239.65727, 0.0008196707, 0.0013094087, 59026.504, 59026.504, 0.0, 2.5004652, 2.499245 
1.8378471e+2, 7.121577e+1, 98880.37, -227112.66, -598.2855, 0.00085972605, 0.0018727009, 98881.47, 98881.47, 0.0, 2.5004656, 2.4993858 
1.8378471e+2, 7.3715174e+1, 102104.58, -222826.27, 1337.6882, 0.0009109803, 0.0023154444, 102110.086, 102110.086, 0.0, 2.5004683, 2.499392 
1.8378471e+2, 7.621457e+1, 103607.98, -222106.47, 1714.6102, 0.0009626754, 0.0027478791, 103617.0, 103617.0, 0.0, 2.5004709, 2.499392 
1.8378472e+2, 7.8713965e+1, 105108.695, -221387.97, 2091.6538, 0.0010156496, 0.0031791525, 105122.09, 105122.09, 0.0, 2.5004733, 2.499392 
1.8378471e+2, 8.121343e+1, 147015.69, -134547.52, -565.6257, 0.0007234833, 0.0035871244, 147016.81, 147016.81, 0.0, 2.5004735, 2.499541 
1.8378471e+2, 8.371298e+1, 147359.48, -131094.8, 1194.334, 0.0004413692, 0.0028126028, 147364.61, 147364.61, 0.0, 2.5004706, 2.4995482 
1.8378471e+2, 8.6212516e+1, 145644.19, -131908.94, 870.54364, 0.00016649855, 0.0020316055, 145646.9, 145646.9, 0.0, 2.5004678, 2.4995482 
1.8378471e+2, 8.871205e+1, 143925.08, -132724.9, 546.80066, -0.00010391949, 0.0012521144, 143926.16, 143926.16, 0.0, 2.5004647, 2.4995484 
1.837847e+2, 9.1211677e+1, 184472.9, -48785.01, -1913.9579, 0.0003178472, 0.0021330095, 184488.61, 184488.61, 0.0, 2.5004652, 2.4996924 
1.837847e+2, 9.371138e+1, 188300.88, -43044.438, 410.45557, 0.00045778355, 0.002526696, 188301.61, 188301.61, 0.0, 2.5004675, 2.499701 
1.8378471e+2, 9.621108e+1, 189673.89, -42381.785, 157.79099, 0.0006022342, 0.0028946372, 189673.98, 189673.98, 0.0, 2.5004697, 2.499701 
1.8378471e+2, 9.871079e+1, 191038.83, -41723.02, -94.04948, 0.000759677, 0.0032532017, 191038.86, 191038.86, 0.0, 2.500472, 2.499701 
1.8628515e+2, 1.2491689e+0, -195613.1, -839155.75, 118.03621, 0.0016927964, 0.00002497854, -195613.08, -195613.08, 0.0, 2.5004659, 2.4983356 
1.8628515e+2, 3.7475067e+0, -195602.44, -839428.7, 111.142555, 0.0019166486, 0.0000754601, -195602.42, -195602.42, 0.0, 2.500466, 2.4983351 
1.8628515e+2, 6.2458444e+0, -195423.55, -839349.3, 141.1426, 0.0021359879, 0.00012664164, -195423.52, -195423.52, 0.0, 2.5004666, 2.4983351 
1.8628515e+2, 8.7441826e+0, -195246.38, -839270.75, 171.25363, 0.0023508146, 0.000178523, -195246.33, -195246.33, 0.0, 2.5004668, 2.498335 
1.8628515e+2, 1.12425976e+1, -153011.31, -751939.0, 384.30026, 0.0023039544, 0.000557735, -153011.06, -153011.06, 0.0, 2.5004673, 2.4984846 
1.8628515e+2, 1.3741088e+1, -152512.92, -751240.6, 82.84104, 0.0020162717, 0.0008498805, -152512.92, -152512.92, 0.0, 2.5004675, 2.4984856 
1.8628515e+2, 1.6239578e+1, -152310.81, -751155.0, -44.24168, 0.0017205371, 0.0011421228, -152310.8, -152310.8, 0.0, 2.500468, 2.4984856 
1.8628515e+2, 1.8738067e+1, -152110.19, -751070.1, -171.3745, 0.0014167231, 0.0014349605, -152110.14, -152110.14, 0.0, 2.5004683, 2.4984856 
1.8628515e+2, 2.1236633e+1, -110465.19, -664653.0, 169.3663, 0.0012865502, 0.0019013116, -110465.14, -110465.14, 0.0, 2.5004685, 2.4986336 
1.8628515e+2, 2.3735271e+1, -110233.39, -663754.0, 143.95409, 0.0011769205, 0.0019114378, -110233.35, -110233.35, 0.0, 2.500468, 2.4986355 
1.8628515e+2, 2.623391e+1, -110508.25, -663903.8, 340.436, 0.0010640702, 0.0019209424, -110508.04, -110508.04, 0.0, 2.5004675, 2.4986353 
1.8628515e+2, 2.8732544e+1, -110784.98, -664054.56, 537.2336, 0.0009484271, 0.0019313644, -110784.45, -110784.45, 0.0, 2.500467, 2.4986353 
1.8628515e+2, 3.1231257e+1, -69038.01, -577733.0, 948.6887, 0.0010421241, 0.0022576947, -69036.24, -69036.24, 0.0, 2.5004675, 2.498783 
1.8628517e+2, 3.3730042e+1, -67694.734, -575962.56, 763.48083, 0.0012565642, 0.0020344513, -67693.586, -67693.586, 0.0, 2.5004685, 2.4987857 
1.8628517e+2, 3.622883e+1, -67067.25, -575674.8, 656.6952, 0.0014690818, 0.0018078681, -67066.41, -67066.41, 0.0, 2.5004697, 2.4987857 
1.8628517e+2, 3.872761e+1, -66441.945, -575388.06, 550.1238, 0.0016800296, 0.001581015, -66441.35, -66441.35, 0.0, 2.5004709, 2.4987857 
1.8628518e+2, 4.122648e+1, -24798.584, -488716.13, 14.492136, 0.0017213786, 0.002074607, -24798.584, -24798.584, 0.0, 2.5004706, 2.4989345 
1.8628517e+2, 4.372542e+1, -25003.846, -487408.2, 191.23785, 0.0013266497, 0.0022639642, -25003.766, -25003.766, 0.0, 2.5004687, 2.4989376 
1.8628517e+2, 4.622436e+1, -26103.496, -487952.53, 284.31168, 0.00092265924, 0.0024477155, -26103.32, -26103.32, 0.0, 2.5004668, 2.4989376 
1.8628517e+2, 4.8723298e+1, -27205.648, -488498.06, 377.48438, 0.00051050476, 0.0026305078, -27205.34, -27205.34, 0.0, 2.500465, 2.4989376 
1.8628517e+2, 5.122231e+1, 14429.265, -402332.22, 733.8505, 0.00045818128, 0.0031800426, 14430.557, 14430.557, 0.0, 2.5004654, 2.4990852 
1.8628517e+2, 5.3721404e+1, 16695.553, -399457.38, 1293.583, 0.00073351304, 0.0029691958, 16699.574, 16699.574, 0.0, 2.5004673, 2.4990892 
1.8628518e+2, 5.622049e+1, 17829.275, -398928.22, 1410.4402, 0.0010087639, 0.0027544678, 17834.049, 17834.049, 0.0, 2.5004692, 2.4990892 
1.8628518e+2, 5.8719575e+1, 18960.465, -398400.28, 1527.5211, 0.0012840783, 0.0025418703, 18966.055, 18966.055, 0.0, 2.5004714, 2.499089 
1.8628518e+2, 6.1218745e+1, 60953.69, -311479.13, -303.6445, 0.001414662, 0.0029687544, 60953.94, 60953.94, 0.0, 2.5004716, 2.4992383 
1.8628518e+2, 6.3717985e+1, 61147.645, -309064.13, 371.9179, 0.0012549018, 0.0027513339, 61148.02, 61148.02, 0.0, 2.5004694, 2.4992433 
1.8628518e+2, 6.6217226e+1, 59880.6, -309676.13, 144.37416, 0.0010903706, 0.002525565, 59880.66, 59880.66, 0.0, 2.5004673, 2.4992433 
1.8628518e+2, 6.8716466e+1, 58611.28, -310289.22, -83.41586, 0.00092165865, 0.0022991823, 58611.297, 58611.297, 0.0, 2.5004652, 2.4992433 
1.8628517e+2, 7.121579e+1, 99568.6, -225736.86, -200.87764, 0.0009842569, 0.0028068584, 99568.73, 99568.73, 0.0, 2.5004656, 2.4993882 
1.8628518e+2, 7.371518e+1, 102850.15, -221333.45, 1731.9762, 0.0010598657, 0.0026104187, 102859.41, 102859.41, 0.0, 2.5004683, 2.4993944 
1.8628518e+2, 7.621457e+1, 104355.4, -220611.36, 2111.1045, 0.0011294658, 0.0024026723, 104369.11, 104369.11, 0.0, 2.5004709, 2.4993944 
1.862852e+2, 7.8713965e+1, 105857.96, -219890.55, 2490.3545, 0.0011945494, 0.0021932356, 105877.0, 105877.0, 0.0, 2.5004735, 2.4993944 
1.8628518e+2, 8.121343e+1, 146434.78, -135878.72, -999.44806, 0.0007583231, 0.002487486, 146438.31, 146438.31, 0.0, 2.5004737, 2.4995387 
1.8628517e+2, 8.371298e+1, 146854.03, -132270.5, 751.53033, 0.00019686142, 0.0021860057, 146856.05, 146856.05, 0.0, 2.5004709, 2.4995463 
1.8628517e+2, 8.6212516e+1, 145140.77, -133080.7, 430.5124, -0.00036318717, 0.0018780408, 145141.44, 145141.44, 0.0, 2.5004678, 2.4995463 
1.8628517e+2, 8.871206e+1, 143423.7, -133892.72, 109.5418, -0.00092481886, 0.0015712262, 143423.75, 143423.75, 0.0, 2.500465, 2.4995463 
1.8628515e+2, 9.121168e+1, 184052.23, -49880.047, -1553.8094, -0.00014803733, 0.0026612428, 184062.55, 184062.55, 0.0, 2.5004654, 2.4996903 
1.8628517e+2, 9.371138e+1, 188033.81, -43815.57, 777.1958, 0.00046464347, 0.002831239, 188036.4, 188036.4, 0.0, 2.5004678, 2.4996996 
1.8628518e+2, 9.621108e+1, 189402.53, -43155.523, 530.1931, 0.0010640282, 0.002975609, 189403.75, 189403.75, 0.0, 2.50047, 2.4996996 
1.862852e+2, 9.8710775e+1, 190763.2, -42499.36, 284.01453, 0.0016626926, 0.0031120167, 190763.55, 190763.55, 0.0, 2.5004723, 2.4996996 
1.8878563e+2, 1.2491695e+0, -196386.77, -839458.25, 156.44896, 0.002756398, 0.0000664123, -196386.73, -196386.73, 0.0, 2.5004644, 2.4983358 
1.8878563e+2, 3.7475082e+0, -196252.61, -839676.7, 146.4752, 0.0024644725, 0.00020008099, -196252.56, -196252.56, 0.0, 2.500465, 2.4983351 
1.8878563e+2, 6.2458473e+0, -196021.55, -839573.4, 174.23534, 0.0021607932, 0.0003348758, -196021.5, -196021.5, 0.0, 2.5004654, 2.4983351 
1.8878563e+2, 8.7441856e+0, -195865.97, -839506.44, 203.91493, 0.0018453598, 0.00047079663, -195865.9, -195865.9, 0.0, 2.5004656, 2.4983351 
1.8878563e+2, 1.1242601e+1, -153904.55, -752773.1, 433.33847, 0.0015986095, 0.00090609276, -153904.23, -153904.23, 0.0, 2.500466, 2.4984837 
1.8878563e+2, 1.3741091e+1, -153342.78, -752037.56, 115.03696, 0.0015128375, 0.0011965793, -153342.77, -153342.77, 0.0, 2.5004666, 2.4984846 
1.8878563e+2, 1.623958e+1, -153141.9, -751952.0, -7.5100403, 0.0014137996, 0.0014875004, -153141.9, -153141.9, 0.0, 2.500467, 2.4984846 
1.8878563e+2, 1.873807e+1, -153003.36, -751896.5, -129.0998, 0.0013013753, 0.0017793905, -153003.33, -153003.33, 0.0, 2.5004673, 2.4984846 
1.8878563e+2, 2.1236636e+1, -110719.805, -664199.56, 107.54958, 0.0012988002, 0.0022001897, -110719.78, -110719.78, 0.0, 2.5004673, 2.498635 
1.8878563e+2, 2.3735271e+1, -110365.97, -663253.5, 54.610504, 0.0011482984, 0.002156076, -110365.97, -110365.97, 0.0, 2.500467, 2.4986367 
1.8878563e+2, 2.623391e+1, -110578.734, -663374.56, 251.05632, 0.0009880236, 0.0021129018, -110578.625, -110578.625, 0.0, 2.5004668, 2.4986367 
1.8878563e+2, 2.8732547e+1, -110859.93, -663528.6, 450.27887, 0.0008186688, 0.0020721168, -110859.56, -110859.56, 0.0, 2.5004663, 2.4986365 
1.8878563e+2, 3.1231263e+1, -69641.984, -578344.56, 1107.9573, 0.0008321566, 0.0024756375, -69639.57, -69639.57, 0.0, 2.5004668, 2.4987824 
1.8878563e+2, 3.3730048e+1, -68268.06, -576567.2, 879.61273, 0.0011292462, 0.0024050416, -68266.55, -68266.55, 0.0, 2.500468, 2.498785 
1.8878564e+2, 3.6228833e+1, -67663.016, -576289.1, 756.9069, 0.0014179512, 0.0023313898, -67661.89, -67661.89, 0.0, 2.500469, 2.498785 
1.8878564e+2, 3.872762e+1, -67118.75, -576040.3, 632.87683, 0.0016979415, 0.0022579317, -67117.96, -67117.96, 0.0, 2.50047, 2.498785 
1.8878566e+2, 4.1226482e+1, -25091.094, -488590.63, -348.92184, 0.0018125637, 0.0027390455, -25090.83, -25090.83, 0.0, 2.50047, 2.498935 
1.8878564e+2, 4.3725422e+1, -25168.057, -487225.6, -204.66418, 0.0012999055, 0.0027056662, -25167.967, -25167.967, 0.0, 2.5004683, 2.498938 
1.8878564e+2, 4.6224362e+1, -26217.531, -487743.88, -124.482414, 0.00076920324, 0.0026655344, -26217.498, -26217.498, 0.0, 2.5004663, 2.498938 
1.8878563e+2, 4.87233e+1, -27351.904, -488303.06, -48.716183, 0.00022241901, 0.002623482, -27351.898, -27351.898, 0.0, 2.5004644, 2.498938 
1.8878563e+2, 5.122232e+1, 14354.805, -402006.88, 899.0231, 0.00013966617, 0.0030004948, 14356.745, 14356.745, 0.0, 2.500465, 2.499086 
1.8878564e+2, 5.3721404e+1, 16654.402, -399137.6, 1409.9813, 0.0005912778, 0.0026659477, 16659.184, 16659.184, 0.0, 2.5004668, 2.49909 
1.8878566e+2, 5.622049e+1, 17769.809, -398615.4, 1512.1011, 0.0010357654, 0.0023264282, 17775.3, 17775.3, 0.0, 2.5004687, 2.49909 
1.8878566e+2, 5.8719575e+1, 18816.523, -398126.28, 1611.938, 0.0014727114, 0.0019879634, 18822.756, 18822.756, 0.0, 2.5004706, 2.49909 
1.8878566e+2, 6.1218745e+1, 60161.03, -312562.2, -810.53424, 0.0017254106, 0.002607059, 60162.797, 60162.797, 0.0, 2.500471, 2.4992366 
1.8878566e+2, 6.371799e+1, 60449.504, -310082.25, -150.09457, 0.001500226, 0.0028398333, 60449.563, 60449.563, 0.0, 2.500469, 2.4992418 
1.8878566e+2, 6.621723e+1, 59184.39, -310690.3, -360.9925, 0.001263918, 0.003061927, 59184.742, 59184.742, 0.0, 2.5004668, 2.4992418 
1.8878564e+2, 6.871648e+1, 57834.773, -311339.06, -580.116, 0.0010179459, 0.0032814846, 57835.688, 57835.688, 0.0, 2.5004644, 2.4992418 
1.8878564e+2, 7.1215796e+1, 99852.14, -224577.17, 48.3721, 0.0011049049, 0.0037424269, 99852.14, 99852.14, 0.0, 2.5004652, 2.4993904 
1.8878566e+2, 7.3715186e+1, 103225.32, -220019.3, 2006.1586, 0.0012014692, 0.002904129, 103237.77, 103237.77, 0.0, 2.5004678, 2.499397 
1.8878566e+2, 7.6214576e+1, 104659.21, -219330.28, 2416.5515, 0.0012860941, 0.002053502, 104677.234, 104677.234, 0.0, 2.5004702, 2.499397 
1.8878567e+2, 7.871396e+1, 105996.08, -218687.98, 2821.5774, 0.0013609596, 0.0012007711, 106020.59, 106020.59, 0.0, 2.5004725, 2.499397 
1.8878566e+2, 8.1213427e+1, 145159.0, -137566.78, -1447.5835, 0.00078991195, 0.0013887883, 145166.4, 145166.4, 0.0, 2.5004728, 2.4995363 
1.8878564e+2, 8.371298e+1, 145687.84, -133764.23, 341.1539, -0.000053578435, 0.0015562975, 145688.27, 145688.27, 0.0, 2.5004697, 2.4995441 
1.8878563e+2, 8.6212516e+1, 143880.44, -134617.03, 72.741684, -0.0009011477, 0.0017171239, 143880.45, 143880.45, 0.0, 2.5004666, 2.4995441 
1.8878561e+2, 8.8712066e+1, 141953.0, -135527.63, -203.76596, -0.0017558465, 0.0018786923, 141953.14, 141953.14, 0.0, 2.5004632, 2.4995441 
1.8878561e+2, 9.121168e+1, 182574.39, -51521.324, -962.2098, -0.0006319871, 0.0032026737, 182578.36, 182578.36, 0.0, 2.5004637, 2.4996881 
1.8878564e+2, 9.371138e+1, 186678.8, -45108.55, 1512.3263, 0.00045442686, 0.0031452226, 186688.66, 186688.66, 0.0, 2.500466, 2.4996982 
1.8878566e+2, 9.6211076e+1, 187652.73, -44639.145, 1426.4064, 0.001511438, 0.0030618394, 187661.48, 187661.48, 0.0, 2.5004678, 2.4996982 
1.8878567e+2, 9.871077e+1, 188283.34, -44335.08, 1344.5236, 0.0025556248, 0.0029719037, 188291.11, 188291.11, 0.0, 2.5004687, 2.4996982 
1.912861e+2, 1.24916956e+0, -194713.69, -838714.44, 149.66595, 0.003187614, 0.000092123235, -194713.64, -194713.64, 0.0, 2.5004673, 2.4983356 
1.912861e+2, 3.7475088e+0, -195011.9, -839141.3, 61.978382, 0.002685248, 0.0002767174, -195011.9, -195011.9, 0.0, 2.500467, 2.4983351 
1.9128609e+2, 6.245848e+0, -195137.55, -839206.94, 10.303448, 0.0021953923, 0.0004617758, -195137.55, -195137.55, 0.0, 2.500467, 2.4983351 
1.9128609e+2, 8.7441874e+0, -195264.84, -839273.4, -41.508297, 0.0017180472, 0.00064729835, -195264.84, -195264.84, 0.0, 2.5004668, 2.4983351 
1.9128609e+2, 1.1242602e+1, -153528.2, -752634.2, 334.90253, 0.0014388564, 0.0010913856, -153528.02, -153528.02, 0.0, 2.5004668, 2.4984834 
1.9128609e+2, 1.3741092e+1, -153182.28, -752007.4, 210.32288, 0.0014804238, 0.0013471714, -153182.2, -153182.2, 0.0, 2.5004668, 2.4984846 
1.9128609e+2, 1.623958e+1, -153132.33, -751992.44, 301.69644, 0.0015366492, 0.0016004457, -153132.17, -153132.17, 0.0, 2.500467, 2.4984846 
1.9128609e+2, 1.873807e+1, -153084.0, -751978.25, 393.01428, 0.0016073777, 0.0018517441, -153083.75, -153083.75, 0.0, 2.500467, 2.4984846 
1.912861e+2, 2.1236636e+1, -110577.95, -664048.9, 610.09955, 0.0016479528, 0.0022612498, -110577.28, -110577.28, 0.0, 2.5004675, 2.498635 
1.912861e+2, 2.3735273e+1, -109792.6, -662909.5, 214.2158, 0.0013765724, 0.0022502176, -109792.516, -109792.516, 0.0, 2.500468, 2.4986367 
1.912861e+2, 2.6233912e+1, -109495.97, -662781.8, 83.820724, 0.0011153065, 0.0022358857, -109495.96, -109495.96, 0.0, 2.5004685, 2.4986367 
1.9128609e+2, 2.873255e+1, -109201.29, -662655.06, -46.67384, 0.0008648903, 0.002219669, -109201.28, -109201.28, 0.0, 2.5004692, 2.4986367 
1.912861e+2, 3.1231263e+1, -68339.46, -577699.1, 609.1135, 0.0008154131, 0.0026856624, -68338.734, -68338.734, 0.0, 2.500469, 2.4987826 
1.912861e+2, 3.3730048e+1, -68350.49, -576615.75, 573.87946, 0.001127748, 0.0027093177, -68349.85, -68349.85, 0.0, 2.5004678, 2.498785 
1.9128612e+2, 3.6228836e+1, -69057.56, -576973.5, 684.74115, 0.0014502219, 0.0027280771, -69056.64, -69056.64, 0.0, 2.5004666, 2.498785 
1.9128612e+2, 3.8727623e+1, -69766.55, -577332.2, 795.58307, 0.0017822847, 0.0027452218, -69765.3, -69765.3, 0.0, 2.5004654, 2.4987848 
1.9128612e+2, 4.122649e+1, -27342.775, -489666.97, -68.693344, 0.0019283376, 0.0032141297, -27342.766, -27342.766, 0.0, 2.5004659, 2.498935 
1.9128612e+2, 4.3725425e+1, -25473.652, -487398.25, -111.171074, 0.0014007761, 0.0030750055, -25473.625, -25473.625, 0.0, 2.5004678, 2.498938 
1.912861e+2, 4.6224365e+1, -24479.027, -486939.13, -187.37312, 0.00088990055, 0.0029338268, -24478.951, -24478.951, 0.0, 2.5004694, 2.498938 
1.912861e+2, 4.87233e+1, -23487.55, -486481.53, -263.50607, 0.00039785073, 0.0027954134, -23487.4, -23487.4, 0.0, 2.500471, 2.498938 
1.912861e+2, 5.122232e+1, 18114.703, -399875.84, 597.4851, 0.00034030934, 0.003140747, 18115.557, 18115.557, 0.0, 2.5004709, 2.4990866 
1.9128612e+2, 5.3721404e+1, 17413.021, -398465.22, 1052.7944, 0.0007969817, 0.0028052295, 17415.686, 17415.686, 0.0, 2.5004678, 2.4990907 
1.9128612e+2, 5.6220496e+1, 15598.767, -399357.34, 1157.1893, 0.0012639296, 0.0024631387, 15601.994, 15601.994, 0.0, 2.5004647, 2.4990907 
1.9128613e+2, 5.871958e+1, 13782.019, -400250.72, 1261.3634, 0.0017405958, 0.002120679, 13785.861, 13785.861, 0.0, 2.5004616, 2.4990907 
1.9128613e+2, 6.121875e+1, 54891.566, -315295.84, -757.9603, 0.0020042239, 0.0027993647, 54893.117, 54893.117, 0.0, 2.500462, 2.499236 
1.9128613e+2, 6.3718e+1, 58241.906, -311345.9, 142.02547, 0.0017284773, 0.0031389638, 58241.96, 58241.96, 0.0, 2.5004654, 2.4992414 
1.9128612e+2, 6.621724e+1, 60115.133, -310454.16, 218.6955, 0.001469014, 0.003471271, 60115.266, 60115.266, 0.0, 2.5004687, 2.4992414 
1.9128612e+2, 6.8716484e+1, 61984.73, -309564.16, 295.34808, 0.0012275489, 0.0038045803, 61984.965, 61984.965, 0.0, 2.5004718, 2.4992414 
1.9128612e+2, 7.12158e+1, 104378.42, -221874.34, 763.5943, 0.0013434793, 0.0041789184, 104380.2, 104380.2, 0.0, 2.5004723, 2.4993916 
1.9128612e+2, 7.3715186e+1, 104177.195, -218962.73, 2244.5115, 0.0014261736, 0.0030079843, 104192.78, 104192.78, 0.0, 2.5004687, 2.4993985 
1.9128613e+2, 7.6214576e+1, 102077.06, -219982.05, 2224.1936, 0.0015301328, 0.0018306682, 102092.42, 102092.42, 0.0, 2.5004652, 2.4993982 
1.9128615e+2, 7.8713965e+1, 99972.18, -221003.64, 2203.5984, 0.0016579938, 0.00065748586, 99987.305, 99987.305, 0.0, 2.5004616, 2.4993982 
1.9128613e+2, 8.1213427e+1, 139120.17, -140872.25, -1786.637, 0.001058046, 0.00079148734, 139131.56, 139131.56, 0.0, 2.5004628, 2.4995353 
1.9128612e+2, 8.371298e+1, 144418.47, -134642.6, 268.34143, 0.000078580095, 0.001174578, 144418.73, 144418.73, 0.0, 2.500468, 2.4995434 
1.912861e+2, 8.621252e+1, 147404.6, -133199.45, 310.06155, -0.00087967823, 0.0015474504, 147404.92, 147404.92, 0.0, 2.500473, 2.4995434 
1.9128609e+2, 8.8712066e+1, 150384.61, -131759.25, 352.17563, -0.0018196558, 0.0019175018, 150385.05, 150385.05, 0.0, 2.500478, 2.4995434 
1.9128609e+2, 9.1211694e+1, 191088.16, -47628.484, -471.10977, -0.0005620696, 0.0032937182, 191089.08, 191089.08, 0.0, 2.5004785, 2.4996877 
1.912861e+2, 9.371139e+1, 190701.02, -43091.71, 2156.3145, 0.0005989354, 0.0029469125, 190720.89, 190720.89, 0.0, 2.5004728, 2.4996984 
1.9128613e+2, 9.621108e+1, 187335.78, -44707.43, 2249.8623, 0.001815503, 0.002572023, 187357.6, 187357.6, 0.0, 2.500467, 2.4996984 
1.9128615e+2, 9.871077e+1, 183954.84, -46330.715, 2343.7578, 0.0031066956, 0.0021898618, 183978.7, 183978.7, 0.0, 2.5004613, 2.4996984 
1.9378656e+2, 1.2491695e+0, -194810.06, -838915.06, 113.576744, 0.0025979895, 0.00009447682, -194810.05, -194810.05, 0.0, 2.5004673, 2.4983354 
1.9378656e+2, 3.7475085e+0, -195108.72, -839343.5, 26.628902, 0.0022704727, 0.00028352076, -195108.72, -195108.72, 0.0, 2.500467, 2.4983346 
1.9378656e+2, 6.2458473e+0, -195233.47, -839408.0, -22.496828, 0.0019479088, 0.0004726857, -195233.45, -195233.45, 0.0, 2.500467, 2.4983346 
1.9378656e+2, 8.744186e+0, -195359.89, -839473.25, -71.75937, 0.0016302981, 0.0006619716, -195359.88, -195359.88, 0.0, 2.5004668, 2.4983346 
1.9378656e+2, 1.1242601e+1, -153346.78, -752258.56, 363.6306, 0.001489361, 0.0010514822, -153346.56, -153346.56, 0.0, 2.5004668, 2.4984841 
1.9378656e+2, 1.374109e+1, -153013.88, -751659.1, 221.77084, 0.0016224345, 0.0012221967, -153013.8, -153013.8, 0.0, 2.5004668, 2.498485 
1.9378656e+2, 1.6239578e+1, -152964.2, -751645.1, 315.72623, 0.0017639801, 0.0013906636, -152964.03, -152964.03, 0.0, 2.500467, 2.498485 
1.9378656e+2, 1.8738067e+1, -152916.16, -751631.94, 409.6259, 0.0019138836, 0.0015573853, -152915.88, -152915.88, 0.0, 2.500467, 2.498485 
1.9378658e+2, 2.1236633e+1, -110795.664, -664512.8, 696.9356, 0.0019056117, 0.0019732122, -110794.79, -110794.79, 0.0, 2.5004675, 2.4986343 
1.9378656e+2, 2.3735271e+1, -110023.195, -663399.75, 286.71738, 0.0015416485, 0.0020531868, -110023.05, -110023.05, 0.0, 2.500468, 2.498636 
1.9378656e+2, 2.623391e+1, -109726.75, -663271.9, 159.03964, 0.001181525, 0.0021305142, -109726.7, -109726.7, 0.0, 2.5004685, 2.498636 
1.9378656e+2, 2.8732547e+1, -109432.26, -663144.94, 31.262396, 0.0008257553, 0.0022066361, -109432.25, -109432.25, 0.0, 2.5004692, 2.498636 
1.9378656e+2, 3.1231263e+1, -68097.03, -577203.94, 466.20358, 0.0007499185, 0.002702541, -68096.6, -68096.6, 0.0, 2.500469, 2.4987833 
1.9378658e+2, 3.3730048e+1, -68132.625, -576171.7, 389.13602, 0.0010185291, 0.0027280971, -68132.33, -68132.33, 0.0, 2.5004678, 2.4987857 
1.9378658e+2, 3.6228836e+1, -68839.64, -576529.44, 502.50842, 0.0012905671, 0.002749516, -68839.14, -68839.14, 0.0, 2.5004666, 2.4987857 
1.9378659e+2, 3.8727626e+1, -69548.57, -576888.06, 615.8611, 0.0015658351, 0.002769964, -69547.82, -69547.82, 0.0, 2.5004654, 2.4987857 
1.9378659e+2, 4.122649e+1, -27437.807, -489883.47, 220.80978, 0.0017035122, 0.003219603, -27437.701, -27437.701, 0.0, 2.5004659, 2.4989347 
1.9378659e+2, 4.3725425e+1, -25593.39, -487667.16, 146.82718, 0.0013622622, 0.0030832596, -25593.344, -25593.344, 0.0, 2.5004678, 2.4989376 
1.9378658e+2, 4.6224365e+1, -24597.31, -487206.03, 74.11786, 0.0010296846, 0.0029451891, -24597.299, -24597.299, 0.0, 2.5004694, 2.4989376 
1.9378658e+2, 4.87233e+1, -23604.38, -486746.38, 1.477627, 0.0007072807, 0.0028100323, -23604.38, -23604.38, 0.0, 2.500471, 2.4989376 
1.9378658e+2, 5.122232e+1, 18330.467, -399456.13, 194.66283, 0.0007373237, 0.0032426764, 18330.559, 18330.559, 0.0, 2.5004709, 2.4990873 
1.9378659e+2, 5.372141e+1, 17638.057, -398029.25, 582.42645, 0.0011143012, 0.0030159068, 17638.873, 17638.873, 0.0, 2.500468, 2.4990914 
1.9378659e+2, 5.6220496e+1, 15827.014, -398917.66, 689.94995, 0.0014935549, 0.002781753, 15828.161, 15828.161, 0.0, 2.500465, 2.4990914 
1.9378659e+2, 5.871959e+1, 14013.476, -399807.28, 797.25244, 0.0018749894, 0.0025467956, 14015.012, 14015.012, 0.0, 2.5004618, 2.4990914 
1.9378659e+2, 6.1218756e+1, 55091.813, -314937.28, -229.09259, 0.002050466, 0.0031540003, 55091.953, 55091.953, 0.0, 2.5004623, 2.4992368 
1.9378659e+2, 6.3718e+1, 58440.84, -310993.47, 631.4994, 0.0017769687, 0.0032647375, 58441.92, 58441.92, 0.0, 2.5004654, 2.4992418 
1.9378659e+2, 6.621725e+1, 60316.484, -310099.9, 711.95123, 0.00151049, 0.0033680147, 60317.85, 60317.85, 0.0, 2.5004687, 2.4992418 
1.9378659e+2, 6.8716484e+1, 62188.496, -309208.06, 792.38556, 0.0012522899, 0.0034719983, 62190.184, 62190.184, 0.0, 2.5004718, 2.4992418 
1.9378659e+2, 7.12158e+1, 104394.42, -221945.36, 284.95566, 0.0014265747, 0.0037323546, 104394.67, 104394.67, 0.0, 2.5004723, 2.4993916 
1.9378659e+2, 7.3715186e+1, 104231.56, -218957.92, 1701.3977, 0.0015992523, 0.0025651115, 104240.516, 104240.516, 0.0, 2.5004687, 2.4993982 
1.937866e+2, 7.6214576e+1, 102135.836, -219971.45, 1685.632, 0.0017806616, 0.0013906372, 102144.66, 102144.66, 0.0, 2.5004652, 2.4993982 
1.937866e+2, 7.8713965e+1, 100035.35, -220987.28, 1669.5889, 0.0019737359, 0.00021947017, 100044.03, 100044.03, 0.0, 2.5004616, 2.4993982 
1.9378659e+2, 8.1213427e+1, 139243.06, -140772.63, -969.4424, 0.0014489713, 0.00036242115, 139246.4, 139246.4, 0.0, 2.500463, 2.4995353 
1.9378659e+2, 8.371298e+1, 144631.02, -134356.0, 1045.8086, 0.0005096419, 0.00074717903, 144634.94, 144634.94, 0.0, 2.500468, 2.499544 
1.9378658e+2, 8.621252e+1, 147615.92, -132914.05, 1091.9314, -0.0004229198, 0.0011224892, 147620.17, 147620.17, 0.0, 2.5004733, 2.499544 
1.9378658e+2, 8.871207e+1, 150594.73, -131475.03, 1138.4481, -0.0013512485, 0.0014958946, 150599.33, 150599.33, 0.0, 2.5004783, 2.499544 
1.9378658e+2, 9.1211694e+1, 191384.14, -47282.676, -1287.5353, -0.00013777464, 0.0027897705, 191391.08, 191391.08, 0.0, 2.500479, 2.4996881 
1.9378658e+2, 9.371139e+1, 191162.11, -42402.465, 1296.3484, 0.0008186896, 0.0021415853, 191169.31, 191169.31, 0.0, 2.5004733, 2.4996994 
1.9378659e+2, 9.6211076e+1, 187795.73, -44018.41, 1402.1393, 0.0017980628, 0.0014641833, 187804.22, 187804.22, 0.0, 2.5004673, 2.4996994 
1.937866e+2, 9.871077e+1, 184413.64, -45641.92, 1508.2775, 0.002820067, 0.0007794117, 184423.52, 184423.52, 0.0, 2.5004616, 2.4996994 
1.9628702e+2, 1.2491693e+0, -194906.67, -839116.1, 78.02034, 0.002008074, 0.00009622347, -194906.67, -194906.67, 0.0, 2.5004673, 2.498335 
1.9628702e+2, 3.747508e+0, -195206.45, -839547.6, -8.714118, 0.0018548237, 0.0002885033, -195206.45, -195206.45, 0.0, 2.500467, 2.4983344 
1.9628702e+2, 6.245847e+0, -195330.31, -839610.94, -55.29064, 0.001698969, 0.00048056094, -195330.31, -195330.31, 0.0, 2.500467, 2.4983344 
1.9628702e+2, 8.7441856e+0, -195455.84, -839675.1, -102.00398, 0.0015405103, 0.0006723963, -195455.83, -195455.83, 0.0, 2.5004668, 2.4983344 
1.9628702e+2, 1.12426005e+1, -153171.94, -751896.56, 391.6037, 0.0015414968, 0.0010123429, -153171.69, -153171.69, 0.0, 2.5004668, 2.4984848 
1.9628704e+2, 1.374109e+1, -152846.39, -751312.8, 233.27887, 0.0017662003, 0.0010952879, -152846.3, -152846.3, 0.0, 2.5004668, 2.4984858 
1.9628704e+2, 1.6239576e+1, -152797.0, -751299.75, 329.81607, 0.0019931807, 0.0011762326, -152796.81, -152796.81, 0.0, 2.500467, 2.4984858 
1.9628704e+2, 1.8738066e+1, -152749.25, -751287.56, 426.29758, 0.0022223736, 0.0012556631, -152748.94, -152748.94, 0.0, 2.500467, 2.4984858 
1.9628704e+2, 2.1236631e+1, -111024.68, -665000.25, 786.8019, 0.002159316, 0.0016847929, -111023.56, -111023.56, 0.0, 2.5004675, 2.4986334 
1.9628704e+2, 2.373527e+1, -110254.59, -663891.6, 359.1568, 0.00170202, 0.0018529168, -110254.36, -110254.36, 0.0, 2.500468, 2.498635 
1.9628704e+2, 2.623391e+1, -109958.336, -663763.56, 234.19637, 0.0012423198, 0.002019005, -109958.234, -109958.234, 0.0, 2.5004685, 2.498635 
1.9628704e+2, 2.8732547e+1, -109664.02, -663636.5, 109.136444, 0.0007804779, 0.002184566, -109664.01, -109664.01, 0.0, 2.5004692, 2.498635 
1.9628704e+2, 3.1231263e+1, -67864.805, -576729.94, 322.8968, 0.0006870656, 0.0027199602, -67864.6, -67864.6, 0.0, 2.500469, 2.4987843 
1.9628704e+2, 3.3730048e+1, -67915.45, -575729.1, 204.26123, 0.000910911, 0.0027446013, -67915.375, -67915.375, 0.0, 2.5004678, 2.4987864 
1.9628705e+2, 3.622884e+1, -68622.414, -576086.8, 320.14438, 0.0011314094, 0.002765782, -68622.21, -68622.21, 0.0, 2.5004666, 2.4987864 
1.9628705e+2, 3.8727626e+1, -69331.29, -576445.44, 436.00775, 0.001348779, 0.0027866364, -69330.914, -69330.914, 0.0, 2.5004654, 2.4987864 
1.9628705e+2, 4.122649e+1, -27544.396, -490123.97, 513.2952, 0.0014730024, 0.0032246013, -27543.826, -27543.826, 0.0, 2.500466, 2.4989343 
1.9628705e+2, 4.372543e+1, -25713.809, -487937.5, 404.51663, 0.001315645, 0.0030879297, -25713.455, -25713.455, 0.0, 2.5004678, 2.4989371 
1.9628705e+2, 4.6224365e+1, -24716.275, -487474.3, 335.30005, 0.0011589947, 0.0029497724, -24716.031, -24716.031, 0.0, 2.5004694, 2.4989371 
1.9628705e+2, 4.87233e+1, -23721.89, -487012.66, 266.15253, 0.0010038663, 0.0028146773, -23721.738, -23721.738, 0.0, 2.500471, 2.4989371 
1.9628705e+2, 5.122232e+1, 18530.598, -399068.84, -208.92969, 0.0011382044, 0.0033465198, 18530.703, 18530.703, 0.0, 2.500471, 2.499088 
1.9628705e+2, 5.372141e+1, 17862.35, -397594.84, 111.92213, 0.0014323118, 0.003224783, 17862.379, 17862.379, 0.0, 2.500468, 2.499092 
1.9628707e+2, 5.62205e+1, 16054.517, -398479.53, 222.57414, 0.001720508, 0.003094701, 16054.636, 16054.636, 0.0, 2.500465, 2.499092 
1.9628707e+2, 5.8719593e+1, 14244.188, -399365.4, 333.0052, 0.002003347, 0.0029633807, 14244.457, 14244.457, 0.0, 2.5004618, 2.499092 
1.9628707e+2, 6.121876e+1, 55278.742, -314606.38, 302.24146, 0.0020939962, 0.003508727, 55278.99, 55278.99, 0.0, 2.5004623, 2.4992373 
1.9628707e+2, 6.371801e+1, 58639.11, -310642.47, 1120.7738, 0.0018199994, 0.0033874733, 58642.51, 58642.51, 0.0, 2.5004656, 2.4992425 
1.9628707e+2, 6.621725e+1, 60517.168, -309747.03, 1205.0073, 0.0015437079, 0.0032584537, 60521.09, 60521.09, 0.0, 2.5004687, 2.4992425 
1.9628707e+2, 6.871649e+1, 62391.594, -308853.34, 1289.2234, 0.0012659753, 0.003129844, 62396.07, 62396.07, 0.0, 2.500472, 2.4992425 
1.9628707e+2, 7.12158e+1, 104396.914, -222044.44, -189.09393, 0.0015076852, 0.0032876225, 104397.02, 104397.02, 0.0, 2.5004725, 2.4993913 
1.9628707e+2, 7.3715186e+1, 104285.2, -218954.63, 1157.928, 0.001766259, 0.0021211044, 104289.35, 104289.35, 0.0, 2.500469, 2.4993982 
1.9628707e+2, 7.6214576e+1, 102193.875, -219962.39, 1146.7144, 0.002020885, 0.00094632455, 102197.96, 102197.96, 0.0, 2.5004654, 2.4993982 
1.9628708e+2, 7.8713965e+1, 100097.8, -220972.44, 1135.2234, 0.002274939, -0.00022597481, 100101.81, 100101.81, 0.0, 2.5004618, 2.4993982 
1.9628707e+2, 8.1213427e+1, 139352.4, -140701.16, -147.52937, 0.0018436691, -0.000066471475, 139352.48, 139352.48, 0.0, 2.500463, 2.4995353 
1.9628707e+2, 8.371298e+1, 144843.05, -134070.45, 1822.9465, 0.00094422203, 0.0003179501, 144854.97, 144854.97, 0.0, 2.5004683, 2.4995444 
1.9628707e+2, 8.621252e+1, 147826.75, -132629.69, 1873.472, 0.00003681301, 0.00069356104, 147839.27, 147839.27, 0.0, 2.5004733, 2.4995444 
1.9628707e+2, 8.871207e+1, 150804.36, -131191.86, 1924.3914, -0.0008804107, 0.0010681836, 150817.5, 150817.5, 0.0, 2.5004785, 2.4995444 
1.9628705e+2, 9.1211694e+1, 191664.05, -46970.242, -2079.7932, 0.00025297876, 0.002292494, 191682.17, 191682.17, 0.0, 2.5004792, 2.4996886 
1.9628707e+2, 9.371139e+1, 191622.45, -41714.81, 436.1242, 0.0010049503, 0.0013385878, 191623.28, 191623.28, 0.0, 2.5004735, 2.4997005 
1.9628707e+2, 9.6211076e+1, 188254.92, -43330.98, 554.1578, 0.0017477222, 0.0003541149, 188256.23, 188256.23, 0.0, 2.5004675, 2.4997005 
1.9628707e+2, 9.8710763e+1, 184871.66, -44954.715, 672.53894, 0.002501131, -0.0006378254, 184873.63, 184873.63, 0.0, 2.5004618, 2.4997005 
1.987875e+2, 1.24916926e+0, -195892.14, -839746.25, 41.975983, 0.0014195159, 0.00009737013, -195892.14, -195892.14, 0.0, 2.5004659, 2.4983346 
1.987875e+2, 3.7475076e+0, -196137.5, -840155.1, -47.861702, 0.0014395628, 0.00029169483, -196137.48, -196137.48, 0.0, 2.5004656, 2.498334 
1.987875e+2, 6.2458456e+0, -196242.39, -840208.6, -95.7225, 0.0014497407, 0.00048546607, -196242.38, -196242.38, 0.0, 2.5004656, 2.498334 
1.987875e+2, 8.7441844e+0, -196387.11, -840281.3, -144.64436, 0.0014500497, 0.00067868375, -196387.08, -196387.08, 0.0, 2.5004654, 2.498334 
1.987875e+2, 1.1242598e+1, -153815.83, -751939.94, 404.20193, 0.0015966325, 0.00097406335, -153815.56, -153815.56, 0.0, 2.5004654, 2.4984853 
1.987875e+2, 1.3741086e+1, -153424.05, -751327.25, 231.23055, 0.0019128004, 0.0009664847, -153423.95, -153423.95, 0.0, 2.5004656, 2.4984863 
1.9878751e+2, 1.6239575e+1, -153342.66, -751299.6, 332.65424, 0.002225203, 0.000957176, -153342.48, -153342.48, 0.0, 2.5004659, 2.4984863 
1.9878751e+2, 1.8738064e+1, -153298.56, -751290.0, 435.32465, 0.0025338365, 0.0009466226, -153298.25, -153298.25, 0.0, 2.5004659, 2.4984863 
1.9878751e+2, 2.123663e+1, -111951.16, -665841.9, 873.18304, 0.0024100463, 0.001396085, -111949.78, -111949.78, 0.0, 2.5004663, 2.4986327 
1.9878751e+2, 2.3735267e+1, -111108.89, -664685.06, 419.91504, 0.0018586493, 0.001649542, -111108.57, -111108.57, 0.0, 2.500467, 2.4986343 
1.9878751e+2, 2.6233906e+1, -110779.09, -664540.6, 290.55258, 0.0012988582, 0.0019015109, -110778.94, -110778.94, 0.0, 2.5004675, 2.4986343 
1.9878751e+2, 2.8732544e+1, -110481.56, -664411.75, 159.07524, 0.0007306515, 0.00215361, -110481.516, -110481.516, 0.0, 2.500468, 2.4986343 
1.9878751e+2, 3.123126e+1, -68181.2, -576537.25, 139.16545, 0.00062846707, 0.0027380928, -68181.164, -68181.164, 0.0, 2.500468, 2.498785 
1.9878751e+2, 3.3730048e+1, -68150.03, -575506.0, -37.110077, 0.00080612913, 0.0027590601, -68150.03, -68150.03, 0.0, 2.500467, 2.4987872 
1.9878751e+2, 3.622884e+1, -68806.65, -575839.56, 62.400455, 0.00097384874, 0.0027771427, -68806.64, -68806.64, 0.0, 2.5004659, 2.4987872 
1.9878751e+2, 3.8727626e+1, -69502.24, -576191.9, 159.34827, 0.0011323226, 0.0027955237, -69502.195, -69502.195, 0.0, 2.500465, 2.4987872 
1.9878753e+2, 4.1226494e+1, -28017.002, -490560.3, 678.8301, 0.0012380275, 0.0032296344, -28016.006, -28016.006, 0.0, 2.5004654, 2.4989338 
1.9878753e+2, 4.372543e+1, -26144.09, -488359.38, 486.59695, 0.0012620146, 0.0030899055, -26143.576, -26143.576, 0.0, 2.5004673, 2.4989367 
1.9878753e+2, 4.6224365e+1, -25145.842, -487894.6, 373.89792, 0.0012790078, 0.0029487442, -25145.54, -25145.54, 0.0, 2.500469, 2.4989367 
1.9878753e+2, 4.87233e+1, -24196.754, -487453.5, 259.66064, 0.0012890857, 0.0028106915, -24196.61, -24196.61, 0.0, 2.5004706, 2.4989367 
1.9878753e+2, 5.122232e+1, 18379.885, -398876.5, -920.2955, 0.0015443835, 0.003453737, 18381.916, 18381.916, 0.0, 2.5004704, 2.4990888 
1.9878753e+2, 5.372141e+1, 17845.594, -397278.75, -691.9806, 0.001752128, 0.0034335123, 17846.748, 17846.748, 0.0, 2.5004675, 2.4990928 
1.9878753e+2, 5.622051e+1, 16088.63, -398136.88, -608.3754, 0.0019459012, 0.003403871, 16089.523, 16089.523, 0.0, 2.5004644, 2.4990928 
1.9878753e+2, 5.87196e+1, 14281.8955, -399018.94, -528.90063, 0.0021270958, 0.0033725973, 14282.572, 14282.572, 0.0, 2.5004616, 2.4990928 
1.9878753e+2, 6.121877e+1, 55254.4, -314398.66, 412.8296, 0.0021362267, 0.0038658683, 55254.86, 55254.86, 0.0, 2.500462, 2.4992378 
1.9878753e+2, 6.371801e+1, 58620.363, -310397.22, 1172.0709, 0.0018586015, 0.0035095003, 58624.086, 58624.086, 0.0, 2.5004652, 2.499243 
1.9878754e+2, 6.621725e+1, 60425.617, -309536.2, 1244.7863, 0.0015696351, 0.0031449178, 60429.805, 60429.805, 0.0, 2.5004683, 2.499243 
1.9878754e+2, 6.871649e+1, 62170.406, -308704.28, 1316.7467, 0.0012698233, 0.0027804442, 62175.082, 62175.082, 0.0, 2.5004714, 2.499243 
1.9878754e+2, 7.12158e+1, 103941.08, -222384.8, -1123.7186, 0.0015879171, 0.0028471716, 103944.945, 103944.945, 0.0, 2.5004718, 2.499391 
1.9878754e+2, 7.3715186e+1, 103970.67, -219128.97, 167.85025, 0.0019278957, 0.0016786576, 103970.76, 103970.76, 0.0, 2.5004685, 2.4993982 
1.9878754e+2, 7.6214576e+1, 101877.29, -220134.28, 173.37683, 0.0022515387, 0.0005006384, 101877.38, 101877.38, 0.0, 2.500465, 2.4993982 
1.9878754e+2, 7.8713965e+1, 99695.305, -221182.28, 171.90991, 0.0025628102, -0.0006757587, 99695.39, 99695.39, 0.0, 2.500461, 2.4993982 
1.9878754e+2, 8.121343e+1, 138904.4, -140917.78, 271.62378, 0.0022432148, -0.0004921044, 138904.67, 138904.67, 0.0, 2.5004623, 2.4995353 
1.9878754e+2, 8.371298e+1, 144439.13, -134080.44, 2234.9631, 0.0013828276, -0.00011017914, 144457.06, 144457.06, 0.0, 2.5004673, 2.4995449 
1.9878754e+2, 8.621252e+1, 147254.47, -132721.38, 2333.286, 0.0005001847, 0.00026344982, 147273.92, 147273.92, 0.0, 2.500472, 2.4995449 
1.9878754e+2, 8.871207e+1, 149968.2, -131411.27, 2432.7131, -0.00040559494, 0.0006370173, 149989.23, 149989.23, 0.0, 2.5004768, 2.4995449 
1.9878754e+2, 9.12117e+1, 190780.31, -47239.902, -3046.2664, 0.00061170344, 0.0018044296, 190819.3, 190819.3, 0.0, 2.5004776, 2.499689 
1.9878754e+2, 9.371139e+1, 190954.9, -41567.715, -512.53687, 0.0011583166, 0.0005404551, 190956.03, 190956.03, 0.0, 2.5004718, 2.4997015 
1.9878753e+2, 9.6211076e+1, 187438.48, -43255.36, -275.10913, 0.0016651175, -0.0007555752, 187438.81, 187438.81, 0.0, 2.5004656, 2.4997015 
1.9878753e+2, 9.8710763e+1, 183738.13, -45031.586, -40.369995, 0.0021515132, -0.0020590927, 183738.14, 183738.14, 0.0, 2.5004594, 2.4997015 
2.0128796e+2, 1.2491689e+0, -195925.19, -839853.5, 121.96414, 0.0015481208, 0.000075199765, -195925.16, -195925.16, 0.0, 2.5004659, 2.4983344 
2.0128796e+2, 3.7475067e+0, -195612.2, -839998.5, 66.86769, 0.0015087685, 0.00022568181, -195612.2, -195612.2, 0.0, 2.5004668, 2.4983337 
2.0128796e+2, 6.2458444e+0, -195117.4, -839764.4, 57.71063, 0.0014764731, 0.0003762745, -195117.4, -195117.4, 0.0, 2.5004675, 2.4983337 
2.0128796e+2, 8.7441814e+0, -194623.5, -839530.7, 48.445797, 0.0014512341, 0.0005269777, -194623.5, -194623.5, 0.0, 2.5004685, 2.4983337 
2.0128797e+2, 1.1242597e+1, -151869.55, -751031.5, 489.3967, 0.001578312, 0.000857209, -151869.16, -151869.16, 0.0, 2.5004687, 2.4984853 
2.0128797e+2, 1.3741086e+1, -151795.23, -750579.75, 90.129906, 0.0018494984, 0.0009728058, -151795.22, -151795.22, 0.0, 2.5004685, 2.4984863 
2.0128797e+2, 1.6239576e+1, -151988.38, -750682.2, -20.015224, 0.0021253957, 0.001088331, -151988.38, -151988.38, 0.0, 2.5004683, 2.4984863 
2.0128798e+2, 1.8738066e+1, -152182.31, -750784.94, -130.50822, 0.0024060342, 0.0012042584, -152182.28, -152182.28, 0.0, 2.5004678, 2.4984863 
2.0128798e+2, 2.1236631e+1, -111160.17, -665548.06, 390.38474, 0.0022948044, 0.001697752, -111159.89, -111159.89, 0.0, 2.5004678, 2.4986324 
2.0128798e+2, 2.373527e+1, -110869.93, -664673.25, 81.05851, 0.001883485, 0.0018960179, -110869.914, -110869.914, 0.0, 2.5004675, 2.498634 
2.0128798e+2, 2.6233906e+1, -111055.086, -664782.6, 133.05142, 0.0014770282, 0.0020911007, -111055.055, -111055.055, 0.0, 2.5004673, 2.498634 
2.0128798e+2, 2.8732544e+1, -111241.445, -664892.6, 184.7182, 0.0010751989, 0.0022846516, -111241.39, -111241.39, 0.0, 2.500467, 2.4986339 
2.0128798e+2, 3.123126e+1, -68651.83, -576645.44, 175.25449, 0.000989675, 0.0027968397, -68651.766, -68651.766, 0.0, 2.5004673, 2.4987853 
2.0128798e+2, 3.3730048e+1, -67848.22, -575270.0, -165.90968, 0.00096439314, 0.0027457825, -67848.164, -67848.164, 0.0, 2.5004675, 2.4987874 
2.0128798e+2, 3.6228836e+1, -67682.18, -575214.56, -188.2894, 0.00094285235, 0.002689402, -67682.11, -67682.11, 0.0, 2.5004678, 2.4987874 
2.0128798e+2, 3.8727623e+1, -67517.82, -575159.9, -210.9736, 0.0009259958, 0.0026308403, -67517.73, -67517.73, 0.0, 2.500468, 2.4987874 
2.0128798e+2, 4.122649e+1, -26447.38, -489761.8, 524.7602, 0.0010013736, 0.003096231, -26446.785, -26446.785, 0.0, 2.500468, 2.4989338 
2.0128798e+2, 4.372543e+1, -26494.588, -488494.66, 524.70856, 0.0012360567, 0.0030763955, -26493.992, -26493.992, 0.0, 2.5004666, 2.4989367 
2.01288e+2, 4.6224365e+1, -27368.848, -488938.3, 662.792, 0.0014759505, 0.003047191, -27367.895, -27367.895, 0.0, 2.5004652, 2.4989367 
2.01288e+2, 4.8723304e+1, -28245.016, -489382.88, 800.537, 0.0017207059, 0.00301325, -28243.627, -28243.627, 0.0, 2.5004637, 2.4989367 
2.01288e+2, 5.122232e+1, 14557.2, -400786.1, -375.99994, 0.0020398055, 0.0037057204, 14557.541, 14557.541, 0.0, 2.500464, 2.4990885 
2.01288e+2, 5.3721416e+1, 16591.664, -397945.56, -400.16843, 0.0020721785, 0.0036678135, 16592.05, 16592.05, 0.0, 2.5004654, 2.4990926 
2.01288e+2, 5.622051e+1, 17444.0, -397553.28, -506.72552, 0.0021086438, 0.0036222497, 17444.62, 17444.62, 0.0, 2.500467, 2.4990926 
2.01288e+2, 5.87196e+1, 18293.807, -397162.25, -613.56995, 0.0021509663, 0.0035769315, 18294.713, 18294.713, 0.0, 2.5004685, 2.4990926 
2.01288e+2, 6.121877e+1, 59415.69, -312063.56, 557.79846, 0.0021472366, 0.0039965156, 59416.53, 59416.53, 0.0, 2.5004687, 2.4992385 
2.01288e+2, 6.371801e+1, 59791.094, -309462.6, 1346.3192, 0.0020083052, 0.0034713089, 59796.0, 59796.0, 0.0, 2.5004668, 2.499244 
2.01288e+2, 6.621725e+1, 58636.688, -310029.47, 1515.8083, 0.0018759547, 0.00293639, 58642.92, 58642.92, 0.0, 2.500465, 2.499244 
2.0128801e+2, 6.8716484e+1, 57479.832, -310597.5, 1684.913, 0.0017505316, 0.0024002886, 57487.543, 57487.543, 0.0, 2.5004628, 2.4992437 
2.0128801e+2, 7.12158e+1, 98854.22, -225202.48, -898.41144, 0.0021231938, 0.00256449, 98856.71, 98856.71, 0.0, 2.5004635, 2.4993901 
2.0128801e+2, 7.371519e+1, 102117.1, -220330.22, 77.56678, 0.0023498656, 0.00173544, 102117.12, 102117.12, 0.0, 2.5004656, 2.4993975 
2.0128801e+2, 7.621458e+1, 103296.945, -219772.7, -152.35802, 0.0025838474, 0.00089439796, 103297.016, 103297.016, 0.0, 2.5004675, 2.4993975 
2.0128801e+2, 7.871397e+1, 104473.18, -219216.92, -382.56616, 0.0028294167, 0.00005272721, 104473.63, 104473.63, 0.0, 2.5004697, 2.4993975 
2.01288e+2, 8.121343e+1, 143904.88, -137792.19, 184.47247, 0.0025591657, 0.00022900134, 143904.98, 143904.98, 0.0, 2.5004702, 2.499537 
2.0128801e+2, 8.3712983e+1, 145209.03, -132809.48, 2444.3555, 0.0017891509, 0.00020309183, 145230.52, 145230.52, 0.0, 2.5004678, 2.4995468 
2.0128801e+2, 8.6212534e+1, 143774.58, -133497.44, 2908.452, 0.0010381499, 0.0001683891, 143805.1, 143805.1, 0.0, 2.5004652, 2.4995468 
2.0128801e+2, 8.871207e+1, 142334.02, -134188.33, 3372.4316, 0.00030593196, 0.00013350204, 142375.14, 142375.14, 0.0, 2.5004628, 2.4995468 
2.0128801e+2, 9.12117e+1, 183204.14, -51135.418, -2251.261, 0.001261514, 0.001231214, 183225.77, 183225.77, 0.0, 2.5004647, 2.4996884 
2.0128801e+2, 9.371139e+1, 189771.33, -42162.78, -390.89804, 0.0014844423, 0.00014262524, 189771.98, 189771.98, 0.0, 2.5004697, 2.4997015 
2.01288e+2, 9.6211076e+1, 192681.94, -40759.29, -736.5994, 0.0017119593, -0.0009716969, 192684.27, 192684.27, 0.0, 2.5004747, 2.4997015 
2.01288e+2, 9.871077e+1, 195581.75, -39361.0, -1081.7595, 0.0019636147, -0.0020863565, 195586.73, 195586.73, 0.0, 2.5004797, 2.4997015 
2.0378841e+2, 1.2491684e+0, -195943.39, -839891.6, 250.93733, 0.0021258013, 0.000026157748, -195943.3, -195943.3, 0.0, 2.5004659, 2.4983344 
2.0378841e+2, 3.7475052e+0, -195632.27, -840041.2, 193.94559, 0.0018623588, 0.00007833848, -195632.22, -195632.22, 0.0, 2.5004668, 2.4983337 
2.0378841e+2, 6.245842e+0, -195137.16, -839807.06, 186.18706, 0.0016019604, 0.00013034014, -195137.11, -195137.11, 0.0, 2.5004675, 2.4983337 
2.0378841e+2, 8.744179e+0, -194642.94, -839573.3, 178.32076, 0.001344606, 0.0001821626, -194642.89, -194642.89, 0.0, 2.5004685, 2.4983337 
2.0378841e+2, 1.1242594e+1, -152058.23, -751431.0, 451.02615, 0.0012873472, 0.0006178878, -152057.89, -152057.89, 0.0, 2.5004687, 2.4984846 
2.0378841e+2, 1.3741086e+1, -151993.02, -751000.1, 37.72166, 0.0014215421, 0.0010621204, -151993.02, -151993.02, 0.0, 2.5004685, 2.4984856 
2.0378843e+2, 1.6239578e+1, -152185.58, -751103.25, -70.82127, 0.001557762, 0.001506008, -152185.58, -152185.58, 0.0, 2.5004683, 2.4984856 
2.0378843e+2, 1.873807e+1, -152378.95, -751206.75, -179.71207, 0.0016960381, 0.0019500041, -152378.9, -152378.9, 0.0, 2.5004678, 2.4984856 
2.0378843e+2, 2.1236636e+1, -111028.29, -665294.6, 385.04333, 0.0016747669, 0.0025005608, -111028.02, -111028.02, 0.0, 2.5004678, 2.498633 
2.0378843e+2, 2.3735271e+1, -110756.28, -664458.94, 30.860643, 0.0016419896, 0.0024946588, -110756.28, -110756.28, 0.0, 2.5004675, 2.4986343 
2.0378843e+2, 2.623391e+1, -110941.24, -664569.2, 84.478134, 0.001611165, 0.002486055, -110941.23, -110941.23, 0.0, 2.5004673, 2.4986343 
2.0378846e+2, 2.8732544e+1, -111127.41, -664680.0, 137.76952, 0.0015819265, 0.002476377, -111127.375, -111127.375, 0.0, 2.500467, 2.4986343 
2.0378846e+2, 3.1231257e+1, -68639.78, -576664.7, 254.54703, 0.0015313874, 0.0027907696, -68639.66, -68639.66, 0.0, 2.5004673, 2.4987853 
2.0378846e+2, 3.3730045e+1, -67853.73, -575327.06, -125.63995, 0.0012043817, 0.0025910607, -67853.695, -67853.695, 0.0, 2.5004675, 2.4987874 
2.0378843e+2, 3.6228833e+1, -67687.516, -575272.5, -146.33131, 0.000877907, 0.0023873837, -67687.48, -67687.48, 0.0, 2.5004678, 2.4987872 
2.0378843e+2, 3.872762e+1, -67522.984, -575218.8, -167.32715, 0.00055289955, 0.0021827528, -67522.93, -67522.93, 0.0, 2.5004683, 2.4987872 
2.0378846e+2, 4.1226485e+1, -26141.9, -489189.84, 367.42154, 0.000591192, 0.0026846894, -26141.607, -26141.607, 0.0, 2.500468, 2.4989347 
2.0378846e+2, 4.3725425e+1, -26187.713, -487920.47, 296.47562, 0.0010915434, 0.0028488503, -26187.521, -26187.521, 0.0, 2.5004666, 2.4989376 
2.0378846e+2, 4.6224365e+1, -27062.293, -488365.38, 436.32742, 0.0015936687, 0.0030052925, -27061.88, -27061.88, 0.0, 2.5004652, 2.4989376 
2.0378847e+2, 4.8723304e+1, -27938.783, -488811.16, 575.8408, 0.0020971152, 0.003158838, -27938.064, -27938.064, 0.0, 2.5004637, 2.4989376 
2.0378847e+2, 5.1222324e+1, 14450.346, -401100.0, -105.45286, 0.0024257973, 0.0038310133, 14450.372, 14450.372, 0.0, 2.500464, 2.499088 
2.0378847e+2, 5.3721416e+1, 16468.361, -398295.8, -179.95914, 0.0022474388, 0.0036372694, 16468.44, 16468.44, 0.0, 2.5004656, 2.499092 
2.0378847e+2, 5.622051e+1, 17321.807, -397903.16, -284.12823, 0.0020689922, 0.003437216, 17322.0, 17322.0, 0.0, 2.500467, 2.499092 
2.0378846e+2, 5.87196e+1, 18172.72, -397511.7, -388.58466, 0.0018920788, 0.0032383716, 18173.084, 18173.084, 0.0, 2.5004685, 2.4990919 
2.0378846e+2, 6.121876e+1, 59793.63, -311398.75, 342.0198, 0.0019430787, 0.0035480259, 59793.945, 59793.945, 0.0, 2.500469, 2.4992397 
2.0378847e+2, 6.371801e+1, 60201.47, -308732.5, 1046.5188, 0.0021375392, 0.002919626, 60204.438, 60204.438, 0.0, 2.500467, 2.4992452 
2.0378847e+2, 6.621725e+1, 59047.457, -309300.4, 1217.9506, 0.0023344592, 0.0022822148, 59051.484, 59051.484, 0.0, 2.500465, 2.4992452 
2.0378849e+2, 6.8716484e+1, 57890.99, -309869.5, 1388.9977, 0.002534201, 0.0016445996, 57896.234, 57896.234, 0.0, 2.500463, 2.499245 
2.0378849e+2, 7.1215796e+1, 98526.26, -226046.73, -521.62103, 0.0029494222, 0.0020816298, 98527.09, 98527.09, 0.0, 2.5004637, 2.4993887 
2.0378849e+2, 7.371519e+1, 101820.875, -221110.13, 386.09927, 0.0029343357, 0.0019006814, 101821.336, 101821.336, 0.0, 2.5004656, 2.499396 
2.0378849e+2, 7.6214594e+1, 103001.086, -220552.92, 158.41888, 0.0029204427, 0.0017082655, 103001.164, 103001.164, 0.0, 2.5004678, 2.499396 
2.0378849e+2, 7.8713983e+1, 104177.69, -219997.47, -69.54485, 0.0029120063, 0.0015158356, 104177.7, 104177.7, 0.0, 2.5004697, 2.499396 
2.0378847e+2, 8.121345e+1, 144824.81, -136083.83, -102.492584, 0.0026332343, 0.0016626967, 144824.86, 144824.86, 0.0, 2.5004704, 2.4995399 
2.0378849e+2, 8.371299e+1, 146240.33, -130871.8, 2072.4336, 0.0020862091, 0.0008658405, 146255.83, 146255.83, 0.0, 2.500468, 2.4995499 
2.0378849e+2, 8.6212534e+1, 144806.23, -131560.53, 2539.592, 0.0015500826, 0.000059654983, 144829.58, 144829.58, 0.0, 2.5004654, 2.4995499 
2.0378849e+2, 8.871207e+1, 143366.03, -132252.2, 3006.6335, 0.0010247427, -0.000746923, 143398.83, 143398.83, 0.0, 2.500463, 2.49955 
2.0378849e+2, 9.12117e+1, 182738.83, -52391.12, -1418.6421, 0.0019949512, 0.00030217646, 182747.39, 182747.39, 0.0, 2.5004652, 2.4996862 
2.0378849e+2, 9.3711394e+1, 189396.78, -43226.38, 380.78113, 0.0019077313, -0.00012948048, 189397.4, 189397.4, 0.0, 2.5004702, 2.4996994 
2.0378847e+2, 9.621109e+1, 192305.94, -41821.047, 40.76033, 0.0018099415, -0.0005875346, 192305.94, 192305.94, 0.0, 2.5004752, 2.4996994 
2.0378847e+2, 9.8710775e+1, 195204.28, -40420.918, -298.7192, 0.0017220624, -0.0010462812, 195204.66, 195204.66, 0.0, 2.5004802, 2.4996994 
2.0628889e+2, 1.2491678e+0, -195961.7, -839930.0, 380.0302, 0.0027035524, -0.00002342782, -195961.48, -195961.48, 0.0, 2.5004659, 2.4983344 
2.0628889e+2, 3.7475035e+0, -195653.0, -840085.2, 321.08496, 0.0022161603, -0.00007063552, -195652.84, -195652.84, 0.0, 2.5004668, 2.4983337 
2.0628889e+2, 6.245839e+0, -195157.58, -839851.06, 314.72498, 0.0017278, -0.000118312, -195157.42, -195157.42, 0.0, 2.5004675, 2.4983337 
2.0628889e+2, 8.744175e+0, -194663.05, -839617.3, 308.2572, 0.0012384711, -0.00016645738, -194662.9, -194662.9, 0.0, 2.5004685, 2.4983337 
2.0628889e+2, 1.1242591e+1, -152254.95, -751847.2, 413.468, 0.0009958975, 0.0003801778, -152254.66, -152254.66, 0.0, 2.5004687, 2.498484 
2.0628889e+2, 1.3741086e+1, -152191.61, -751422.1, -14.403144, 0.0009934106, 0.001149924, -152191.61, -152191.61, 0.0, 2.5004685, 2.4984848 
2.0628889e+2, 1.623958e+1, -152383.61, -751526.0, -121.34387, 0.0009902646, 0.0019190348, -152383.58, -152383.58, 0.0, 2.5004683, 2.4984848 
2.0628889e+2, 1.8738075e+1, -152576.4, -751630.25, -228.63248, 0.00098649, 0.0026879604, -152576.33, -152576.33, 0.0, 2.5004678, 2.4984848 
2.0628889e+2, 2.123664e+1, -110909.14, -665067.6, 381.1855, 0.0010536222, 0.0033054184, -110908.88, -110908.88, 0.0, 2.5004678, 2.4986331 
2.062889e+2, 2.3735276e+1, -110643.305, -664246.0, -19.091272, 0.0013990236, 0.003092472, -110643.305, -110643.305, 0.0, 2.5004675, 2.4986348 
2.062889e+2, 2.623391e+1, -110828.07, -664357.1, 36.150803, 0.0017434751, 0.0028772464, -110828.07, -110828.07, 0.0, 2.5004673, 2.4986348 
2.0628892e+2, 2.8732547e+1, -111014.04, -664468.75, 91.066765, 0.0020864713, 0.0026614042, -111014.02, -111014.02, 0.0, 2.500467, 2.4986346 
2.0628892e+2, 3.1231257e+1, -68639.59, -576708.56, 337.19818, 0.0020738873, 0.0027865313, -68639.375, -68639.375, 0.0, 2.5004673, 2.498785 
2.062889e+2, 3.3730042e+1, -67859.805, -575385.3, -85.15841, 0.0014441578, 0.0024354155, -67859.79, -67859.79, 0.0, 2.5004675, 2.4987872 
2.062889e+2, 3.622883e+1, -67693.43, -575331.7, -104.1614, 0.0008117307, 0.0020816114, -67693.41, -67693.41, 0.0, 2.500468, 2.4987872 
2.062889e+2, 3.872761e+1, -67528.73, -575278.9, -123.46888, 0.00017755415, 0.0017280816, -67528.695, -67528.695, 0.0, 2.5004683, 2.4987872 
2.062889e+2, 4.122648e+1, -25847.166, -488640.2, 213.35289, 0.00017977034, 0.002274063, -25847.068, -25847.068, 0.0, 2.5004683, 2.4989357 
2.0628892e+2, 4.3725422e+1, -25881.406, -487347.5, 68.49851, 0.0009445117, 0.0026188993, -25881.395, -25881.395, 0.0, 2.5004668, 2.4989386 
2.0628892e+2, 4.6224365e+1, -26756.307, -487793.6, 210.1187, 0.0017075858, 0.0029575808, -26756.21, -26756.21, 0.0, 2.5004652, 2.4989386 
2.0628893e+2, 4.8723307e+1, -27633.12, -488240.63, 351.40048, 0.0024684404, 0.0032952062, -27632.85, -27632.85, 0.0, 2.5004637, 2.4989386 
2.0628893e+2, 5.122233e+1, 14326.675, -401448.8, 169.5069, 0.0028143912, 0.0039606914, 14326.743, 14326.743, 0.0, 2.5004642, 2.4990873 
2.0628893e+2, 5.3721416e+1, 16344.379, -398647.5, 40.28733, 0.0024234313, 0.0036071588, 16344.383, 16344.383, 0.0, 2.5004656, 2.4990914 
2.0628892e+2, 5.622051e+1, 17198.934, -398254.4, -61.49378, 0.0020281186, 0.0032484944, 17198.941, 17198.941, 0.0, 2.500467, 2.4990914 
2.0628892e+2, 5.8719593e+1, 18050.957, -397862.56, -163.56221, 0.0016300151, 0.0028920025, 18051.021, 18051.021, 0.0, 2.5004687, 2.4990914 
2.0628892e+2, 6.121876e+1, 60157.39, -310763.34, 130.46133, 0.0017366024, 0.0031020367, 60157.438, 60157.438, 0.0, 2.500469, 2.4992406 
2.0628892e+2, 6.3718e+1, 60611.234, -308003.66, 746.97125, 0.0022634785, 0.0023673072, 60612.75, 60612.75, 0.0, 2.500467, 2.4992464 
2.0628893e+2, 6.621724e+1, 59457.617, -308572.63, 920.3455, 0.0027886764, 0.0016241148, 59459.918, 59459.918, 0.0, 2.5004652, 2.4992464 
2.0628895e+2, 6.871648e+1, 58301.543, -309142.78, 1093.3353, 0.0033125908, 0.0008816961, 58304.797, 58304.797, 0.0, 2.5004632, 2.4992461 
2.0628895e+2, 7.1215796e+1, 98186.625, -226915.23, -138.62296, 0.0037741514, 0.0016014535, 98186.68, 98186.68, 0.0, 2.5004637, 2.499387 
2.0628895e+2, 7.3715204e+1, 101524.164, -221891.02, 694.8071, 0.0035166934, 0.0020662684, 101525.66, 101525.66, 0.0, 2.5004659, 2.4993947 
2.0628895e+2, 7.62146e+1, 102704.75, -221334.13, 469.3712, 0.0032542548, 0.0025199803, 102705.43, 102705.43, 0.0, 2.500468, 2.4993947 
2.0628895e+2, 7.8713995e+1, 103881.72, -220778.98, 243.65186, 0.0029911413, 0.0029742932, 103881.91, 103881.91, 0.0, 2.50047, 2.4993947 
2.0628893e+2, 8.121346e+1, 145733.36, -134399.16, -382.95132, 0.0027034099, 0.003097568, 145733.89, 145733.89, 0.0, 2.5004706, 2.4995427 
2.0628893e+2, 8.3713007e+1, 147271.0, -128935.45, 1700.6755, 0.0023798791, 0.0015263713, 147281.47, 147281.47, 0.0, 2.5004683, 2.4995532 
2.0628895e+2, 8.621254e+1, 145837.25, -129624.97, 2170.8958, 0.0020591293, -0.000054800275, 145854.36, 145854.36, 0.0, 2.5004656, 2.4995532 
2.0628895e+2, 8.871207e+1, 144397.4, -130317.42, 2640.9993, 0.0017411701, -0.0016365723, 144422.78, 144422.78, 0.0, 2.5004632, 2.4995532 
2.0628895e+2, 9.12117e+1, 182253.7, -53688.043, -571.7659, 0.002718339, -0.00061797496, 182255.08, 182255.08, 0.0, 2.5004654, 2.4996839 
2.0628895e+2, 9.3711394e+1, 189021.61, -44291.28, 1151.9744, 0.002320244, -0.0003968278, 189027.3, 189027.3, 0.0, 2.5004704, 2.4996974 
2.0628895e+2, 9.62111e+1, 191929.3, -42884.11, 817.6342, 0.0018965347, -0.00020305681, 191932.16, 191932.16, 0.0, 2.5004754, 2.4996974 
2.0628893e+2, 9.8710793e+1, 194826.19, -41482.137, 483.83524, 0.0014685084, -0.000010333035, 194827.19, 194827.19, 0.0, 2.5004804, 2.4996974 
2.0878936e+2, 1.2491673e+0, -197212.97, -840563.2, 509.96378, 0.0032830008, -0.00007362047, -197212.56, -197212.56, 0.0, 2.5004637, 2.4983342 
2.0878936e+2, 3.747502e+0, -196851.6, -840698.4, 449.5955, 0.0025713195, -0.0002214108, -196851.28, -196851.28, 0.0, 2.5004647, 2.4983335 
2.0878936e+2, 6.2458366e+0, -196344.7, -840458.9, 445.00314, 0.0018549523, -0.000369933, -196344.4, -196344.4, 0.0, 2.5004656, 2.4983335 
2.0878935e+2, 8.744171e+0, -195883.2, -840241.2, 440.03412, 0.0011338993, -0.0005191872, -195882.9, -195882.9, 0.0, 2.5004663, 2.4983335 
2.0878935e+2, 1.1242588e+1, -153645.31, -752851.9, 378.792, 0.00070512405, 0.00014365262, -153645.06, -153645.06, 0.0, 2.5004668, 2.4984832 
2.0878935e+2, 1.3741085e+1, -153504.47, -752382.9, -63.543804, 0.0005662509, 0.0012355661, -153504.45, -153504.45, 0.0, 2.5004666, 2.4984841 
2.0878935e+2, 1.6239582e+1, -153653.66, -752467.1, -166.4843, 0.00042421042, 0.0023265078, -153653.61, -153653.61, 0.0, 2.5004663, 2.4984841 
2.0878935e+2, 1.8738079e+1, -153833.61, -752566.1, -268.0044, 0.00027903004, 0.0034169415, -153833.48, -153833.48, 0.0, 2.500466, 2.4984841 
2.0878936e+2, 2.1236646e+1, -111798.445, -665347.4, 384.44238, 0.00043295143, 0.004111021, -111798.18, -111798.18, 0.0, 2.500466, 2.4986336 
2.0878936e+2, 2.3735279e+1, -111413.83, -664460.5, -77.75095, 0.0011557245, 0.003688233, -111413.82, -111413.82, 0.0, 2.500466, 2.498635 
2.0878938e+2, 2.6233914e+1, -111520.586, -664534.94, -36.098186, 0.0018748879, 0.003263524, -111520.58, -111520.58, 0.0, 2.5004659, 2.498635 
2.087894e+2, 2.8732547e+1, -111663.625, -664626.9, 4.603884, 0.0025897904, 0.0028386498, -111663.625, -111663.625, 0.0, 2.5004656, 2.498635 
2.087894e+2, 3.1231254e+1, -69343.56, -577111.5, 360.52643, 0.002618155, 0.0027831749, -69343.305, -69343.305, 0.0, 2.500466, 2.498785 
2.0878938e+2, 3.373004e+1, -68458.62, -575731.06, -138.702, 0.0016846764, 0.002278072, -68458.58, -68458.58, 0.0, 2.5004666, 2.4987872 
2.0878938e+2, 3.6228824e+1, -68222.625, -575645.0, -189.60414, 0.0007454082, 0.00177144, -68222.55, -68222.55, 0.0, 2.500467, 2.498787 
2.0878936e+2, 3.8727608e+1, -68018.97, -575574.5, -242.84161, -0.00019867138, 0.0012662639, -68018.85, -68018.85, 0.0, 2.5004675, 2.498787 
2.0878936e+2, 4.1226473e+1, -25971.14, -488310.6, -144.50455, -0.00023151311, 0.0018639418, -25971.096, -25971.096, 0.0, 2.5004675, 2.4989367 
2.0878938e+2, 4.3725422e+1, -25873.088, -486920.22, -418.75217, 0.0007960367, 0.0023863846, -25872.709, -25872.709, 0.0, 2.5004663, 2.4989395 
2.087894e+2, 4.6224365e+1, -26676.957, -487333.22, -329.4862, 0.001818625, 0.0029041113, -26676.723, -26676.723, 0.0, 2.500465, 2.4989395 
2.087894e+2, 4.8723313e+1, -27521.934, -487766.06, -242.20421, 0.0028356055, 0.003422583, -27521.807, -27521.807, 0.0, 2.5004635, 2.4989395 
2.0878941e+2, 5.122233e+1, 14017.734, -401914.78, 27.358717, 0.0032065078, 0.0040952563, 14017.736, 14017.736, 0.0, 2.500464, 2.4990866 
2.087894e+2, 5.3721416e+1, 16073.118, -399072.3, -209.34213, 0.0026011067, 0.0035783227, 16073.224, 16073.224, 0.0, 2.5004656, 2.4990907 
2.087894e+2, 5.622051e+1, 16915.277, -398685.4, -358.50885, 0.0019871898, 0.0030571679, 16915.586, 16915.586, 0.0, 2.500467, 2.4990907 
2.0878938e+2, 5.871959e+1, 17719.555, -398316.75, -509.34302, 0.0013663428, 0.0025390529, 17720.178, 17720.178, 0.0, 2.5004685, 2.4990907 
2.087894e+2, 6.1218756e+1, 60280.305, -310266.8, -691.6528, 0.0015294185, 0.0026600377, 60281.594, 60281.594, 0.0, 2.5004687, 2.4992416 
2.087894e+2, 6.3718e+1, 60813.184, -307376.16, -204.21368, 0.0023873665, 0.0018162748, 60813.297, 60813.297, 0.0, 2.5004668, 2.4992476 
2.0878941e+2, 6.621724e+1, 59644.973, -307953.44, -67.35622, 0.0032396477, 0.00096438243, 59644.984, 59644.984, 0.0, 2.500465, 2.4992473 
2.0878942e+2, 6.871648e+1, 58439.836, -308548.5, 67.78084, 0.004086704, 0.00011417927, 58439.848, 58439.848, 0.0, 2.5004628, 2.4992473 
2.0878942e+2, 7.1215796e+1, 97522.55, -227957.48, -498.51807, 0.0045982576, 0.001126726, 97523.31, 97523.31, 0.0, 2.5004635, 2.4993854 
2.0878942e+2, 7.3715204e+1, 100877.44, -222840.11, 257.14236, 0.0040976023, 0.0022350228, 100877.64, 100877.64, 0.0, 2.5004654, 2.4993932 
2.0878942e+2, 7.6214606e+1, 101978.85, -222321.84, 35.297928, 0.0035859172, 0.0033324014, 101978.86, 101978.86, 0.0, 2.5004673, 2.4993932 
2.0878942e+2, 7.8714013e+1, 103033.88, -221825.92, -188.03163, 0.0030676087, 0.0044309758, 103033.99, 103033.99, 0.0, 2.5004692, 2.4993932 
2.0878941e+2, 8.121348e+1, 145979.25, -133049.52, -1397.4979, 0.0027704325, 0.004536655, 145986.25, 145986.25, 0.0, 2.5004697, 2.4995453 
2.0878941e+2, 8.371301e+1, 147564.84, -127352.84, 592.5483, 0.0026707102, 0.002188113, 147566.13, 147566.13, 0.0, 2.500467, 2.4995563 
2.0878942e+2, 8.6212546e+1, 145990.6, -128111.11, 1064.1664, 0.002565929, -0.00017110878, 145994.73, 145994.73, 0.0, 2.5004644, 2.4995563 
2.0878942e+2, 8.871207e+1, 144354.25, -128899.29, 1529.9574, 0.002456221, -0.0025310894, 144362.83, 144362.83, 0.0, 2.5004616, 2.4995563 
2.0878942e+2, 9.12117e+1, 180489.34, -55626.773, -400.94867, 0.003432592, -0.0015246168, 180490.02, 180490.02, 0.0, 2.5004635, 2.4996812 
2.0878942e+2, 9.37114e+1, 187160.34, -46067.21, 1352.136, 0.0027226016, -0.0006548536, 187168.17, 187168.17, 0.0, 2.5004683, 2.4996955 
2.0878942e+2, 9.6211106e+1, 189711.77, -44829.367, 1136.2072, 0.0019727265, 0.00018614715, 189717.27, 189717.27, 0.0, 2.5004725, 2.4996955 
2.0878942e+2, 9.8710805e+1, 192123.64, -43658.727, 913.7779, 0.0012049646, 0.0010256537, 192127.19, 192127.19, 0.0, 2.5004766, 2.4996955 
2.1128984e+2, 1.2491675e+0, -192629.23, -838442.1, 414.51083, 0.003076704, -0.00006025628, -192628.97, -192628.97, 0.0, 2.5004718, 2.498334 
2.1128984e+2, 3.747502e+0, -193939.22, -839387.06, 298.76758, 0.0025009178, -0.00018019888, -193939.08, -193939.08, 0.0, 2.50047, 2.4983332 
2.1128982e+2, 6.2458366e+0, -195057.34, -839930.5, 242.24744, 0.0019355195, -0.0002993809, -195057.27, -195057.27, 0.0, 2.500468, 2.4983332 
2.1128982e+2, 8.744172e+0, -196177.33, -840474.8, 185.3335, 0.0013805091, -0.0004178024, -196177.28, -196177.28, 0.0, 2.500466, 2.4983332 
2.1128982e+2, 1.1242588e+1, -154340.55, -753315.4, 351.21906, 0.0009812553, 0.0002289939, -154340.34, -154340.34, 0.0, 2.5004656, 2.498483 
2.1128982e+2, 1.3741085e+1, -153432.31, -752481.06, 6.495002, 0.00075976667, 0.0012554748, -153432.31, -153432.31, 0.0, 2.5004668, 2.4984837 
2.1128982e+2, 1.623958e+1, -152782.8, -752181.5, 18.926178, 0.0005428982, 0.0022799764, -152782.8, -152782.8, 0.0, 2.500468, 2.4984837 
2.1128982e+2, 1.8738078e+1, -152134.8, -751882.7, 30.976482, 0.000330631, 0.0033029646, -152134.78, -152134.78, 0.0, 2.5004692, 2.4984837 
2.1128982e+2, 2.1236643e+1, -109611.08, -664119.56, 701.7635, 0.0004201865, 0.0039420477, -109610.19, -109610.19, 0.0, 2.5004697, 2.4986339 
2.1128984e+2, 2.3735277e+1, -109450.5, -663356.5, 216.26442, 0.0010402439, 0.0034886496, -109450.414, -109450.414, 0.0, 2.5004692, 2.4986355 
2.1128984e+2, 2.623391e+1, -109740.05, -663523.75, 278.3962, 0.0016688495, 0.003032268, -109739.91, -109739.91, 0.0, 2.5004687, 2.4986353 
2.1128985e+2, 2.873254e+1, -110031.664, -663692.0, 339.6284, 0.002305464, 0.0025746345, -110031.45, -110031.45, 0.0, 2.5004683, 2.4986353 
2.1128985e+2, 3.123125e+1, -68308.09, -576845.0, 768.9831, 0.0023834778, 0.002556607, -68306.93, -68306.93, 0.0, 2.5004683, 2.4987843 
2.1128985e+2, 3.373004e+1, -68197.086, -575839.7, 157.04941, 0.0017003646, 0.00213788, -68197.04, -68197.04, 0.0, 2.5004673, 2.4987864 
2.1128985e+2, 3.622882e+1, -68709.66, -576123.4, 52.991135, 0.0010197075, 0.0017136487, -68709.65, -68709.65, 0.0, 2.5004666, 2.4987864 
2.1128984e+2, 3.8727605e+1, -69224.125, -576408.0, -51.776714, 0.00034220945, 0.001286981, -69224.125, -69224.125, 0.0, 2.5004656, 2.4987864 
2.1128984e+2, 4.122647e+1, -26902.102, -488644.06, 18.242403, 0.00033412944, 0.0019022627, -26902.102, -26902.102, 0.0, 2.5004659, 2.498937 
2.1128985e+2, 4.372542e+1, -25899.066, -486804.0, -419.32336, 0.001079548, 0.002370941, -25898.684, -25898.684, 0.0, 2.500466, 2.49894 
2.1128985e+2, 4.6224365e+1, -25771.688, -486775.6, -421.06604, 0.0018260918, 0.0028315634, -25771.303, -25771.303, 0.0, 2.5004663, 2.4989398 
2.1128987e+2, 4.8723307e+1, -25646.357, -486748.2, -423.5363, 0.0025733863, 0.0032896523, -25645.969, -25645.969, 0.0, 2.5004666, 2.4989398 
2.1128987e+2, 5.122233e+1, 15542.135, -401403.25, 96.983734, 0.0028987506, 0.0039544343, 15542.157, 15542.157, 0.0, 2.5004668, 2.4990861 
2.1128987e+2, 5.372141e+1, 16248.839, -399186.75, -44.87434, 0.0025401146, 0.0034683915, 16248.844, 16248.844, 0.0, 2.500466, 2.4990902 
2.1128987e+2, 5.62205e+1, 15757.632, -399449.38, -27.994112, 0.0021829386, 0.0029708769, 15757.634, 15757.634, 0.0, 2.5004652, 2.4990902 
2.1128985e+2, 5.871959e+1, 15263.7, -399713.28, -12.004975, 0.0018284884, 0.0024692372, 15263.7, 15263.7, 0.0, 2.5004644, 2.4990902 
2.1128987e+2, 6.1218756e+1, 57717.516, -311621.9, -355.2748, 0.0020924131, 0.0027058239, 57717.86, 57717.86, 0.0, 2.5004644, 2.4992414 
2.1128987e+2, 6.3718e+1, 59503.07, -308076.44, -280.9079, 0.0028377809, 0.0020578627, 59503.285, 59503.285, 0.0, 2.5004647, 2.4992473 
2.1128988e+2, 6.621723e+1, 59586.67, -308057.44, -477.942, 0.003584873, 0.001397523, 59587.293, 59587.293, 0.0, 2.500465, 2.4992473 
2.1128988e+2, 6.871648e+1, 59667.594, -308039.75, -675.3743, 0.004334394, 0.0007347945, 59668.832, 59668.832, 0.0, 2.500465, 2.4992473 
2.1128988e+2, 7.1215796e+1, 99180.77, -227050.11, -700.26276, 0.004762712, 0.0017831896, 99182.27, 99182.27, 0.0, 2.500466, 2.4993856 
2.1128988e+2, 7.3715204e+1, 101997.26, -222104.02, 502.91815, 0.0041916096, 0.0027231432, 101998.04, 101998.04, 0.0, 2.5004673, 2.4993937 
2.1128988e+2, 7.6214606e+1, 102547.914, -221851.84, 811.67914, 0.0036165551, 0.0036503358, 102549.945, 102549.945, 0.0, 2.5004683, 2.4993937 
2.1128988e+2, 7.8714013e+1, 103094.81, -221601.48, 1119.7966, 0.003041997, 0.004577239, 103098.67, 103098.67, 0.0, 2.5004692, 2.4993937 
2.1128988e+2, 8.121348e+1, 145747.22, -133643.17, -786.25214, 0.0028563938, 0.004693931, 145749.44, 145749.44, 0.0, 2.5004697, 2.4995444 
2.1128988e+2, 8.371301e+1, 148225.34, -127417.04, -168.98805, 0.0030604585, 0.0025507417, 148225.44, 148225.44, 0.0, 2.5004687, 2.4995556 
2.112899e+2, 8.6212546e+1, 147533.7, -127756.84, -961.23096, 0.0032723625, 0.0004005826, 147537.06, 147537.06, 0.0, 2.5004675, 2.4995556 
2.112899e+2, 8.871207e+1, 146836.23, -128099.46, -1753.2195, 0.003492147, -0.0017466298, 146847.42, 146847.42, 0.0, 2.5004663, 2.4995556 
2.112899e+2, 9.12117e+1, 183296.88, -53963.098, -3017.749, 0.0043493314, -0.00053794816, 183335.25, 183335.25, 0.0, 2.500468, 2.499682 
2.112899e+2, 9.37114e+1, 189192.13, -44575.766, -758.3242, 0.0030233418, 0.00039831782, 189194.6, 189194.6, 0.0, 2.500471, 2.4996967 
2.112899e+2, 9.621111e+1, 190963.08, -43727.387, -364.73502, 0.0016814261, 0.0012987128, 190963.66, 190963.66, 0.0, 2.5004742, 2.4996967 
2.1128988e+2, 9.871082e+1, 192722.38, -42884.63, 29.129625, 0.00034597697, 0.0021914213, 192722.38, 192722.38, 0.0, 2.500477, 2.4996967 
2.137903e+2, 1.2491681e+0, -192731.13, -838654.44, 123.65852, 0.0019203492, 0.000018292645, -192731.11, -192731.11, 0.0, 2.5004718, 2.4983337 
2.137903e+2, 3.747504e+0, -194042.14, -839602.8, 7.610509, 0.001893279, 0.00005496044, -194042.14, -194042.14, 0.0, 2.50047, 2.498333 
2.137903e+2, 6.24584e+0, -195159.0, -840144.8, -46.026466, 0.0018679757, 0.000091738904, -195159.0, -195159.0, 0.0, 2.500468, 2.498333 
2.137903e+2, 8.744176e+0, -196277.72, -840687.75, -100.057236, 0.0018444393, 0.00012862791, -196277.7, -196277.7, 0.0, 2.500466, 2.498333 
2.137903e+2, 1.1242591e+1, -154291.73, -753227.2, 535.0365, 0.0016739403, 0.0006396562, -154291.25, -154291.25, 0.0, 2.5004659, 2.498483 
2.137903e+2, 1.3741083e+1, -153392.58, -752412.4, 170.74576, 0.0014324213, 0.0012470288, -153392.53, -153392.53, 0.0, 2.5004668, 2.498484 
2.137903e+2, 1.6239576e+1, -152745.27, -752118.0, 186.1359, 0.0011893471, 0.0018529594, -152745.22, -152745.22, 0.0, 2.500468, 2.498484 
2.137903e+2, 1.8738067e+1, -152099.47, -751824.4, 201.14514, 0.00094461924, 0.0024579063, -152099.4, -152099.4, 0.0, 2.5004692, 2.498484 
2.1379031e+2, 2.1236633e+1, -109439.3, -663808.7, 665.9331, 0.00081655296, 0.0029249424, -109438.5, -109438.5, 0.0, 2.50047, 2.4986343 
2.1379031e+2, 2.3735267e+1, -109294.61, -663081.75, 139.01466, 0.0009230729, 0.0026004086, -109294.57, -109294.57, 0.0, 2.5004694, 2.498636 
2.1379031e+2, 2.6233903e+1, -109584.07, -663251.9, 203.8601, 0.0010315297, 0.0022731235, -109583.99, -109583.99, 0.0, 2.500469, 2.4986358 
2.1379031e+2, 2.8732535e+1, -109875.59, -663422.94, 267.80597, 0.0011416579, 0.0019447013, -109875.47, -109875.47, 0.0, 2.5004685, 2.4986358 
2.1379031e+2, 3.1231248e+1, -68446.9, -577200.7, 699.25446, 0.0012797809, 0.0021524692, -68445.94, -68445.94, 0.0, 2.5004683, 2.4987838 
2.1379031e+2, 3.3730033e+1, -68332.13, -576190.25, 22.860739, 0.0013977534, 0.002025791, -68332.13, -68332.13, 0.0, 2.5004675, 2.498786 
2.1379033e+2, 3.622882e+1, -68845.01, -576477.25, -79.053474, 0.0015141309, 0.001894343, -68844.99, -68844.99, 0.0, 2.5004666, 2.4987857 
2.1379033e+2, 3.8727608e+1, -69359.79, -576765.1, -181.67726, 0.0016290946, 0.0017613164, -69359.73, -69359.73, 0.0, 2.5004656, 2.4987857 
2.1379033e+2, 4.1226473e+1, -26820.482, -488591.16, 115.43498, 0.0016906286, 0.0023486577, -26820.455, -26820.455, 0.0, 2.5004659, 2.498937 
2.1379033e+2, 4.372542e+1, -25806.209, -486731.63, -388.64832, 0.0016641865, 0.0025067397, -25805.883, -25805.883, 0.0, 2.5004663, 2.49894 
2.1379033e+2, 4.6224362e+1, -25678.54, -486706.13, -388.29337, 0.0016341755, 0.0026580438, -25678.21, -25678.21, 0.0, 2.5004666, 2.49894 
2.1379033e+2, 4.8723304e+1, -25552.914, -486681.6, -388.66595, 0.0016007248, 0.0028079287, -25552.588, -25552.588, 0.0, 2.5004668, 2.4989398 
2.1379033e+2, 5.122232e+1, 15660.32, -401296.2, 43.78989, 0.0018167298, 0.0034185704, 15660.324, 15660.324, 0.0, 2.500467, 2.4990861 
2.1379033e+2, 5.372141e+1, 16388.088, -399039.47, -171.94727, 0.0021526592, 0.0031124393, 16388.16, 16388.16, 0.0, 2.500466, 2.4990904 
2.1379033e+2, 5.6220496e+1, 15897.633, -399303.97, -152.64474, 0.002485771, 0.0027956602, 15897.688, 15897.688, 0.0, 2.5004654, 2.4990904 
2.1379034e+2, 5.871959e+1, 15404.453, -399569.78, -134.2333, 0.0028167106, 0.0024757548, 15404.496, 15404.496, 0.0, 2.5004647, 2.4990904 
2.1379034e+2, 6.1218756e+1, 57477.58, -312306.47, -270.63547, 0.003212145, 0.0030046033, 57477.777, 57477.777, 0.0, 2.5004647, 2.49924 
2.1379034e+2, 6.3718e+1, 59280.477, -308727.75, -259.78326, 0.0034649423, 0.0027976283, 59280.66, 59280.66, 0.0, 2.500465, 2.4992461 
2.1379034e+2, 6.621725e+1, 59364.12, -308711.03, -454.70493, 0.0037150704, 0.0025797635, 59364.68, 59364.68, 0.0, 2.5004652, 2.4992461 
2.1379034e+2, 6.871649e+1, 59445.08, -308695.63, -650.0248, 0.00396362, 0.0023608257, 59446.227, 59446.227, 0.0, 2.5004652, 2.499246 
2.1379034e+2, 7.1215814e+1, 99859.73, -225853.06, -477.4516, 0.0041948417, 0.0031861083, 99860.43, 99860.43, 0.0, 2.5004663, 2.4993875 
2.1379036e+2, 7.3715204e+1, 102738.53, -220782.52, 648.7905, 0.003740833, 0.0031725618, 102739.83, 102739.83, 0.0, 2.5004675, 2.4993958 
2.1379036e+2, 7.62146e+1, 103292.12, -220529.05, 960.0369, 0.003277047, 0.0031458312, 103294.96, 103294.96, 0.0, 2.5004685, 2.4993958 
2.1379036e+2, 7.8713995e+1, 103841.945, -220277.38, 1270.6398, 0.0028079418, 0.003118712, 103846.93, 103846.93, 0.0, 2.5004694, 2.4993958 
2.1379036e+2, 8.121346e+1, 144455.94, -136560.36, -865.20013, 0.0028606737, 0.0032677047, 144458.6, 144458.6, 0.0, 2.5004702, 2.4995391 
2.1379036e+2, 8.3713007e+1, 146943.98, -130315.375, -345.91418, 0.0034713775, 0.002243921, 146944.42, 146944.42, 0.0, 2.500469, 2.4995506 
2.1379037e+2, 8.621254e+1, 146255.3, -130650.836, -1135.1471, 0.004082238, 0.0012135564, 146259.95, 146259.95, 0.0, 2.5004678, 2.4995503 
2.1379037e+2, 8.8712084e+1, 145560.77, -130989.1, -1924.1255, 0.004693076, 0.00018603854, 145574.16, 145574.16, 0.0, 2.5004666, 2.4995503 
2.1379039e+2, 9.1211706e+1, 184163.88, -52454.72, -2454.2131, 0.005346141, 0.0017844437, 184189.33, 184189.33, 0.0, 2.5004683, 2.4996843 
2.1379037e+2, 9.371141e+1, 190202.0, -42776.652, -276.44534, 0.0031484226, 0.0022402937, 190202.33, 190202.33, 0.0, 2.5004714, 2.4996996 
2.1379036e+2, 9.621111e+1, 191978.58, -41921.83, 124.78851, 0.0009168451, 0.0026575176, 191978.64, 191978.64, 0.0, 2.5004745, 2.4996996 
2.1379034e+2, 9.871082e+1, 193743.48, -41072.617, 526.2978, -0.0013257441, 0.003065249, 193744.66, 193744.66, 0.0, 2.5004776, 2.4996996 
2.1629076e+2, 1.2491687e+0, -192833.16, -838867.06, -167.09612, 0.00076389185, 0.000096193, -192833.13, -192833.13, 0.0, 2.5004718, 2.4983332 
2.1629076e+2, 3.7475058e+0, -194145.88, -839820.2, -283.36606, 0.0012853327, 0.00028817405, -194145.75, -194145.75, 0.0, 2.50047, 2.4983325 
2.1629077e+2, 6.245843e+0, -195261.47, -840360.9, -334.11987, 0.0017999193, 0.00047961585, -195261.3, -195261.3, 0.0, 2.500468, 2.4983325 
2.1629077e+2, 8.744181e+0, -196378.9, -840902.44, -385.2675, 0.0023076518, 0.0006705182, -196378.67, -196378.67, 0.0, 2.500466, 2.4983325 
2.1629077e+2, 1.1242594e+1, -154252.58, -753159.06, 720.0158, 0.0023682674, 0.0010516765, -154251.7, -154251.7, 0.0, 2.5004659, 2.4984832 
2.1629077e+2, 1.3741082e+1, -153353.88, -752345.8, 335.6391, 0.0021097139, 0.0012361086, -153353.69, -153353.69, 0.0, 2.5004668, 2.498484 
2.1629077e+2, 1.623957e+1, -152708.78, -752056.6, 353.9882, 0.0018434216, 0.0014196172, -152708.56, -152708.56, 0.0, 2.500468, 2.498484 
2.1629077e+2, 1.8738058e+1, -152065.19, -751768.2, 371.95636, 0.0015692208, 0.0016026722, -152064.95, -152064.95, 0.0, 2.5004692, 2.498484 
2.1629079e+2, 2.1236622e+1, -109283.125, -663530.25, 638.647, 0.0012024611, 0.001911251, -109282.39, -109282.39, 0.0, 2.50047, 2.4986348 
2.1629077e+2, 2.3735258e+1, -109139.42, -662808.5, 62.642353, 0.00079695287, 0.0017125547, -109139.414, -109139.414, 0.0, 2.5004694, 2.4986362 
2.1629077e+2, 2.6233894e+1, -109428.8, -662981.44, 130.20146, 0.00038688007, 0.0015112583, -109428.766, -109428.766, 0.0, 2.500469, 2.4986362 
2.1629077e+2, 2.873253e+1, -109720.234, -663155.3, 196.86098, -0.000027858781, 0.0013089402, -109720.164, -109720.164, 0.0, 2.5004685, 2.4986362 
2.1629077e+2, 3.1231248e+1, -68596.42, -577578.6, 630.5314, 0.00018085829, 0.0017466864, -68595.64, -68595.64, 0.0, 2.5004683, 2.498783 
2.1629079e+2, 3.3730033e+1, -68467.75, -576542.0, -110.564125, 0.001100915, 0.0019091782, -68467.73, -68467.73, 0.0, 2.5004675, 2.4987853 
2.1629079e+2, 3.6228824e+1, -68980.93, -576832.25, -210.33427, 0.0020152512, 0.0020675904, -68980.84, -68980.84, 0.0, 2.5004666, 2.4987853 
2.162908e+2, 3.872761e+1, -69496.02, -577123.44, -310.81403, 0.0029236006, 0.0022252824, -69495.836, -69495.836, 0.0, 2.5004659, 2.498785 
2.162908e+2, 4.122648e+1, -26756.646, -488575.22, 221.97282, 0.003040343, 0.0027995894, -26756.54, -26756.54, 0.0, 2.500466, 2.498937 
2.162908e+2, 4.372542e+1, -25713.96, -486660.5, -357.24246, 0.0022420038, 0.0026437547, -25713.686, -25713.686, 0.0, 2.5004663, 2.49894 
2.1629079e+2, 4.622436e+1, -25585.998, -486637.88, -354.78986, 0.001435546, 0.002482267, -25585.725, -25585.725, 0.0, 2.5004666, 2.49894 
2.1629079e+2, 4.8723298e+1, -25460.08, -486616.25, -353.06482, 0.00062145776, 0.002320475, -25459.81, -25459.81, 0.0, 2.5004668, 2.4989398 
2.1629079e+2, 5.122231e+1, 15767.551, -401211.88, -8.270892, 0.0007386086, 0.0028858362, 15767.551, 15767.551, 0.0, 2.500467, 2.4990864 
2.1629079e+2, 5.3721404e+1, 16526.625, -398893.66, -298.24673, 0.0017687595, 0.0027560412, 16526.838, 16526.838, 0.0, 2.5004663, 2.4990907 
2.162908e+2, 5.6220496e+1, 16036.921, -399160.03, -276.5219, 0.0027917014, 0.0026163089, 16037.1045, 16037.1045, 0.0, 2.5004656, 2.4990907 
2.1629082e+2, 5.871959e+1, 15544.493, -399427.72, -255.68819, 0.0038075733, 0.002474449, 15544.65, 15544.65, 0.0, 2.5004647, 2.4990904 
2.1629082e+2, 6.1218756e+1, 57220.473, -313026.72, -178.74762, 0.004328929, 0.0033086822, 57220.56, 57220.56, 0.0, 2.500465, 2.4992387 
2.1629082e+2, 6.3718003e+1, 59056.99, -309380.9, -238.2271, 0.0040889173, 0.0035389038, 59057.14, 59057.14, 0.0, 2.5004652, 2.499245 
2.1629082e+2, 6.6217256e+1, 59140.67, -309366.5, -431.03625, 0.003841919, 0.0037595322, 59141.176, 59141.176, 0.0, 2.5004654, 2.4992447 
2.1629082e+2, 6.87165e+1, 59221.67, -309353.38, -624.2437, 0.0035893342, 0.003980403, 59222.73, 59222.73, 0.0, 2.5004654, 2.4992447 
2.1629082e+2, 7.121582e+1, 100524.11, -224686.28, -252.09758, 0.0036303005, 0.004592384, 100524.305, 100524.305, 0.0, 2.5004666, 2.4993894 
2.1629082e+2, 7.371521e+1, 103478.82, -219463.05, 795.098, 0.0032912353, 0.0036218315, 103480.78, 103480.78, 0.0, 2.5004675, 2.499398 
2.1629082e+2, 7.62146e+1, 104035.336, -219208.27, 1108.8298, 0.0029364761, 0.002637505, 104039.14, 104039.14, 0.0, 2.5004687, 2.499398 
2.1629083e+2, 7.8713983e+1, 104588.1, -218955.3, 1421.9181, 0.0025705814, 0.0016526905, 104594.35, 104594.35, 0.0, 2.5004697, 2.499398 
2.1629083e+2, 8.121345e+1, 143149.05, -139509.94, -945.7962, 0.0028689867, 0.0018423488, 143152.22, 143152.22, 0.0, 2.5004704, 2.499534 
2.1629083e+2, 8.371299e+1, 145661.86, -133215.31, -523.28894, 0.0038826864, 0.0019342132, 145662.84, 145662.84, 0.0, 2.5004692, 2.4995453 
2.1629085e+2, 8.621254e+1, 144976.11, -133546.42, -1309.5117, 0.004888747, 0.0020197365, 144982.27, 144982.27, 0.0, 2.500468, 2.4995453 
2.1629086e+2, 8.871209e+1, 144284.52, -133880.34, -2095.48, 0.005886884, 0.0021080067, 144300.3, 144300.3, 0.0, 2.5004668, 2.4995453 
2.1629086e+2, 9.121172e+1, 185011.08, -50987.445, -1887.6455, 0.0063589164, 0.0041183336, 185026.19, 185026.19, 0.0, 2.5004687, 2.4996867 
2.1629085e+2, 9.371142e+1, 191211.08, -40979.17, 204.67355, 0.0032851093, 0.0040881904, 191211.27, 191211.27, 0.0, 2.5004718, 2.4997025 
2.1629083e+2, 9.6211123e+1, 192993.28, -40117.895, 613.552, 0.00015914475, 0.0040162955, 192994.89, 192994.89, 0.0, 2.5004747, 2.4997025 
2.1629082e+2, 9.871082e+1, 194763.81, -39262.24, 1022.7059, -0.0029953097, 0.003933102, 194768.28, 194768.28, 0.0, 2.5004778, 2.4997025 
2.1879122e+2, 1.24916926e+0, -194881.0, -840018.4, -455.17975, -0.00039044302, 0.00017331299, -194880.67, -194880.67, 0.0, 2.5004685, 2.498333 
2.1879123e+2, 3.7475076e+0, -196052.44, -840908.5, -568.90234, 0.00067890435, 0.0005190475, -196051.94, -196051.94, 0.0, 2.5004668, 2.4983323 
2.1879123e+2, 6.245846e+0, -197119.31, -841424.94, -614.8843, 0.0017334358, 0.000863594, -197118.73, -197118.73, 0.0, 2.500465, 2.4983323 
2.1879125e+2, 8.7441844e+0, -198284.22, -841988.6, -662.2108, 0.0027731513, 0.0012069524, -198283.53, -198283.53, 0.0, 2.500463, 2.4983323 
2.1879125e+2, 1.1242597e+1, -155985.55, -753961.3, 911.2472, 0.0030672387, 0.0014639903, -155984.17, -155984.17, 0.0, 2.5004628, 2.4984832 
2.1879125e+2, 1.3741082e+1, -154930.34, -753060.3, 498.91464, 0.0027936122, 0.0012216257, -154929.92, -154929.92, 0.0, 2.5004642, 2.4984841 
2.1879126e+2, 1.6239566e+1, -154212.67, -752740.25, 514.0651, 0.0025066084, 0.0009788456, -154212.23, -154212.23, 0.0, 2.5004654, 2.4984841 
2.1879126e+2, 1.873805e+1, -153570.1, -752456.4, 530.0287, 0.002205994, 0.00073614944, -153569.63, -153569.63, 0.0, 2.5004666, 2.498484 
2.1879126e+2, 2.1236612e+1, -110604.79, -663990.0, 589.8309, 0.0015795454, 0.00089978444, -110604.164, -110604.164, 0.0, 2.5004673, 2.4986353 
2.1879125e+2, 2.373525e+1, -110284.88, -663164.3, -74.42629, 0.000663479, 0.0008237692, -110284.875, -110284.875, 0.0, 2.5004673, 2.4986367 
2.1879125e+2, 2.6233888e+1, -110477.88, -663293.6, -35.72998, -0.00026313434, 0.0007452353, -110477.88, -110477.88, 0.0, 2.5004668, 2.4986367 
2.1879123e+2, 2.8732526e+1, -110738.96, -663455.75, 1.9980664, -0.0012003415, 0.00066580507, -110738.96, -110738.96, 0.0, 2.5004666, 2.4986367 
2.1879123e+2, 3.1231242e+1, -69799.63, -578482.4, 409.55582, -0.0009105737, 0.0013376595, -69799.305, -69799.305, 0.0, 2.5004666, 2.4987824 
2.1879125e+2, 3.3730033e+1, -69411.63, -577285.1, -424.60138, 0.0008116345, 0.001786464, -69411.28, -69411.28, 0.0, 2.500466, 2.4987845 
2.1879126e+2, 3.6228824e+1, -69753.17, -577495.8, -551.72284, 0.0025242746, 0.002231848, -69752.57, -69752.57, 0.0, 2.5004656, 2.4987845 
2.1879128e+2, 3.8727614e+1, -70159.93, -577737.94, -680.9268, 0.004226708, 0.0026773817, -70159.016, -70159.016, 0.0, 2.500465, 2.4987843 
2.1879129e+2, 4.1226482e+1, -27130.941, -488799.44, 58.27273, 0.004384224, 0.0032536874, -27130.934, -27130.934, 0.0, 2.5004654, 2.4989367 
2.1879128e+2, 4.372542e+1, -25921.533, -486735.63, -651.74384, 0.0028140685, 0.002780812, -25920.611, -25920.611, 0.0, 2.5004659, 2.49894 
2.1879126e+2, 4.6224353e+1, -25721.441, -486681.4, -697.412, 0.0012316803, 0.0023032373, -25720.387, -25720.387, 0.0, 2.5004663, 2.49894 
2.1879125e+2, 4.872329e+1, -25572.727, -486651.94, -746.9615, -0.00036223818, 0.0018264547, -25571.518, -25571.518, 0.0, 2.5004666, 2.49894 
2.1879125e+2, 5.1222306e+1, 15725.596, -401217.5, -540.77216, -0.00033343426, 0.0023556396, 15726.297, 15726.297, 0.0, 2.500467, 2.4990864 
2.1879126e+2, 5.3721404e+1, 16620.996, -398770.88, -954.4187, 0.0013899094, 0.0023989645, 16623.188, 16623.188, 0.0, 2.5004663, 2.499091 
2.1879128e+2, 5.6220496e+1, 16152.453, -399029.38, -981.59064, 0.0031019128, 0.0024329477, 16154.773, 16154.773, 0.0, 2.5004656, 2.4990907 
2.1879129e+2, 5.871959e+1, 15606.816, -399325.0, -1011.89746, 0.0048023225, 0.0024658, 15609.284, 15609.284, 0.0, 2.5004647, 2.4990907 
2.1879129e+2, 6.1218756e+1, 56850.574, -313828.84, -768.04, 0.0054440503, 0.0036188827, 56852.164, 56852.164, 0.0, 2.500465, 2.4992373 
2.1879129e+2, 6.371801e+1, 58773.04, -310064.8, -957.74725, 0.004710895, 0.004282848, 58775.527, 58775.527, 0.0, 2.5004652, 2.4992437 
2.1879128e+2, 6.621726e+1, 58833.977, -310063.66, -1203.1135, 0.0039667534, 0.004938313, 58837.9, 58837.9, 0.0, 2.5004654, 2.4992435 
2.1879128e+2, 6.871651e+1, 58833.344, -310092.2, -1450.4539, 0.003213258, 0.0055953236, 58839.047, 58839.047, 0.0, 2.5004654, 2.4992435 
2.1879128e+2, 7.1215826e+1, 100922.81, -223669.34, -918.6025, 0.0030707233, 0.0060042385, 100925.41, 100925.41, 0.0, 2.5004666, 2.4993913 
2.1879128e+2, 7.371521e+1, 103861.7, -218315.97, 17.409948, 0.0028440622, 0.0040737926, 103861.7, 103861.7, 0.0, 2.5004673, 2.4994001 
2.1879129e+2, 7.6214594e+1, 104234.6, -218149.83, 299.0824, 0.0025962044, 0.0021288763, 104234.88, 104234.88, 0.0, 2.500468, 2.4994001 
2.1879129e+2, 7.871397e+1, 104522.52, -218024.61, 575.6055, 0.0023319013, 0.00018343229, 104523.55, 104523.55, 0.0, 2.5004685, 2.4994001 
2.1879129e+2, 8.121343e+1, 140851.44, -142956.86, -2016.7147, 0.0028831814, 0.00042253497, 140865.78, 140865.78, 0.0, 2.500469, 2.499529 
2.187913e+2, 8.3712983e+1, 143327.1, -136619.03, -1635.2887, 0.0042953733, 0.0016263422, 143336.66, 143336.66, 0.0, 2.5004675, 2.4995403 
2.1879132e+2, 8.621254e+1, 142453.31, -137038.05, -2374.0613, 0.005692683, 0.002823933, 142473.47, 142473.47, 0.0, 2.500466, 2.4995403 
2.1879134e+2, 8.871209e+1, 141459.44, -137514.9, -3122.6255, 0.007074832, 0.0040242057, 141494.39, 141494.39, 0.0, 2.5004644, 2.4995403 
2.1879134e+2, 9.1211724e+1, 183966.34, -50456.66, -2126.6597, 0.0073889946, 0.006468758, 183985.64, 183985.64, 0.0, 2.5004656, 2.499689 
2.1879132e+2, 9.371142e+1, 189953.67, -40268.434, -63.906685, 0.0034347645, 0.0059473244, 189953.69, 189953.69, 0.0, 2.5004683, 2.4997056 
2.1879129e+2, 9.6211123e+1, 191165.67, -39678.207, 405.02063, -0.0005891765, 0.0053808712, 191166.39, 191166.39, 0.0, 2.5004702, 2.4997056 
2.1879128e+2, 9.871082e+1, 192183.77, -39181.367, 866.9712, -0.0046579763, 0.0048015425, 192187.02, 192187.02, 0.0, 2.500472, 2.4997056 
2.2129169e+2, 1.2491693e+0, -197113.94, -841171.06, -309.51718, -0.00043154025, 0.00019521451, -197113.78, -197113.78, 0.0, 2.5004647, 2.4983327 
2.2129169e+2, 3.747508e+0, -195515.89, -840734.9, -397.28964, 0.0006134712, 0.00058495725, -195515.64, -195515.64, 0.0, 2.5004678, 2.498332 
2.212917e+2, 6.245847e+0, -193714.39, -839872.25, -413.17117, 0.0016770285, 0.0009737856, -193714.13, -193714.13, 0.0, 2.5004709, 2.498332 
2.2129172e+2, 8.7441856e+0, -191915.25, -839010.75, -429.1731, 0.0027591318, 0.0013616995, -191914.97, -191914.97, 0.0, 2.500474, 2.498332 
2.2129172e+2, 1.12425976e+1, -149148.92, -750608.4, 1032.123, 0.0030521075, 0.0015891799, -149147.16, -149147.16, 0.0, 2.5004745, 2.4984834 
2.2129172e+2, 1.3741082e+1, -150430.3, -750831.5, 606.0915, 0.0027340553, 0.0012389325, -150429.69, -150429.69, 0.0, 2.5004718, 2.4984841 
2.2129172e+2, 1.6239563e+1, -151979.48, -751606.25, 634.42035, 0.0024316409, 0.00088910636, -151978.81, -151978.81, 0.0, 2.5004692, 2.4984841 
2.2129172e+2, 1.8738046e+1, -153531.23, -752382.25, 661.931, 0.0021446247, 0.0005402065, -153530.52, -153530.52, 0.0, 2.5004666, 2.4984841 
2.2129172e+2, 2.1236609e+1, -111643.83, -664611.94, 865.4244, 0.0015659285, 0.00066830806, -111642.48, -111642.48, 0.0, 2.5004656, 2.498635 
2.2129172e+2, 2.3735246e+1, -110931.23, -663592.1, -10.718738, 0.00074257446, 0.00062533456, -110931.23, -110931.23, 0.0, 2.5004663, 2.4986365 
2.212917e+2, 2.6233885e+1, -110671.19, -663508.2, -133.0103, -0.00007012451, 0.0005807374, -110671.16, -110671.16, 0.0, 2.5004668, 2.4986365 
2.212917e+2, 2.8732523e+1, -110412.945, -663425.1, -256.23495, -0.0008722616, 0.0005361547, -110412.83, -110412.83, 0.0, 2.5004673, 2.4986362 
2.212917e+2, 3.1231242e+1, -68999.3, -578125.8, 235.87865, -0.0006047533, 0.001261098, -68999.19, -68999.19, 0.0, 2.500468, 2.4987824 
2.2129172e+2, 3.3730033e+1, -68455.164, -576826.2, -425.57584, 0.00093817856, 0.0017676854, -68454.81, -68454.81, 0.0, 2.5004678, 2.4987845 
2.2129174e+2, 3.6228824e+1, -68600.22, -576949.94, -303.89853, 0.0024892492, 0.0022711973, -68600.04, -68600.04, 0.0, 2.5004675, 2.4987845 
2.2129175e+2, 3.8727614e+1, -68747.65, -577074.9, -183.47916, 0.004047798, 0.0027752568, -68747.586, -68747.586, 0.0, 2.5004675, 2.4987843 
2.2129175e+2, 4.122648e+1, -26229.457, -488593.78, 771.418, 0.0042202733, 0.0033336615, -26228.17, -26228.17, 0.0, 2.5004673, 2.4989362 
2.2129174e+2, 4.3725413e+1, -25853.332, -486885.75, -62.982456, 0.0028392475, 0.0027377757, -25853.324, -25853.324, 0.0, 2.5004663, 2.4989398 
2.2129172e+2, 4.622435e+1, -26473.256, -487239.16, -155.07611, 0.0014622655, 0.0021352374, -26473.203, -26473.203, 0.0, 2.5004654, 2.4989395 
2.212917e+2, 4.8723286e+1, -27095.62, -487593.75, -248.29906, 0.000089977795, 0.0015316776, -27095.484, -27095.484, 0.0, 2.5004642, 2.4989395 
2.2129172e+2, 5.12223e+1, 14311.0, -401949.6, 101.76386, 0.00012228696, 0.0020800678, 14311.024, 14311.024, 0.0, 2.5004647, 2.4990861 
2.2129172e+2, 5.372139e+1, 16022.125, -399047.4, -339.37787, 0.0016354602, 0.0022559064, 16022.402, 16022.402, 0.0, 2.5004654, 2.499091 
2.2129174e+2, 5.622049e+1, 16398.664, -398907.66, -315.91336, 0.0031564822, 0.0024209602, 16398.904, 16398.904, 0.0, 2.500466, 2.4990907 
2.2129175e+2, 5.871958e+1, 16772.506, -398769.2, -293.4888, 0.004685062, 0.0025836565, 16772.713, 16772.713, 0.0, 2.5004668, 2.4990907 
2.2129177e+2, 6.1218756e+1, 58087.074, -313838.28, 178.95668, 0.0052753245, 0.0038197595, 58087.16, 58087.16, 0.0, 2.5004678, 2.4992359 
2.2129175e+2, 6.371801e+1, 60164.965, -309942.8, 11.401593, 0.004611315, 0.004506158, 60164.97, 60164.97, 0.0, 2.5004683, 2.4992423 
2.2129175e+2, 6.6217256e+1, 60402.395, -309861.47, -142.47153, 0.0039479686, 0.005181897, 60402.45, 60402.45, 0.0, 2.5004687, 2.4992423 
2.2129175e+2, 6.871651e+1, 60636.637, -309781.7, -297.29074, 0.0032869324, 0.005857125, 60636.875, 60636.875, 0.0, 2.500469, 2.4992423 
2.2129175e+2, 7.121582e+1, 102390.234, -222996.28, -5.968575, 0.0032019482, 0.0063163233, 102390.234, 102390.234, 0.0, 2.500469, 2.4993913 
2.2129175e+2, 7.3715204e+1, 103963.86, -218227.56, 261.47144, 0.0030015763, 0.004447453, 103964.07, 103964.07, 0.0, 2.5004673, 2.4994001 
2.2129177e+2, 7.621458e+1, 103001.77, -218713.06, -44.238224, 0.0028057268, 0.0025661087, 103001.78, 103001.78, 0.0, 2.5004659, 2.4994001 
2.2129177e+2, 7.8713965e+1, 102034.99, -219200.84, -350.20505, 0.002619217, 0.00068641885, 102035.375, 102035.375, 0.0, 2.5004642, 2.4994001 
2.2129177e+2, 8.1213427e+1, 138966.3, -144108.2, -2245.7166, 0.0031308446, 0.001072449, 138984.11, 138984.11, 0.0, 2.5004659, 2.4995282 
2.2129178e+2, 8.3712983e+1, 144618.47, -136187.22, -741.0659, 0.0043374957, 0.0024929442, 144620.44, 144620.44, 0.0, 2.50047, 2.4995399 
2.212918e+2, 8.621254e+1, 146993.95, -135055.66, -269.23178, 0.0055603804, 0.003908599, 146994.2, 146994.2, 0.0, 2.5004742, 2.4995399 
2.2129181e+2, 8.871209e+1, 149362.33, -133927.48, 202.32921, 0.0067995987, 0.005328413, 149362.47, 149362.47, 0.0, 2.5004783, 2.4995399 
2.2129181e+2, 9.1211724e+1, 191745.92, -46958.45, 1114.4277, 0.0071371985, 0.0078425165, 191751.13, 191751.13, 0.0, 2.5004795, 2.4996886 
2.212918e+2, 9.371142e+1, 193978.69, -38462.37, 1831.9293, 0.0034567525, 0.007156085, 193993.13, 193993.13, 0.0, 2.5004752, 2.499705 
2.2129177e+2, 9.621111e+1, 191539.6, -39637.605, 1085.4429, -0.00024530158, 0.0064369407, 191544.69, 191544.69, 0.0, 2.500471, 2.499705 
2.2129175e+2, 9.871082e+1, 189088.19, -40818.766, 339.3121, -0.003944564, 0.005717928, 189088.69, 189088.69, 0.0, 2.5004668, 2.499705 
2.2379217e+2, 1.2491691e+0, -197127.25, -841198.9, 154.07327, 0.00037860894, 0.00017547254, -197127.22, -197127.22, 0.0, 2.5004647, 2.4983327 
2.2379217e+2, 3.7475076e+0, -195533.6, -840772.06, 67.581696, 0.00090555026, 0.0005262085, -195533.58, -195533.58, 0.0, 2.5004678, 2.498332 
2.2379218e+2, 6.2458456e+0, -193733.81, -839913.25, 55.539886, 0.0014392833, 0.0008766664, -193733.81, -193733.81, 0.0, 2.5004709, 2.498332 
2.2379218e+2, 8.7441844e+0, -191936.39, -839055.56, 43.37762, 0.001979808, 0.001226846, -191936.39, -191936.39, 0.0, 2.500474, 2.498332 
2.2379218e+2, 1.1242597e+1, -149064.02, -750452.75, 661.3899, 0.002033493, 0.0015278198, -149063.3, -149063.3, 0.0, 2.5004745, 2.4984837 
2.2379218e+2, 1.3741082e+1, -150349.72, -750687.7, 202.57193, 0.0017652665, 0.0013764625, -150349.66, -150349.66, 0.0, 2.5004718, 2.4984844 
2.2379218e+2, 1.6239569e+1, -151898.39, -751464.1, 234.84186, 0.001503139, 0.0012254886, -151898.3, -151898.3, 0.0, 2.5004692, 2.4984844 
2.2379218e+2, 1.8738052e+1, -153449.61, -752241.8, 266.2936, 0.0012468891, 0.00107539, -153449.5, -153449.5, 0.0, 2.5004666, 2.4984844 
2.2379218e+2, 2.1236616e+1, -111812.89, -665017.7, 969.37744, 0.0010218745, 0.0012746855, -111811.195, -111811.195, 0.0, 2.5004659, 2.4986343 
2.2379218e+2, 2.3735252e+1, -111101.86, -664005.7, 55.808647, 0.0008916071, 0.0011900039, -111101.86, -111101.86, 0.0, 2.5004663, 2.4986358 
2.2379218e+2, 2.623389e+1, -110842.12, -663926.8, -63.72293, 0.00076521374, 0.0011037703, -110842.11, -110842.11, 0.0, 2.5004668, 2.4986358 
2.2379218e+2, 2.8732526e+1, -110584.17, -663848.8, -184.18762, 0.00064255216, 0.0010175946, -110584.11, -110584.11, 0.0, 2.5004673, 2.4986355 
2.237922e+2, 3.1231242e+1, -68702.016, -577609.8, 285.98035, 0.0007663557, 0.0016289728, -68701.86, -68701.86, 0.0, 2.500468, 2.498783 
2.237922e+2, 3.3730033e+1, -68134.52, -576267.94, -461.97037, 0.001288028, 0.0019693964, -68134.1, -68134.1, 0.0, 2.500468, 2.4987855 
2.237922e+2, 3.6228824e+1, -68278.195, -576395.0, -337.78323, 0.001811839, 0.0023065463, -68277.97, -68277.97, 0.0, 2.5004678, 2.4987855 
2.237922e+2, 3.8727614e+1, -68424.25, -576523.2, -214.85399, 0.002337268, 0.0026439873, -68424.16, -68424.16, 0.0, 2.5004675, 2.4987853 
2.2379221e+2, 4.122648e+1, -26302.01, -488890.13, 673.5655, 0.002521263, 0.0031457173, -26301.03, -26301.03, 0.0, 2.5004675, 2.4989357 
2.2379221e+2, 4.3725413e+1, -25901.768, -487138.22, -219.589, 0.002251995, 0.0025937345, -25901.664, -25901.664, 0.0, 2.5004663, 2.498939 
2.237922e+2, 4.622435e+1, -26520.06, -487494.28, -309.32614, 0.0019814176, 0.0020351564, -26519.852, -26519.852, 0.0, 2.5004654, 2.498939 
2.237922e+2, 4.872328e+1, -27140.793, -487851.53, -400.19257, 0.0017100475, 0.0014756959, -27140.445, -27140.445, 0.0, 2.5004644, 2.4989388 
2.237922e+2, 5.12223e+1, 14461.224, -401831.4, 278.9275, 0.0018143026, 0.0020773765, 14461.41, 14461.41, 0.0, 2.500465, 2.4990864 
2.237922e+2, 5.372139e+1, 16225.992, -398824.44, -238.58424, 0.0023301805, 0.0023100872, 16226.13, 16226.13, 0.0, 2.5004656, 2.4990911 
2.2379221e+2, 5.622049e+1, 16603.479, -398689.13, -212.43062, 0.0028479502, 0.0025323625, 16603.588, 16603.588, 0.0, 2.5004663, 2.499091 
2.2379221e+2, 5.871958e+1, 16978.27, -398555.13, -187.31691, 0.0033674114, 0.0027527127, 16978.354, 16978.354, 0.0, 2.500467, 2.499091 
2.2379221e+2, 6.1218756e+1, 57954.89, -314344.84, 296.1686, 0.003743804, 0.0038150542, 57955.125, 57955.125, 0.0, 2.500468, 2.499235 
2.2379221e+2, 6.3718e+1, 60062.74, -310392.47, 77.10418, 0.0037027055, 0.0040951218, 60062.754, 60062.754, 0.0, 2.5004685, 2.4992416 
2.2379223e+2, 6.621725e+1, 60303.098, -310310.25, -73.66163, 0.0036557603, 0.004364555, 60303.113, 60303.113, 0.0, 2.500469, 2.4992414 
2.2379223e+2, 6.871649e+1, 60540.277, -310229.53, -225.37352, 0.0036045434, 0.0046335068, 60540.414, 60540.414, 0.0, 2.5004694, 2.4992414 
2.2379223e+2, 7.12158e+1, 102009.29, -224047.86, -185.29619, 0.0038168165, 0.0053499704, 102009.39, 102009.39, 0.0, 2.5004692, 2.4993894 
2.2379223e+2, 7.371519e+1, 103602.16, -219244.13, 17.562912, 0.003609494, 0.0044629336, 103602.16, 103602.16, 0.0, 2.5004678, 2.4993985 
2.2379223e+2, 7.621458e+1, 102641.68, -219731.2, -284.44992, 0.0033965725, 0.0035643305, 102641.93, 102641.93, 0.0, 2.500466, 2.4993982 
2.2379224e+2, 7.871397e+1, 101676.51, -220220.56, -586.7199, 0.003182789, 0.0026680445, 101677.58, 101677.58, 0.0, 2.5004644, 2.4993982 
2.2379224e+2, 8.121344e+1, 140026.11, -142184.44, -1569.8992, 0.0033822476, 0.0032567312, 140034.84, 140034.84, 0.0, 2.500466, 2.4995313 
2.2379225e+2, 8.371299e+1, 145729.77, -134162.86, -118.23214, 0.003901259, 0.004027671, 145729.81, 145729.81, 0.0, 2.5004704, 2.4995432 
2.2379225e+2, 8.621254e+1, 148112.95, -133021.6, 358.9471, 0.0044212863, 0.0047923974, 148113.4, 148113.4, 0.0, 2.5004745, 2.4995432 
2.2379227e+2, 8.8712096e+1, 150489.05, -131883.75, 835.8532, 0.004943091, 0.0055602933, 150491.53, 150491.53, 0.0, 2.5004785, 2.4995432 
2.2379227e+2, 9.1211724e+1, 190639.52, -49550.55, 629.58386, 0.005493858, 0.0077828653, 190641.16, 190641.16, 0.0, 2.5004797, 2.4996839 
2.2379227e+2, 9.371141e+1, 192867.94, -41067.44, 1217.8826, 0.0032019375, 0.007214394, 192874.27, 192874.27, 0.0, 2.5004756, 2.4997005 
2.2379225e+2, 9.6211106e+1, 190434.3, -42235.4, 481.2008, 0.00086487987, 0.0066129416, 190435.3, 190435.3, 0.0, 2.5004714, 2.4997005 
2.2379224e+2, 9.87108e+1, 187988.36, -43409.285, -255.12515, -0.0014944935, 0.00601115, 187988.64, 187988.64, 0.0, 2.500467, 2.4997005 
2.2629264e+2, 1.24916896e+0, -197140.77, -841227.06, 617.7051, 0.0011896339, 0.00015507669, -197140.17, -197140.17, 0.0, 2.5004647, 2.4983327 
2.2629264e+2, 3.7475067e+0, -195552.16, -840811.0, 532.82104, 0.0012002565, 0.00046549816, -195551.72, -195551.72, 0.0, 2.5004678, 2.4983318 
2.2629265e+2, 6.245845e+0, -193754.1, -839956.06, 524.61896, 0.0012059165, 0.0007762778, -193753.67, -193753.67, 0.0, 2.5004709, 2.4983318 
2.2629265e+2, 8.7441826e+0, -191958.39, -839102.25, 516.2964, 0.0012066142, 0.0010874155, -191957.98, -191957.98, 0.0, 2.500474, 2.4983318 
2.2629265e+2, 1.1242597e+1, -148987.56, -750314.6, 296.11584, 0.0010090292, 0.0014685586, -148987.42, -148987.42, 0.0, 2.5004745, 2.498484 
2.2629265e+2, 1.3741083e+1, -150270.11, -750545.9, -200.21286, 0.0007917876, 0.0015127643, -150270.05, -150270.05, 0.0, 2.5004718, 2.4984846 
2.2629264e+2, 1.6239573e+1, -151818.25, -751324.0, -164.00189, 0.0005711378, 0.0015572952, -151818.2, -151818.2, 0.0, 2.5004692, 2.4984846 
2.2629264e+2, 1.873806e+1, -153368.95, -752103.3, -128.60907, 0.00034684478, 0.0016026504, -153368.92, -153368.92, 0.0, 2.5004666, 2.4984846 
2.2629265e+2, 2.1236622e+1, -111995.31, -665451.2, 1077.2053, 0.00048026972, 0.0018806987, -111993.22, -111993.22, 0.0, 2.5004659, 2.4986336 
2.2629265e+2, 2.3735258e+1, -111273.34, -664421.0, 123.44314, 0.0010457289, 0.0017511438, -111273.31, -111273.31, 0.0, 2.5004663, 2.498635 
2.2629267e+2, 2.6233894e+1, -111013.89, -664347.2, 6.671537, 0.0016082564, 0.0016200597, -111013.89, -111013.89, 0.0, 2.5004668, 2.498635 
2.2629267e+2, 2.873253e+1, -110756.234, -664274.3, -111.03318, 0.0021676854, 0.0014890769, -110756.21, -110756.21, 0.0, 2.5004673, 2.4986348 
2.2629267e+2, 3.1231245e+1, -68417.26, -577119.8, 344.54938, 0.0021280923, 0.0019976113, -68417.02, -68417.02, 0.0, 2.5004683, 2.4987838 
2.2629267e+2, 3.3730033e+1, -67814.516, -575711.06, -497.08386, 0.0016297135, 0.0021693083, -67814.03, -67814.03, 0.0, 2.500468, 2.4987864 
2.2629267e+2, 3.6228824e+1, -67956.81, -575841.44, -370.38687, 0.0011276215, 0.0023374446, -67956.54, -67956.54, 0.0, 2.5004678, 2.4987862 
2.2629265e+2, 3.8727614e+1, -68101.48, -575972.9, -244.9478, 0.0006212874, 0.0025056151, -68101.36, -68101.36, 0.0, 2.5004678, 2.4987862 
2.2629265e+2, 4.122648e+1, -26383.271, -489204.6, 578.5504, 0.00082734966, 0.002956814, -26382.549, -26382.549, 0.0, 2.5004675, 2.498935 
2.2629267e+2, 4.3725413e+1, -25950.791, -487391.9, -375.04355, 0.0016704531, 0.0024459502, -25950.486, -25950.486, 0.0, 2.5004666, 2.4989386 
2.2629267e+2, 4.622435e+1, -26567.453, -487750.63, -462.42413, 0.0025067977, 0.0019284764, -26566.988, -26566.988, 0.0, 2.5004656, 2.4989386 
2.2629267e+2, 4.872328e+1, -27186.555, -488110.53, -550.9341, 0.0033368617, 0.0014102594, -27185.896, -27185.896, 0.0, 2.5004647, 2.4989383 
2.2629268e+2, 5.12223e+1, 14595.77, -401745.78, 462.67578, 0.0034994439, 0.002077163, 14596.284, 14596.284, 0.0, 2.5004652, 2.4990864 
2.2629267e+2, 5.372139e+1, 16429.104, -398603.03, -136.5354, 0.0030191196, 0.0023630662, 16429.148, 16429.148, 0.0, 2.5004659, 2.4990914 
2.2629267e+2, 5.622049e+1, 16807.54, -398472.16, -107.692635, 0.0025348878, 0.00263873, 16807.566, 16807.566, 0.0, 2.5004666, 2.4990914 
2.2629267e+2, 5.871959e+1, 17183.277, -398342.63, -79.88981, 0.002046481, 0.0029129016, 17183.293, 17183.293, 0.0, 2.5004673, 2.4990911 
2.2629267e+2, 6.1218756e+1, 57807.895, -314882.2, 414.86386, 0.0022172169, 0.0038145233, 57808.355, 57808.355, 0.0, 2.5004683, 2.499234 
2.2629268e+2, 6.3718e+1, 59959.54, -310844.16, 143.58653, 0.0027978078, 0.0036840925, 59959.594, 59959.594, 0.0, 2.5004687, 2.4992406 
2.2629268e+2, 6.621723e+1, 60202.836, -310761.0, -4.071953, 0.0033659455, 0.0035428687, 60202.836, 60202.836, 0.0, 2.5004692, 2.4992406 
2.262927e+2, 6.871648e+1, 60442.95, -310679.4, -152.67653, 0.0039232294, 0.0034011947, 60443.01, 60443.01, 0.0, 2.5004697, 2.4992404 
2.262927e+2, 7.121579e+1, 101613.87, -225129.5, -364.57727, 0.00443834, 0.0043851505, 101614.27, 101614.27, 0.0, 2.5004697, 2.4993873 
2.262927e+2, 7.3715186e+1, 103239.74, -220262.17, -225.91235, 0.0042226543, 0.0044772374, 103239.9, 103239.9, 0.0, 2.500468, 2.4993966 
2.262927e+2, 7.621458e+1, 102280.875, -220750.84, -524.22833, 0.0039911796, 0.0045585, 102281.72, 102281.72, 0.0, 2.5004663, 2.4993963 
2.2629271e+2, 7.8713983e+1, 101317.305, -221241.77, -822.80145, 0.0037486416, 0.004642742, 101319.4, 101319.4, 0.0, 2.5004647, 2.4993963 
2.2629271e+2, 8.1213456e+1, 141072.98, -140287.53, -896.56366, 0.0036393935, 0.0054420168, 141075.84, 141075.84, 0.0, 2.5004666, 2.4995346 
2.2629271e+2, 8.3712995e+1, 146840.14, -132140.42, 504.08145, 0.003462943, 0.0055591753, 146841.05, 146841.05, 0.0, 2.5004706, 2.4995465 
2.2629273e+2, 8.6212546e+1, 149231.05, -130989.46, 986.6058, 0.0032722417, 0.0056686, 149234.52, 149234.52, 0.0, 2.5004747, 2.4995465 
2.2629273e+2, 8.8712096e+1, 151614.86, -129841.92, 1468.8569, 0.003068762, 0.005780204, 151622.52, 151622.52, 0.0, 2.5004787, 2.4995465 
2.2629274e+2, 9.1211724e+1, 189504.38, -52202.305, 134.39824, 0.0038888503, 0.007733022, 189504.45, 189504.45, 0.0, 2.50048, 2.4996793 
2.2629274e+2, 9.371141e+1, 191756.42, -43674.09, 603.03815, 0.002979376, 0.0072770882, 191757.97, 191757.97, 0.0, 2.500476, 2.499696 
2.2629274e+2, 9.62111e+1, 189328.25, -44834.77, -123.83881, 0.0020003417, 0.0067875306, 189328.31, 189328.31, 0.0, 2.5004716, 2.499696 
2.2629274e+2, 9.8710793e+1, 186887.78, -46001.383, -850.3599, 0.00097388483, 0.0062971637, 186890.88, 186890.88, 0.0, 2.5004675, 2.499696 
2.287931e+2, 1.24916874e+0, -199720.56, -842493.8, 1080.057, 0.0020057252, 0.00013388804, -199718.75, -199718.75, 0.0, 2.5004601, 2.4983325 
2.287931e+2, 3.747506e+0, -198058.63, -842051.75, 994.7207, 0.0015009453, 0.0004023881, -198057.08, -198057.08, 0.0, 2.5004635, 2.4983318 
2.287931e+2, 6.245843e+0, -196257.4, -841198.25, 989.62506, 0.0009800377, 0.00067185424, -196255.89, -196255.89, 0.0, 2.5004666, 2.4983318 
2.287931e+2, 8.744181e+0, -194532.75, -840381.6, 986.0447, 0.00044300282, 0.0009422863, -194531.25, -194531.25, 0.0, 2.5004697, 2.4983318 
2.287931e+2, 1.1242595e+1, -151408.13, -751394.9, -75.13199, -0.000017763157, 0.0014099893, -151408.13, -151408.13, 0.0, 2.5004702, 2.4984841 
2.287931e+2, 1.3741086e+1, -152469.86, -751505.56, -636.9894, -0.00018319166, 0.0016462451, -152469.19, -152469.19, 0.0, 2.500468, 2.4984848 
2.287931e+2, 1.6239576e+1, -153866.69, -752212.8, -623.78864, -0.00036104617, 0.0018827382, -153866.05, -153866.05, 0.0, 2.5004656, 2.4984848 
2.2879308e+2, 1.8738066e+1, -155325.47, -752949.9, -615.05817, -0.0005516073, 0.002119995, -155324.84, -155324.84, 0.0, 2.5004632, 2.4984848 
2.287931e+2, 2.123663e+1, -114080.42, -666824.2, 1072.186, -0.00005506978, 0.0024842266, -114078.34, -114078.34, 0.0, 2.5004628, 2.4986327 
2.2879311e+2, 2.3735264e+1, -113122.42, -665647.4, 56.83416, 0.0012078739, 0.0023066262, -113122.42, -113122.42, 0.0, 2.5004635, 2.4986343 
2.2879313e+2, 2.62339e+1, -112695.8, -665498.0, -77.870544, 0.0024613398, 0.00212751, -112695.79, -112695.79, 0.0, 2.5004644, 2.498634 
2.2879316e+2, 2.8732532e+1, -112316.04, -665371.1, -215.57231, 0.0037051619, 0.001948578, -112315.95, -112315.95, 0.0, 2.5004652, 2.498634 
2.2879316e+2, 3.1231248e+1, -69375.24, -577249.4, 203.41658, 0.0034824784, 0.0023649829, -69375.16, -69375.16, 0.0, 2.5004663, 2.4987845 
2.2879313e+2, 3.373004e+1, -68522.664, -575651.4, -776.6532, 0.0019654941, 0.002365322, -68521.48, -68521.48, 0.0, 2.5004663, 2.4987874 
2.2879311e+2, 3.6228824e+1, -68500.516, -575706.44, -687.46625, 0.00043932852, 0.0023617723, -68499.58, -68499.58, 0.0, 2.5004666, 2.4987872 
2.287931e+2, 3.8727614e+1, -68520.41, -575781.7, -601.9776, -0.0010967046, 0.002358048, -68519.695, -68519.695, 0.0, 2.5004666, 2.498787 
2.287931e+2, 4.122648e+1, -27031.87, -489806.25, 124.848076, -0.0008582075, 0.0027649805, -27031.836, -27031.836, 0.0, 2.5004668, 2.4989345 
2.2879311e+2, 4.3725413e+1, -26335.143, -487808.13, -915.91693, 0.0010969061, 0.0022926861, -26333.324, -26333.324, 0.0, 2.500466, 2.498938 
2.2879313e+2, 4.6224347e+1, -26791.203, -488092.94, -1029.2626, 0.003040085, 0.001813742, -26788.906, -26788.906, 0.0, 2.5004654, 2.498938 
2.2879316e+2, 4.872328e+1, -27314.627, -488410.2, -1147.0125, 0.004971868, 0.0013342409, -27311.773, -27311.773, 0.0, 2.5004647, 2.4989378 
2.2879316e+2, 5.12223e+1, 14727.142, -401686.56, 163.4499, 0.0051791654, 0.002078574, 14727.206, 14727.206, 0.0, 2.5004654, 2.4990864 
2.2879313e+2, 5.37214e+1, 16752.32, -398324.84, -577.8342, 0.0037038152, 0.00241424, 16753.125, 16753.125, 0.0, 2.5004663, 2.4990916 
2.2879313e+2, 5.622049e+1, 17182.297, -398174.06, -603.09546, 0.002219128, 0.0027397661, 17183.172, 17183.172, 0.0, 2.500467, 2.4990916 
2.2879311e+2, 5.871959e+1, 17551.762, -398052.44, -631.12714, 0.0007246128, 0.0030642892, 17552.719, 17552.719, 0.0, 2.5004678, 2.4990914 
2.2879311e+2, 6.1218756e+1, 57798.797, -315375.34, -169.2439, 0.00069783983, 0.0038186759, 57798.875, 57798.875, 0.0, 2.5004687, 2.4992328 
2.2879313e+2, 6.3717985e+1, 59981.125, -311235.9, -524.98956, 0.0018983932, 0.0032741132, 59981.867, 59981.867, 0.0, 2.5004692, 2.4992397 
2.2879316e+2, 6.6217226e+1, 60125.023, -311201.22, -705.1191, 0.0030802158, 0.0027184628, 60126.363, 60126.363, 0.0, 2.5004694, 2.4992397 
2.2879317e+2, 6.871646e+1, 60190.36, -311204.38, -890.21655, 0.004245029, 0.0021624407, 60192.492, 60192.492, 0.0, 2.5004697, 2.4992397 
2.2879317e+2, 7.1215785e+1, 100942.055, -226364.88, -1388.8778, 0.005068391, 0.0034246885, 100947.945, 100947.945, 0.0, 2.5004694, 2.4993854 
2.2879317e+2, 7.3715186e+1, 102560.43, -221431.39, -1338.3109, 0.004842319, 0.0044936175, 102565.96, 102565.96, 0.0, 2.5004678, 2.4993947 
2.2879317e+2, 7.6214594e+1, 101438.03, -222001.03, -1653.9883, 0.0045907917, 0.0055522206, 101446.49, 101446.49, 0.0, 2.5004659, 2.4993944 
2.2879317e+2, 7.8713995e+1, 100200.016, -222626.34, -1966.6735, 0.0043185893, 0.0066143894, 100212.0, 100212.0, 0.0, 2.5004637, 2.4993944 
2.2879317e+2, 8.121346e+1, 141040.34, -138926.34, -1130.2118, 0.0039041725, 0.0076325857, 141044.9, 141044.9, 0.0, 2.500465, 2.4995375 
2.2879319e+2, 8.371301e+1, 146526.23, -130800.74, 237.51303, 0.003024138, 0.0070923357, 146526.44, 146526.44, 0.0, 2.5004685, 2.4995499 
2.2879319e+2, 8.621256e+1, 148424.47, -129881.29, 733.04614, 0.0021153684, 0.006542649, 148426.4, 148426.4, 0.0, 2.5004718, 2.4995499 
2.2879319e+2, 8.8712096e+1, 150171.94, -129034.45, 1219.8522, 0.0011800969, 0.005994116, 150177.27, 150177.27, 0.0, 2.5004747, 2.4995499 
2.287932e+2, 9.121172e+1, 185338.83, -56351.01, -1198.9602, 0.0023254359, 0.0076993657, 185344.78, 185344.78, 0.0, 2.5004752, 2.4996746 
2.2879322e+2, 9.37114e+1, 187284.67, -47892.457, -737.2845, 0.002791441, 0.0073507903, 187286.98, 187286.98, 0.0, 2.5004704, 2.4996912 
2.2879322e+2, 9.621109e+1, 184157.6, -49385.62, -1363.4585, 0.0031647389, 0.006967428, 184165.56, 184165.56, 0.0, 2.500465, 2.4996912 
2.2879323e+2, 9.8710775e+1, 180671.55, -51051.66, -2001.4971, 0.0034676732, 0.00658264, 180688.83, 180688.83, 0.0, 2.500459, 2.4996912 
2.3129357e+2, 1.2491685e+0, -191645.34, -838649.75, 1092.382, 0.0022850072, 0.00010929955, -191643.5, -191643.5, 0.0, 2.5004742, 2.4983325 
2.3129357e+2, 3.7475055e+0, -193620.48, -839964.1, 984.4694, 0.001621312, 0.00032746673, -193618.98, -193618.98, 0.0, 2.500471, 2.4983318 
2.3129357e+2, 6.245842e+0, -195378.67, -840825.56, 957.01697, 0.00097072765, 0.00054505875, -195377.27, -195377.27, 0.0, 2.5004683, 2.4983315 
2.3129357e+2, 8.744179e+0, -197138.34, -841687.7, 929.37396, 0.0003332544, 0.0007620755, -197137.0, -197137.0, 0.0, 2.5004652, 2.4983315 
2.3129357e+2, 1.1242594e+1, -154550.97, -752983.1, -122.64266, -0.00016398008, 0.0012392459, -154550.94, -154550.94, 0.0, 2.500465, 2.498484 
2.3129357e+2, 1.3741083e+1, -153077.83, -751879.94, -813.4483, -0.0002966229, 0.0015540391, -153076.72, -153076.72, 0.0, 2.500467, 2.4984848 
2.3129356e+2, 1.6239575e+1, -151879.69, -751345.7, -888.3013, -0.00041937936, 0.0018690863, -151878.38, -151878.38, 0.0, 2.5004692, 2.4984846 
2.3129356e+2, 1.8738066e+1, -150682.69, -750812.0, -963.7729, -0.0005325413, 0.002184909, -150681.13, -150681.13, 0.0, 2.500471, 2.4984846 
2.3129357e+2, 2.123663e+1, -108727.82, -664387.3, 823.5876, 0.0000011240713, 0.0026077402, -108726.6, -108726.6, 0.0, 2.500472, 2.4986324 
2.3129357e+2, 2.3735264e+1, -109173.84, -663868.9, -73.30792, 0.0012947171, 0.002454872, -109173.836, -109173.836, 0.0, 2.5004704, 2.498634 
2.3129359e+2, 2.62339e+1, -110122.85, -664390.56, -26.534458, 0.0025926456, 0.0023028275, -110122.85, -110122.85, 0.0, 2.500469, 2.4986339 
2.312936e+2, 2.8732532e+1, -111073.305, -664912.94, 19.128313, 0.0038946376, 0.0021533452, -111073.3, -111073.3, 0.0, 2.5004673, 2.4986336 
2.3129362e+2, 3.1231245e+1, -68988.51, -576994.1, 617.5307, 0.0036818392, 0.0024841207, -68987.75, -68987.75, 0.0, 2.5004668, 2.4987848 
2.312936e+2, 3.3730033e+1, -68471.54, -575519.8, -582.3904, 0.0021251694, 0.0022753344, -68470.875, -68470.875, 0.0, 2.5004663, 2.4987876 
2.3129357e+2, 3.622882e+1, -68773.09, -575739.94, -624.95013, 0.0005709778, 0.0020647356, -68772.32, -68772.32, 0.0, 2.5004659, 2.4987874 
2.3129356e+2, 3.8727608e+1, -69076.234, -575960.9, -668.8783, -0.0009814295, 0.0018560732, -69075.35, -69075.35, 0.0, 2.5004654, 2.4987872 
2.3129357e+2, 4.122647e+1, -27394.355, -490219.75, 172.2874, -0.0007985054, 0.002293082, -27394.291, -27394.291, 0.0, 2.5004663, 2.4989338 
2.3129359e+2, 4.3725407e+1, -25706.002, -487682.94, -864.10016, 0.0011022523, 0.0020657962, -25704.387, -25704.387, 0.0, 2.5004675, 2.4989376 
2.312936e+2, 4.6224344e+1, -25150.904, -487490.97, -895.0232, 0.0030088753, 0.0018337194, -25149.172, -25149.172, 0.0, 2.5004685, 2.4989376 
2.3129362e+2, 4.872328e+1, -24598.32, -487300.22, -927.2928, 0.0049217604, 0.0016030632, -24596.46, -24596.46, 0.0, 2.5004694, 2.4989374 
2.3129362e+2, 5.12223e+1, 17040.242, -400979.9, 360.8663, 0.0051499447, 0.0024341624, 17040.555, 17040.555, 0.0, 2.5004697, 2.4990854 
2.312936e+2, 5.372139e+1, 17738.736, -398176.88, -664.6961, 0.0037196856, 0.002674124, 17739.797, 17739.797, 0.0, 2.5004683, 2.499091 
2.3129359e+2, 5.6220484e+1, 16846.082, -398671.38, -901.88055, 0.0022899988, 0.0029062112, 16848.04, 16848.04, 0.0, 2.5004668, 2.4990907 
2.3129357e+2, 5.871958e+1, 15950.925, -399167.1, -1140.2009, 0.0008604644, 0.0031396823, 15954.057, 15954.057, 0.0, 2.5004654, 2.4990907 
2.3129357e+2, 6.1218745e+1, 55850.19, -316186.63, -385.23328, 0.0008023717, 0.0038481217, 55850.59, 55850.59, 0.0, 2.5004652, 2.499233 
2.3129359e+2, 6.371798e+1, 58146.664, -311919.25, -359.96368, 0.0018744835, 0.0032702805, 58147.01, 58147.01, 0.0, 2.5004659, 2.4992402 
2.312936e+2, 6.6217214e+1, 58428.77, -311828.03, -107.52758, 0.002949501, 0.0026823329, 58428.8, 58428.8, 0.0, 2.5004663, 2.4992402 
2.3129362e+2, 6.8716455e+1, 58707.98, -311738.25, 143.92554, 0.004029217, 0.0020951978, 58708.04, 58708.04, 0.0, 2.5004668, 2.49924 
2.3129363e+2, 7.121577e+1, 99919.3, -227487.69, -29.556519, 0.0048535154, 0.0034611847, 99919.3, 99919.3, 0.0, 2.5004683, 2.499384 
2.3129363e+2, 7.371518e+1, 103570.28, -221529.19, 122.39075, 0.0047068433, 0.004755974, 103570.33, 103570.33, 0.0, 2.5004702, 2.4993932 
2.3129363e+2, 7.621458e+1, 104566.805, -221075.55, -48.721676, 0.004562962, 0.0060354285, 104566.81, 104566.81, 0.0, 2.5004718, 2.4993932 
2.3129363e+2, 7.871399e+1, 105559.586, -220623.72, -220.39922, 0.0044267704, 0.007313546, 105559.734, 105559.734, 0.0, 2.5004735, 2.4993932 
2.3129363e+2, 8.121346e+1, 146170.5, -136046.61, 428.41904, 0.003995423, 0.008364298, 146171.16, 146171.16, 0.0, 2.5004733, 2.4995384 
2.3129363e+2, 8.3713007e+1, 148099.06, -129599.766, 928.6003, 0.0028705664, 0.007646241, 148102.16, 148102.16, 0.0, 2.5004706, 2.4995508 
2.3129363e+2, 8.6212546e+1, 146559.77, -130347.25, 593.16956, 0.0017572156, 0.0069165616, 146561.03, 146561.03, 0.0, 2.500468, 2.4995508 
2.3129365e+2, 8.871209e+1, 145015.14, -131097.3, 257.72836, 0.0006581728, 0.006186037, 145015.39, 145015.39, 0.0, 2.5004654, 2.4995508 
2.3129366e+2, 9.1211706e+1, 180719.6, -58147.676, -1867.5817, 0.0019483519, 0.007866884, 180734.2, 180734.2, 0.0, 2.5004668, 2.4996755 
2.312937e+2, 9.3711394e+1, 187362.52, -47440.54, -240.77316, 0.0029461493, 0.007605536, 187362.75, 187362.75, 0.0, 2.5004702, 2.4996922 
2.312937e+2, 9.621108e+1, 189269.28, -46532.84, 415.19073, 0.0039525433, 0.0073025846, 189270.02, 189270.02, 0.0, 2.5004733, 2.4996922 
2.3129371e+2, 9.871077e+1, 191159.22, -45633.246, 1072.0223, 0.0049897553, 0.0069917925, 191164.06, 191164.06, 0.0, 2.5004766, 2.4996922 
2.3379405e+2, 1.2491683e+0, -191681.42, -838725.1, 635.0738, 0.0016360182, 0.00009285785, -191680.8, -191680.8, 0.0, 2.5004742, 2.4983323 
2.3379405e+2, 3.7475047e+0, -193657.81, -840043.06, 527.6787, 0.0012595102, 0.00027858128, -193657.38, -193657.38, 0.0, 2.500471, 2.4983315 
2.3379405e+2, 6.245841e+0, -195416.17, -840905.7, 502.57013, 0.00088928425, 0.00046431582, -195415.78, -195415.78, 0.0, 2.5004683, 2.4983315 
2.3379405e+2, 8.744178e+0, -197176.0, -841769.0, 477.27094, 0.0005253406, 0.00065006135, -197175.64, -197175.64, 0.0, 2.5004652, 2.4983315 
2.3379405e+2, 1.12425916e+1, -154656.02, -753220.94, 216.28517, 0.00020923001, 0.0010894045, -154655.94, -154655.94, 0.0, 2.500465, 2.4984834 
2.3379403e+2, 1.3741082e+1, -153188.88, -752133.75, -500.07132, 0.00013446217, 0.0013885425, -153188.45, -153188.45, 0.0, 2.500467, 2.4984844 
2.3379403e+2, 1.623957e+1, -151989.73, -751600.9, -572.8715, 0.00006516593, 0.0016884801, -151989.19, -151989.19, 0.0, 2.5004692, 2.4984841 
2.3379403e+2, 1.8738061e+1, -150791.7, -751068.6, -646.2903, 0.00000108975, 0.001989705, -150791.0, -150791.0, 0.0, 2.5004714, 2.4984841 
2.3379405e+2, 2.1236625e+1, -108588.375, -664157.75, 657.27936, 0.00026328987, 0.002456092, -108587.6, -108587.6, 0.0, 2.500472, 2.4986327 
2.3379405e+2, 2.3735262e+1, -109023.13, -663623.06, -314.83835, 0.0010411174, 0.0024002276, -109022.95, -109022.95, 0.0, 2.5004706, 2.4986343 
2.3379406e+2, 2.62339e+1, -109969.6, -664146.5, -266.24637, 0.0018196233, 0.0023449173, -109969.48, -109969.48, 0.0, 2.500469, 2.4986343 
2.3379406e+2, 2.8732532e+1, -110917.51, -664670.6, -218.76508, 0.0025983255, 0.0022919097, -110917.42, -110917.42, 0.0, 2.5004675, 2.498634 
2.3379408e+2, 3.1231245e+1, -68976.98, -577085.75, 612.7478, 0.00259312, 0.0025418617, -68976.234, -68976.234, 0.0, 2.500467, 2.4987845 
2.3379406e+2, 3.373003e+1, -68444.8, -575588.8, -653.3789, 0.0019197746, 0.0020969326, -68443.96, -68443.96, 0.0, 2.5004666, 2.4987874 
2.3379405e+2, 3.6228812e+1, -68743.59, -575811.94, -694.31085, 0.001244938, 0.0016500137, -68742.65, -68742.65, 0.0, 2.500466, 2.4987872 
2.3379405e+2, 3.87276e+1, -69043.984, -576035.9, -736.6111, 0.00056814536, 0.0012047933, -69042.914, -69042.914, 0.0, 2.5004656, 2.498787 
2.3379405e+2, 4.1226465e+1, -27349.875, -490305.75, 409.85962, 0.0006185999, 0.0017354084, -27349.512, -27349.512, 0.0, 2.5004666, 2.4989336 
2.3379405e+2, 4.3725404e+1, -25607.164, -487663.72, -711.43646, 0.0014494741, 0.0019306195, -25606.068, -25606.068, 0.0, 2.5004678, 2.4989376 
2.3379406e+2, 4.6224347e+1, -25050.104, -487475.13, -739.9227, 0.0022808742, 0.0021214501, -25048.918, -25048.918, 0.0, 2.5004687, 2.4989374 
2.3379406e+2, 4.8723286e+1, -24495.555, -487287.78, -769.75543, 0.0031127871, 0.0023141513, -24494.273, -24494.273, 0.0, 2.5004697, 2.4989374 
2.3379408e+2, 5.1222306e+1, 16767.377, -401782.63, 189.24226, 0.003346563, 0.0032173663, 16767.463, 16767.463, 0.0, 2.50047, 2.499084 
2.3379406e+2, 5.372139e+1, 17494.67, -398925.84, -887.23566, 0.0029573862, 0.0032011638, 17496.56, 17496.56, 0.0, 2.5004685, 2.4990895 
2.3379406e+2, 5.6220484e+1, 16603.059, -399424.03, -1121.8728, 0.0025626123, 0.0031779474, 16606.084, 16606.084, 0.0, 2.500467, 2.4990895 
2.3379406e+2, 5.8719575e+1, 15708.944, -399923.4, -1357.6459, 0.0021622677, 0.0031568361, 15713.379, 15713.379, 0.0, 2.5004656, 2.4990892 
2.3379406e+2, 6.121874e+1, 56492.785, -315128.16, -263.9892, 0.0022291301, 0.0038785369, 56492.973, 56492.973, 0.0, 2.5004656, 2.4992347 
2.3379406e+2, 6.371798e+1, 58840.363, -310760.4, -277.26013, 0.0025166788, 0.0035864203, 58840.57, 58840.57, 0.0, 2.500466, 2.499242 
2.3379408e+2, 6.6217214e+1, 59123.5, -310672.75, -22.259146, 0.0028014237, 0.0032844236, 59123.5, 59123.5, 0.0, 2.5004666, 2.4992418 
2.3379408e+2, 6.871646e+1, 59403.742, -310586.44, 231.75885, 0.0030850729, 0.002983511, 59403.887, 59403.887, 0.0, 2.500467, 2.4992418 
2.337941e+2, 7.121577e+1, 99839.81, -227954.02, 259.89288, 0.0036258372, 0.0042350716, 99840.02, 99840.02, 0.0, 2.5004687, 2.499383 
2.337941e+2, 7.371518e+1, 103500.65, -221978.61, 386.94284, 0.0037131943, 0.0049921516, 103501.1, 103501.1, 0.0, 2.5004704, 2.4993923 
2.337941e+2, 7.6214576e+1, 104498.31, -221526.16, 218.67491, 0.0037957309, 0.005734315, 104498.46, 104498.46, 0.0, 2.500472, 2.4993923 
2.3379411e+2, 7.871397e+1, 105492.234, -221075.5, 49.841858, 0.0038784659, 0.006475692, 105492.24, 105492.24, 0.0, 2.500474, 2.4993923 
2.3379411e+2, 8.121344e+1, 145826.31, -137076.38, 38.49945, 0.0037002396, 0.0073419544, 145826.31, 145826.31, 0.0, 2.5004737, 2.4995365 
2.3379411e+2, 8.371299e+1, 147747.22, -130646.83, 538.35443, 0.002820364, 0.00684466, 147748.27, 147748.27, 0.0, 2.500471, 2.499549 
2.3379411e+2, 8.6212534e+1, 146209.0, -131393.56, 206.31607, 0.0019410815, 0.0063376008, 146209.14, 146209.14, 0.0, 2.5004685, 2.499549 
2.3379411e+2, 8.871207e+1, 144665.45, -132142.86, -125.73271, 0.0010655678, 0.005831284, 144665.52, 144665.52, 0.0, 2.5004659, 2.499549 
2.3379412e+2, 9.12117e+1, 182295.0, -55207.867, -1265.8433, 0.0023351938, 0.007659246, 182301.75, 182301.75, 0.0, 2.500467, 2.4996803 
2.3379414e+2, 9.371139e+1, 188906.17, -44568.688, 275.31616, 0.0031628208, 0.007439254, 188906.5, 188906.5, 0.0, 2.5004704, 2.499697 
2.3379415e+2, 9.621108e+1, 190818.72, -43650.742, 944.06537, 0.0039677075, 0.007177424, 190822.52, 190822.52, 0.0, 2.5004737, 2.499697 
2.3379417e+2, 9.8710775e+1, 192714.44, -42740.9, 1613.6823, 0.0047713565, 0.006907784, 192725.5, 192725.5, 0.0, 2.500477, 2.499697 
2.3629451e+2, 1.2491681e+0, -191717.81, -838801.2, 177.29678, 0.0009870938, 0.000075690135, -191717.77, -191717.77, 0.0, 2.5004742, 2.4983323 
2.3629451e+2, 3.747504e+0, -193696.19, -840124.1, 71.13736, 0.00089790253, 0.00022751781, -193696.19, -193696.19, 0.0, 2.500471, 2.4983313 
2.3629451e+2, 6.24584e+0, -195454.72, -840988.0, 48.372585, 0.0008081645, 0.00037994282, -195454.72, -195454.72, 0.0, 2.5004683, 2.4983313 
2.3629451e+2, 8.744176e+0, -197214.7, -841852.5, 25.41725, 0.0007178799, 0.00053296506, -197214.7, -197214.7, 0.0, 2.5004652, 2.4983313 
2.3629451e+2, 1.124259e+1, -154769.72, -753476.7, 558.49695, 0.00058248756, 0.0009406417, -154769.2, -154769.2, 0.0, 2.500465, 2.498483 
2.3629451e+2, 1.3741079e+1, -153301.03, -752389.9, -186.07047, 0.0005653246, 0.0012209273, -153300.98, -153300.98, 0.0, 2.500467, 2.498484 
2.3629451e+2, 1.6239569e+1, -152100.88, -751858.44, -256.81784, 0.00054922036, 0.0015025391, -152100.77, -152100.77, 0.0, 2.5004692, 2.4984837 
2.3629451e+2, 1.8738057e+1, -150901.83, -751327.56, -328.18387, 0.00053396175, 0.0017859493, -150901.66, -150901.66, 0.0, 2.5004714, 2.4984837 
2.3629452e+2, 2.1236622e+1, -108459.55, -663950.2, 495.6541, 0.0005273983, 0.0023031188, -108459.11, -108459.11, 0.0, 2.500472, 2.4986331 
2.3629452e+2, 2.373526e+1, -108873.35, -663379.2, -555.27057, 0.00078934844, 0.0023415037, -108872.8, -108872.8, 0.0, 2.5004706, 2.4986348 
2.3629452e+2, 2.6233897e+1, -109817.29, -663904.44, -504.86008, 0.0010483058, 0.0023801278, -109816.83, -109816.83, 0.0, 2.500469, 2.4986346 
2.3629452e+2, 2.8732535e+1, -110762.66, -664430.3, -455.56024, 0.0013035915, 0.0024207956, -110762.28, -110762.28, 0.0, 2.5004675, 2.4986346 
2.3629454e+2, 3.1231245e+1, -68974.51, -577196.25, 613.183, 0.0015053232, 0.0025965185, -68973.77, -68973.77, 0.0, 2.500467, 2.4987843 
2.3629452e+2, 3.3730027e+1, -68418.85, -575659.44, -722.95764, 0.0017156963, 0.0019130543, -68417.82, -68417.82, 0.0, 2.5004666, 2.4987872 
2.3629452e+2, 3.622881e+1, -68714.89, -575885.6, -762.2617, 0.001920609, 0.0012273623, -68713.75, -68713.75, 0.0, 2.5004663, 2.498787 
2.3629452e+2, 3.8727593e+1, -69012.52, -576112.56, -802.93414, 0.0021198257, 0.00054313097, -69011.25, -69011.25, 0.0, 2.5004659, 2.4987867 
2.3629454e+2, 4.1226456e+1, -27315.918, -490413.6, 653.18256, 0.0020362868, 0.001175727, -27314.996, -27314.996, 0.0, 2.5004668, 2.4989333 
2.3629452e+2, 4.3725404e+1, -25509.092, -487646.06, -557.3671, 0.0017976408, 0.0017904366, -25508.42, -25508.42, 0.0, 2.5004678, 2.4989376 
2.3629452e+2, 4.6224347e+1, -24950.068, -487460.9, -583.41656, 0.0015541944, 0.0024010856, -24949.332, -24949.332, 0.0, 2.500469, 2.4989374 
2.3629452e+2, 4.872329e+1, -24393.559, -487276.94, -610.8125, 0.0013055112, 0.0030140546, -24392.752, -24392.752, 0.0, 2.50047, 2.4989371 
2.3629452e+2, 5.1222306e+1, 16483.678, -402607.84, 23.240887, 0.0015450218, 0.003999739, 16483.678, 16483.678, 0.0, 2.5004702, 2.4990823 
2.3629454e+2, 5.372139e+1, 17249.846, -399676.4, -1108.5192, 0.0021978018, 0.0037239518, 17252.793, 17252.793, 0.0, 2.5004687, 2.499088 
2.3629454e+2, 5.6220484e+1, 16359.277, -400178.25, -1340.609, 0.0028388177, 0.0034418828, 16363.592, 16363.592, 0.0, 2.5004673, 2.499088 
2.3629454e+2, 5.8719563e+1, 15466.205, -400681.28, -1573.8348, 0.0034685396, 0.0031626404, 15472.157, 15472.157, 0.0, 2.5004659, 2.4990878 
2.3629454e+2, 6.121873e+1, 57120.695, -314100.16, -139.04268, 0.0036565834, 0.003908713, 57120.746, 57120.746, 0.0, 2.5004659, 2.4992363 
2.3629454e+2, 6.3717973e+1, 59533.38, -309603.0, -193.39091, 0.003160653, 0.0038991857, 59533.48, 59533.48, 0.0, 2.5004663, 2.499244 
2.3629454e+2, 6.6217226e+1, 59817.547, -309518.84, 64.174965, 0.0026562593, 0.0038798384, 59817.56, 59817.56, 0.0, 2.500467, 2.4992437 
2.3629454e+2, 6.871646e+1, 60098.82, -309436.1, 320.75784, 0.0021449758, 0.0038618464, 60099.098, 60099.098, 0.0, 2.5004675, 2.4992437 
2.3629455e+2, 7.1215785e+1, 99747.83, -228446.31, 549.3701, 0.0024034881, 0.0050093355, 99748.75, 99748.75, 0.0, 2.500469, 2.499382 
2.3629455e+2, 7.371518e+1, 103430.41, -222429.28, 652.18445, 0.0027245088, 0.005226153, 103431.71, 103431.71, 0.0, 2.5004706, 2.4993913 
2.3629457e+2, 7.621457e+1, 104429.22, -221978.0, 486.76102, 0.0030330927, 0.0054283054, 104429.945, 104429.945, 0.0, 2.5004725, 2.4993913 
2.3629458e+2, 7.8713965e+1, 105424.28, -221528.55, 320.77243, 0.0033343832, 0.005630222, 105424.59, 105424.59, 0.0, 2.5004742, 2.4993913 
2.3629458e+2, 8.1213427e+1, 145469.38, -138132.61, -353.69052, 0.003414112, 0.006319254, 145469.81, 145469.81, 0.0, 2.500474, 2.4995346 
2.3629458e+2, 8.371298e+1, 147394.9, -131694.88, 148.15825, 0.0027765206, 0.006040498, 147394.98, 147394.98, 0.0, 2.5004714, 2.499547 
2.3629458e+2, 8.6212516e+1, 145857.75, -132440.86, -180.48773, 0.0021285503, 0.0057537053, 145857.88, 145857.88, 0.0, 2.5004687, 2.4995468 
2.3629458e+2, 8.871206e+1, 144315.28, -133189.4, -509.14413, 0.0014738095, 0.0054692426, 144316.22, 144316.22, 0.0, 2.500466, 2.4995468 
2.362946e+2, 9.121168e+1, 183849.73, -52311.0, -666.5927, 0.0027536917, 0.0074635902, 183851.61, 183851.61, 0.0, 2.5004675, 2.499685 
2.3629461e+2, 9.371138e+1, 190449.02, -41698.508, 789.8291, 0.0034030273, 0.0072798324, 190451.7, 190451.7, 0.0, 2.5004709, 2.4997017 
2.3629464e+2, 9.621108e+1, 192367.36, -40770.316, 1471.3635, 0.003997813, 0.0070536747, 192376.64, 192376.64, 0.0, 2.500474, 2.4997017 
2.3629466e+2, 9.8710775e+1, 194268.86, -39850.227, 2153.7656, 0.0045593055, 0.006819737, 194288.66, 194288.66, 0.0, 2.5004773, 2.4997017 
2.3879498e+2, 1.2491678e+0, -195098.63, -840491.9, -287.97476, 0.00034391467, 0.000057628182, -195098.5, -195098.5, 0.0, 2.5004685, 2.498332 
2.3879498e+2, 3.7475032e+0, -196946.47, -841757.2, -408.71277, 0.0005417061, 0.00017375346, -196946.2, -196946.2, 0.0, 2.5004656, 2.4983313 
2.3879498e+2, 6.2458384e+0, -198606.84, -842574.9, -446.59283, 0.0007324395, 0.00029103813, -198606.53, -198606.53, 0.0, 2.5004628, 2.4983313 
2.3879498e+2, 8.744174e+0, -200303.67, -843410.2, -485.80014, 0.0009161152, 0.000409482, -200303.3, -200303.3, 0.0, 2.50046, 2.4983313 
2.3879498e+2, 1.1242587e+1, -157833.63, -755169.9, 827.51166, 0.00096094573, 0.00079135096, -157832.47, -157832.47, 0.0, 2.50046, 2.4984825 
2.3879498e+2, 1.3741076e+1, -156202.98, -753994.06, 33.735306, 0.0010006982, 0.0010494182, -156202.98, -156202.98, 0.0, 2.5004623, 2.4984834 
2.38795e+2, 1.6239566e+1, -154884.34, -753407.44, -56.561153, 0.0010373219, 0.0013093251, -154884.34, -154884.34, 0.0, 2.5004647, 2.4984832 
2.38795e+2, 1.8738052e+1, -153602.25, -752838.44, -150.73615, 0.0010706405, 0.0015715485, -153602.2, -153602.2, 0.0, 2.5004668, 2.4984832 
2.38795e+2, 2.1236618e+1, -110757.38, -664930.4, 173.03622, 0.00079794833, 0.0021465414, -110757.33, -110757.33, 0.0, 2.500468, 2.4986334 
2.38795e+2, 2.3735258e+1, -110871.64, -664173.25, -985.219, 0.0005437212, 0.0022762488, -110869.89, -110869.89, 0.0, 2.500467, 2.4986353 
2.3879498e+2, 2.6233897e+1, -111578.35, -664587.06, -960.0557, 0.0002830478, 0.0024058693, -111576.68, -111576.68, 0.0, 2.5004659, 2.498635 
2.3879498e+2, 2.8732535e+1, -112320.74, -665018.06, -938.124, 0.000015067516, 0.002537309, -112319.15, -112319.15, 0.0, 2.5004647, 2.4986348 
2.3879498e+2, 3.1231245e+1, -70455.016, -578035.8, 343.69485, 0.00042281297, 0.0026454772, -70454.78, -70454.78, 0.0, 2.5004647, 2.498784 
2.38795e+2, 3.3730027e+1, -69609.336, -576317.44, -1093.6238, 0.0015166329, 0.0017213549, -69606.97, -69606.97, 0.0, 2.5004647, 2.498787 
2.38795e+2, 3.6228806e+1, -69707.29, -576452.4, -1159.7251, 0.0026014291, 0.0007947289, -69704.63, -69704.63, 0.0, 2.5004647, 2.4987867 
2.3879501e+2, 3.8727584e+1, -69869.79, -576618.44, -1228.257, 0.003677195, -0.00013065196, -69866.81, -69866.81, 0.0, 2.5004644, 2.4987867 
2.3879501e+2, 4.1226447e+1, -27975.668, -490871.5, 520.2323, 0.0034580517, 0.0006124238, -27975.084, -27975.084, 0.0, 2.5004659, 2.498933 
2.38795e+2, 4.3725398e+1, -25827.78, -487829.4, -799.2587, 0.0021498636, 0.0016435634, -25826.396, -25826.396, 0.0, 2.5004673, 2.4989376 
2.3879498e+2, 4.6224347e+1, -25084.6, -487559.72, -838.95905, 0.0008319647, 0.0026708613, -25083.076, -25083.076, 0.0, 2.5004687, 2.4989374 
2.3879498e+2, 4.8723298e+1, -24428.959, -487332.25, -880.73895, -0.000496518, 0.003700919, -24427.283, -24427.283, 0.0, 2.50047, 2.4989371 
2.3879498e+2, 5.122231e+1, 16194.224, -403450.66, -584.6852, -0.00025134784, 0.00477971, 16195.038, 16195.038, 0.0, 2.5004704, 2.499081 
2.38795e+2, 5.37214e+1, 17198.455, -400332.4, -1793.8875, 0.0014435225, 0.0042415834, 17206.162, 17206.162, 0.0, 2.5004694, 2.4990866 
2.3879501e+2, 5.622048e+1, 16405.137, -400791.47, -2040.968, 0.0031210387, 0.0036977357, 16415.121, 16415.121, 0.0, 2.500468, 2.4990866 
2.3879501e+2, 5.871956e+1, 15516.37, -401296.5, -2288.9158, 0.0047821132, 0.0031573924, 15528.939, 15528.939, 0.0, 2.5004666, 2.4990864 
2.3879503e+2, 6.1218727e+1, 58036.633, -312954.22, -534.914, 0.00508757, 0.003939478, 58037.406, 58037.406, 0.0, 2.5004666, 2.499238 
2.3879501e+2, 6.3717973e+1, 60552.195, -308286.9, -665.2513, 0.0038086618, 0.0042099557, 60553.395, 60553.395, 0.0, 2.5004673, 2.4992456 
2.3879501e+2, 6.6217226e+1, 60768.543, -308239.28, -435.98373, 0.0025161072, 0.0044705113, 60769.055, 60769.055, 0.0, 2.5004678, 2.4992456 
2.38795e+2, 6.8716466e+1, 60889.324, -308237.7, -206.16927, 0.001211294, 0.004732699, 60889.44, 60889.44, 0.0, 2.500468, 2.4992454 
2.3879501e+2, 7.121579e+1, 99530.56, -229014.0, 212.02089, 0.0011888642, 0.0057870336, 99530.695, 99530.695, 0.0, 2.5004692, 2.4993808 
2.3879501e+2, 7.371518e+1, 103007.52, -223045.75, 300.6108, 0.0017428452, 0.0054616285, 103007.805, 103007.805, 0.0, 2.5004704, 2.4993906 
2.3879503e+2, 7.6214564e+1, 103689.086, -222748.94, 147.74538, 0.0022770837, 0.0051216604, 103689.15, 103689.15, 0.0, 2.5004716, 2.4993904 
2.3879504e+2, 7.8713953e+1, 104287.72, -222492.06, -5.308455, 0.0027968523, 0.0047820257, 104287.72, 104287.72, 0.0, 2.5004728, 2.4993904 
2.3879506e+2, 8.121341e+1, 143619.75, -139921.61, -1312.6522, 0.0031394954, 0.0053016804, 143625.83, 143625.83, 0.0, 2.5004718, 2.4995325 
2.3879506e+2, 8.371296e+1, 145150.58, -133648.45, -749.2098, 0.0027414851, 0.0052397177, 145152.58, 145152.58, 0.0, 2.5004685, 2.4995449 
2.3879506e+2, 8.6212504e+1, 143133.8, -134625.17, -1015.1606, 0.0023224405, 0.0051712273, 143137.5, 143137.5, 0.0, 2.500465, 2.4995449 
2.3879506e+2, 8.871204e+1, 141042.61, -135637.72, -1279.0803, 0.001886462, 0.005106563, 141048.52, 141048.52, 0.0, 2.5004613, 2.4995449 
2.3879507e+2, 9.1211677e+1, 181817.69, -51166.08, -411.68265, 0.0032075776, 0.0072868955, 181818.42, 181818.42, 0.0, 2.5004616, 2.4996898 
2.3879509e+2, 9.371138e+1, 187607.55, -40933.13, 977.82855, 0.003670627, 0.007134687, 187611.73, 187611.73, 0.0, 2.5004637, 2.4997065 
2.3879512e+2, 9.621108e+1, 188518.86, -40482.883, 1679.381, 0.0040480117, 0.00693913, 188531.17, 188531.17, 0.0, 2.5004652, 2.4997065 
2.3879513e+2, 9.8710775e+1, 189217.88, -40134.88, 2372.1655, 0.0043612155, 0.0067357654, 189242.4, 189242.4, 0.0, 2.5004663, 2.4997065 
2.4129546e+2, 1.2491677e+0, -194066.58, -840204.2, -451.9666, 0.0003217529, 0.000067705754, -194066.27, -194066.27, 0.0, 2.5004704, 2.4983315 
2.4129544e+2, 3.747503e+0, -193779.75, -840446.9, -635.9005, 0.0005018134, 0.00020310412, -193779.13, -193779.13, 0.0, 2.5004714, 2.4983308 
2.4129544e+2, 6.2458384e+0, -193268.55, -840221.75, -736.6752, 0.0006889717, 0.00033848578, -193267.7, -193267.7, 0.0, 2.5004723, 2.4983308 
2.4129544e+2, 8.744173e+0, -192758.4, -839997.1, -837.46954, 0.0008832282, 0.00047385058, -192757.33, -192757.33, 0.0, 2.500473, 2.4983306 
2.4129546e+2, 1.12425864e+1, -150309.0, -751622.3, 739.84076, 0.0010136794, 0.0008660654, -150308.1, -150308.1, 0.0, 2.500473, 2.4984822 
2.4129546e+2, 1.3741075e+1, -151114.66, -751625.5, 26.285505, 0.0012110423, 0.0011325632, -151114.66, -151114.66, 0.0, 2.500471, 2.4984832 
2.4129546e+2, 1.6239563e+1, -152197.75, -752202.75, 51.957706, 0.0014148251, 0.0014007263, -152197.75, -152197.75, 0.0, 2.5004694, 2.4984832 
2.4129547e+2, 1.8738051e+1, -153281.94, -752780.56, 76.85146, 0.0016248485, 0.0016710265, -153281.92, -153281.92, 0.0, 2.5004675, 2.498483 
2.4129547e+2, 2.1236616e+1, -111173.74, -665190.7, 444.34442, 0.0012813626, 0.0022097963, -111173.38, -111173.38, 0.0, 2.5004673, 2.4986331 
2.4129546e+2, 2.3735255e+1, -110346.055, -663966.94, -891.04504, 0.00072106573, 0.0022593439, -110344.62, -110344.62, 0.0, 2.500468, 2.498635 
2.4129546e+2, 2.6233894e+1, -110088.51, -663922.2, -961.9576, 0.00016409827, 0.0023105734, -110086.836, -110086.836, 0.0, 2.5004685, 2.4986348 
2.4129544e+2, 2.873253e+1, -109832.78, -663878.25, -1033.9579, -0.00039044078, 0.0023653924, -109830.85, -109830.85, 0.0, 2.500469, 2.4986348 
2.4129546e+2, 3.123124e+1, -67696.9, -576925.3, 287.87115, 0.000018687584, 0.0025315715, -67696.734, -67696.734, 0.0, 2.5004697, 2.4987836 
2.4129546e+2, 3.373002e+1, -67045.54, -575266.7, -1263.073, 0.0014307543, 0.0017969487, -67042.4, -67042.4, 0.0, 2.5004692, 2.4987867 
2.4129547e+2, 3.6228803e+1, -67299.53, -575481.56, -1367.5829, 0.002851826, 0.0010611137, -67295.85, -67295.85, 0.0, 2.500469, 2.4987864 
2.4129549e+2, 3.8727582e+1, -67555.84, -575697.5, -1473.4705, 0.0042818347, 0.0003278309, -67551.57, -67551.57, 0.0, 2.5004687, 2.4987862 
2.4129549e+2, 4.1226447e+1, -26522.465, -490161.1, 452.34146, 0.004104669, 0.0010745389, -26522.023, -26522.023, 0.0, 2.5004683, 2.498933 
2.4129547e+2, 4.3725395e+1, -26151.793, -487906.63, -887.80853, 0.0025466483, 0.0019176836, -26150.086, -26150.086, 0.0, 2.5004668, 2.4989376 
2.4129546e+2, 4.6224344e+1, -27147.555, -488479.5, -853.87195, 0.0009966665, 0.0027564282, -27145.975, -27145.975, 0.0, 2.5004652, 2.4989376 
2.4129544e+2, 4.872329e+1, -28146.885, -489054.13, -821.47174, -0.0005462782, 0.0035973792, -28145.42, -28145.42, 0.0, 2.5004635, 2.4989374 
2.4129544e+2, 5.1222306e+1, 12332.879, -405442.34, -157.88272, -0.00035538082, 0.004620916, 12332.938, 12332.938, 0.0, 2.500464, 2.4990804 
2.4129546e+2, 5.372139e+1, 15226.469, -401346.06, -1058.9095, 0.0014272413, 0.004154878, 15229.16, 15229.16, 0.0, 2.500466, 2.4990866 
2.4129547e+2, 5.622047e+1, 16370.112, -400876.5, -954.9507, 0.0032187742, 0.0036805787, 16372.298, 16372.298, 0.0, 2.500468, 2.4990864 
2.4129549e+2, 5.871955e+1, 17510.18, -400408.63, -852.07947, 0.0050203213, 0.0032072808, 17511.918, 17511.918, 0.0, 2.5004702, 2.4990861 
2.412955e+2, 6.121872e+1, 60482.91, -312057.88, 750.2738, 0.005326911, 0.0040680286, 60484.42, 60484.42, 0.0, 2.500471, 2.4992373 
2.4129549e+2, 6.371797e+1, 62295.37, -307658.2, -110.182724, 0.0039018786, 0.0044193505, 62295.402, 62295.402, 0.0, 2.5004704, 2.4992452 
2.4129547e+2, 6.6217214e+1, 61858.83, -307922.13, -577.50684, 0.0024815535, 0.0047606626, 61859.73, 61859.73, 0.0, 2.5004697, 2.4992452 
2.4129547e+2, 6.8716466e+1, 61418.83, -308187.75, -1045.9697, 0.0010673328, 0.005103612, 61421.79, 61421.79, 0.0, 2.5004692, 2.499245 
2.4129547e+2, 7.1215785e+1, 99347.26, -228678.44, -680.9812, 0.0010480846, 0.006089527, 99348.67, 99348.67, 0.0, 2.5004683, 2.4993818 
2.4129549e+2, 7.3715174e+1, 101523.0, -223290.67, -126.739006, 0.0016683177, 0.0055121197, 101523.05, 101523.05, 0.0, 2.5004673, 2.4993916 
2.412955e+2, 7.621455e+1, 100955.805, -223596.34, 186.21173, 0.0022811273, 0.004920779, 100955.91, 100955.91, 0.0, 2.5004663, 2.4993916 
2.4129552e+2, 7.8713936e+1, 100385.445, -223903.55, 498.71204, 0.0028921808, 0.004330632, 100386.21, 100386.21, 0.0, 2.5004656, 2.4993913 
2.4129552e+2, 8.12134e+1, 140218.95, -141702.7, -511.24387, 0.003278807, 0.0047782133, 140219.89, 140219.89, 0.0, 2.500466, 2.4995322 
2.4129552e+2, 8.371294e+1, 145098.28, -133835.83, 333.7679, 0.002858227, 0.0048273997, 145098.67, 145098.67, 0.0, 2.5004685, 2.4995446 
2.4129552e+2, 8.6212486e+1, 146517.83, -133153.36, 315.72888, 0.0024310476, 0.0048649525, 146518.17, 146518.17, 0.0, 2.500471, 2.4995446 
2.4129552e+2, 8.8712037e+1, 147933.86, -132472.6, 297.3968, 0.002001475, 0.004901215, 147934.17, 147934.17, 0.0, 2.5004735, 2.4995446 
2.4129555e+2, 9.1211665e+1, 189231.6, -46774.656, 790.87305, 0.0034223842, 0.007155356, 189234.25, 189234.25, 0.0, 2.5004735, 2.4996917 
2.4129556e+2, 9.3711364e+1, 192145.69, -38040.918, 940.65875, 0.003973818, 0.006986341, 192149.53, 192149.53, 0.0, 2.5004706, 2.4997082 
2.4129558e+2, 9.621107e+1, 190450.1, -38867.574, 442.81595, 0.0044812886, 0.0067695505, 190450.95, 190450.95, 0.0, 2.5004678, 2.4997082 
2.4129559e+2, 9.871077e+1, 188746.45, -39698.098, -54.372272, 0.0049673105, 0.0065410538, 188746.47, 188746.47, 0.0, 2.500465, 2.499708 
2.4379592e+2, 1.2491678e+0, -194243.6, -840572.06, -322.26608, 0.0003725524, 0.00011906653, -194243.44, -194243.44, 0.0, 2.5004704, 2.498331 
2.4379592e+2, 3.7475035e+0, -193958.0, -840817.6, -502.11835, 0.00029659114, 0.00035778026, -193957.61, -193957.61, 0.0, 2.5004714, 2.49833 
2.4379592e+2, 6.245839e+0, -193447.44, -840594.06, -601.1529, 0.00022283637, 0.000597269, -193446.88, -193446.88, 0.0, 2.5004723, 2.49833 
2.4379592e+2, 8.744175e+0, -192937.95, -840371.0, -700.2072, 0.00015128842, 0.0008375326, -192937.19, -192937.19, 0.0, 2.500473, 2.49833 
2.4379592e+2, 1.1242588e+1, -150224.34, -751468.75, 496.4426, 0.00028115447, 0.0013018106, -150223.92, -150223.92, 0.0, 2.500473, 2.4984825 
2.4379593e+2, 1.3741077e+1, -151033.4, -751483.8, -249.15692, 0.0007770529, 0.0016193514, -151033.3, -151033.3, 0.0, 2.500471, 2.4984834 
2.4379593e+2, 1.6239567e+1, -152114.23, -752061.0, -221.53293, 0.0012753949, 0.0019387609, -152114.16, -152114.16, 0.0, 2.5004694, 2.4984832 
2.4379593e+2, 1.8738057e+1, -153196.14, -752638.75, -194.6874, 0.0017759562, 0.0022604957, -153196.08, -153196.08, 0.0, 2.5004675, 2.4984832 
2.4379595e+2, 2.123662e+1, -111242.69, -665390.7, 589.0503, 0.0015628178, 0.002693073, -111242.06, -111242.06, 0.0, 2.5004675, 2.498633 
2.4379593e+2, 2.3735255e+1, -110415.05, -664174.06, -816.32007, 0.00092037494, 0.0025157055, -110413.84, -110413.84, 0.0, 2.500468, 2.4986346 
2.4379592e+2, 2.6233888e+1, -110155.66, -664132.3, -884.82025, 0.00027533303, 0.0023404518, -110154.24, -110154.24, 0.0, 2.5004685, 2.4986346 
2.4379592e+2, 2.8732526e+1, -109898.086, -664091.44, -954.4083, -0.0003730793, 0.0021691367, -109896.44, -109896.44, 0.0, 2.500469, 2.4986343 
2.4379592e+2, 3.1231236e+1, -67787.91, -577249.7, 307.58093, -0.00014625984, 0.0025085772, -67787.72, -67787.72, 0.0, 2.5004697, 2.4987829 
2.4379593e+2, 3.373002e+1, -67113.05, -575550.4, -1318.6086, 0.0011091247, 0.0023520235, -67109.625, -67109.625, 0.0, 2.5004694, 2.498786 
2.4379595e+2, 3.622881e+1, -67365.05, -575768.75, -1420.1013, 0.0023658865, 0.002194781, -67361.08, -67361.08, 0.0, 2.5004692, 2.4987857 
2.4379595e+2, 3.8727596e+1, -67619.35, -575988.3, -1522.9714, 0.003623542, 0.0020405988, -67614.79, -67614.79, 0.0, 2.5004687, 2.4987855 
2.4379596e+2, 4.122646e+1, -26304.398, -489901.06, 292.2086, 0.0036822888, 0.0026812577, -26304.213, -26304.213, 0.0, 2.5004685, 2.4989333 
2.4379595e+2, 4.3725398e+1, -25909.613, -487604.53, -1134.5801, 0.0027080053, 0.0027693824, -25906.824, -25906.824, 0.0, 2.5004668, 2.498938 
2.4379593e+2, 4.6224338e+1, -26903.563, -488181.47, -1096.2086, 0.0017295802, 0.00285409, -26900.959, -26900.959, 0.0, 2.5004654, 2.4989378 
2.4379592e+2, 4.8723277e+1, -27901.082, -488760.13, -1059.3734, 0.00074629375, 0.002941804, -27898.648, -27898.648, 0.0, 2.5004637, 2.4989376 
2.4379593e+2, 5.1222295e+1, 12713.8, -404921.1, 177.02602, 0.00082802784, 0.0037476327, 12713.875, 12713.875, 0.0, 2.5004642, 2.4990814 
2.4379593e+2, 5.372138e+1, 15652.86, -400736.06, -750.14575, 0.0018661557, 0.0036148825, 15654.212, 15654.212, 0.0, 2.5004663, 2.4990876 
2.4379595e+2, 5.6220466e+1, 16796.3, -400272.16, -641.8366, 0.0029020533, 0.0034753517, 16797.29, 16797.29, 0.0, 2.5004685, 2.4990873 
2.4379595e+2, 5.871956e+1, 17936.166, -399809.97, -534.6151, 0.0039366037, 0.0033382957, 17936.85, 17936.85, 0.0, 2.5004704, 2.499087 
2.4379596e+2, 6.121872e+1, 59863.246, -313645.72, 667.5523, 0.0041390276, 0.004278167, 59864.438, 59864.438, 0.0, 2.5004716, 2.4992344 
2.4379595e+2, 6.371796e+1, 61688.438, -309226.1, -213.45204, 0.0032427232, 0.004472439, 61688.563, 61688.563, 0.0, 2.5004709, 2.4992423 
2.4379595e+2, 6.621721e+1, 61254.754, -309490.56, -676.9401, 0.0023413354, 0.0046568997, 61255.992, 61255.992, 0.0, 2.5004702, 2.4992423 
2.4379595e+2, 6.8716455e+1, 60817.613, -309756.72, -1141.567, 0.0014365594, 0.0048430497, 60821.13, 60821.13, 0.0, 2.5004694, 2.499242 
2.4379595e+2, 7.1215767e+1, 100180.74, -227276.25, -843.631, 0.0016889626, 0.0057374206, 100182.914, 100182.914, 0.0, 2.5004687, 2.4993842 
2.4379596e+2, 7.3715156e+1, 102385.58, -221832.64, -263.2169, 0.0022580205, 0.005133796, 102385.79, 102385.79, 0.0, 2.5004678, 2.499394 
2.4379598e+2, 7.6214546e+1, 101819.78, -222140.02, 52.14779, 0.0028124037, 0.004516596, 101819.79, 101819.79, 0.0, 2.5004668, 2.4993937 
2.4379599e+2, 7.871393e+1, 101250.82, -222448.89, 367.06204, 0.003358408, 0.0039009883, 101251.24, 101251.24, 0.0, 2.5004659, 2.4993937 
2.4379599e+2, 8.1213397e+1, 140519.64, -141420.25, -197.24615, 0.0035608506, 0.0043149805, 140519.78, 140519.78, 0.0, 2.5004666, 2.4995325 
2.4379599e+2, 8.3712935e+1, 145359.2, -133638.5, 709.4277, 0.0028692887, 0.0043279175, 145361.02, 145361.02, 0.0, 2.500469, 2.4995449 
2.4379599e+2, 8.621248e+1, 146780.81, -132954.33, 693.0547, 0.002167112, 0.004329154, 146782.53, 146782.53, 0.0, 2.5004714, 2.4995449 
2.4379599e+2, 8.871202e+1, 148198.9, -132271.86, 676.3887, 0.0014582402, 0.0043290155, 148200.55, 148200.55, 0.0, 2.5004737, 2.4995449 
2.43796e+2, 9.121165e+1, 188740.25, -48155.676, 337.0356, 0.003019214, 0.0065142238, 188740.73, 188740.73, 0.0, 2.500474, 2.499689 
2.4379604e+2, 9.371135e+1, 191537.6, -39660.266, 522.6578, 0.0039256006, 0.006225009, 191538.78, 191538.78, 0.0, 2.500471, 2.499705 
2.4379605e+2, 9.621105e+1, 189840.08, -40486.527, 30.235983, 0.0047742887, 0.005888359, 189840.08, 189840.08, 0.0, 2.500468, 2.499705 
2.4379607e+2, 9.8710746e+1, 188134.52, -41316.656, -461.53122, 0.0055895485, 0.0055405498, 188135.44, 188135.44, 0.0, 2.5004652, 2.499705 
2.4629639e+2, 1.2491681e+0, -194421.14, -840941.06, -192.97078, 0.00042342563, 0.00016953568, -194421.08, -194421.08, 0.0, 2.5004704, 2.4983304 
2.4629639e+2, 3.7475044e+0, -194137.83, -841191.6, -368.21848, 0.00009159004, 0.0005097815, -194137.61, -194137.61, 0.0, 2.5004714, 2.4983294 
2.4629639e+2, 6.24584e+0, -193627.9, -840969.6, -465.51297, -0.00024293037, 0.0008515941, -193627.58, -193627.58, 0.0, 2.5004723, 2.4983294 
2.4629638e+2, 8.744176e+0, -193119.06, -840748.25, -562.8272, -0.00058013527, 0.0011949734, -193118.58, -193118.58, 0.0, 2.500473, 2.4983294 
2.4629639e+2, 1.124259e+1, -150148.06, -751332.7, 257.5679, -0.00045336594, 0.0017363696, -150147.95, -150147.95, 0.0, 2.500473, 2.4984827 
2.4629639e+2, 1.374108e+1, -150953.7, -751345.4, -523.9809, 0.00033987768, 0.0021014838, -150953.25, -150953.25, 0.0, 2.500471, 2.4984837 
2.462964e+2, 1.623957e+1, -152032.27, -751922.5, -494.40515, 0.0011315955, 0.002468653, -152031.86, -152031.86, 0.0, 2.5004694, 2.4984834 
2.462964e+2, 1.873806e+1, -153111.9, -752500.2, -465.60782, 0.0019215113, 0.0028383362, -153111.55, -153111.55, 0.0, 2.5004675, 2.4984834 
2.4629642e+2, 2.1236622e+1, -111323.61, -665615.6, 735.3544, 0.0018514908, 0.0031725913, -111322.63, -111322.63, 0.0, 2.5004675, 2.4986324 
2.462964e+2, 2.3735255e+1, -110485.25, -664383.6, -740.42487, 0.0011270588, 0.0027654725, -110484.26, -110484.26, 0.0, 2.500468, 2.4986343 
2.4629639e+2, 2.6233888e+1, -110224.016, -664345.0, -806.5128, 0.00039403175, 0.0023608485, -110222.84, -110222.84, 0.0, 2.5004687, 2.498634 
2.4629639e+2, 2.873252e+1, -109964.6, -664307.2, -873.6886, -0.00034816447, 0.0019605116, -109963.23, -109963.23, 0.0, 2.5004692, 2.4986339 
2.4629639e+2, 3.1231233e+1, -67889.28, -577595.6, 338.31604, -0.00031874853, 0.002480367, -67889.055, -67889.055, 0.0, 2.50047, 2.4987824 
2.462964e+2, 3.373002e+1, -67181.56, -575836.06, -1372.6859, 0.0007802314, 0.002899229, -67177.86, -67177.86, 0.0, 2.5004697, 2.4987855 
2.462964e+2, 3.6228818e+1, -67431.56, -576058.1, -1471.1611, 0.001873073, 0.0033178611, -67427.305, -67427.305, 0.0, 2.5004692, 2.4987853 
2.462964e+2, 3.8727608e+1, -67683.875, -576281.25, -1571.014, 0.0029587648, 0.0037400606, -67679.02, -67679.02, 0.0, 2.500469, 2.498785 
2.4629642e+2, 4.122647e+1, -26096.672, -489662.5, 135.48076, 0.0032706964, 0.0042845653, -26096.63, -26096.63, 0.0, 2.5004687, 2.4989338 
2.4629642e+2, 4.3725404e+1, -25668.422, -487304.5, -1379.789, 0.0028810063, 0.0036143796, -25664.297, -25664.297, 0.0, 2.500467, 2.4989386 
2.462964e+2, 4.6224335e+1, -26660.563, -487885.5, -1336.9824, 0.0024748303, 0.0029416566, -26656.686, -26656.686, 0.0, 2.5004656, 2.4989383 
2.462964e+2, 4.8723266e+1, -27656.271, -488468.2, -1295.7124, 0.0020518936, 0.00227274, -27652.627, -27652.627, 0.0, 2.500464, 2.498938 
2.462964e+2, 5.122228e+1, 13081.221, -404427.88, 523.53357, 0.0020039694, 0.0028716135, 13081.878, 13081.878, 0.0, 2.5004647, 2.499082 
2.462964e+2, 5.372137e+1, 16078.312, -400128.0, -440.0736, 0.0022988373, 0.0030687072, 16078.776, 16078.776, 0.0, 2.5004666, 2.4990883 
2.462964e+2, 5.622046e+1, 17221.549, -399669.78, -327.41415, 0.0025805656, 0.0032603585, 17221.805, 17221.805, 0.0, 2.5004687, 2.499088 
2.462964e+2, 5.871956e+1, 18361.209, -399213.28, -215.84245, 0.0028495847, 0.0034559572, 18361.32, 18361.32, 0.0, 2.5004709, 2.499088 
2.4629642e+2, 6.121872e+1, 59229.844, -315262.06, 586.0902, 0.0029586165, 0.0044876067, 59230.76, 59230.76, 0.0, 2.5004718, 2.4992316 
2.4629642e+2, 6.371796e+1, 61080.49, -310796.13, -315.65628, 0.00259027, 0.0045213425, 61080.758, 61080.758, 0.0, 2.500471, 2.4992394 
2.4629642e+2, 6.62172e+1, 60649.664, -311061.13, -775.30835, 0.0022069237, 0.004545278, 60651.28, 60651.28, 0.0, 2.5004704, 2.4992394 
2.4629642e+2, 6.8716437e+1, 60215.38, -311327.8, -1236.0992, 0.0018106961, 0.004570956, 60219.492, 60219.492, 0.0, 2.5004697, 2.4992392 
2.4629642e+2, 7.121575e+1, 101000.77, -225902.02, -1006.2301, 0.0023356543, 0.005384935, 101003.875, 101003.875, 0.0, 2.500469, 2.4993863 
2.4629644e+2, 7.371514e+1, 103247.39, -220376.23, -399.01703, 0.0028532874, 0.004752759, 103247.88, 103247.88, 0.0, 2.500468, 2.4993963 
2.4629645e+2, 7.621453e+1, 102682.984, -220685.28, -81.238434, 0.0033489924, 0.0041071833, 102683.01, 102683.01, 0.0, 2.5004673, 2.499396 
2.4629647e+2, 7.871392e+1, 102115.43, -220995.84, 236.08975, 0.0038296955, 0.003463597, 102115.6, 102115.6, 0.0, 2.5004663, 2.499396 
2.4629647e+2, 8.1213385e+1, 140805.83, -141167.94, 113.87582, 0.0038487324, 0.0038499853, 140805.88, 140805.88, 0.0, 2.5004668, 2.4995327 
2.4629647e+2, 8.371293e+1, 145619.23, -133443.05, 1085.326, 0.002884858, 0.0038242363, 145623.45, 145623.45, 0.0, 2.5004692, 2.4995449 
2.4629647e+2, 8.621247e+1, 147042.9, -132757.19, 1070.6191, 0.0019063393, 0.0037866044, 147047.0, 147047.0, 0.0, 2.5004718, 2.4995449 
2.4629647e+2, 8.871201e+1, 148463.06, -132073.03, 1055.6191, 0.0009168234, 0.0037475147, 148467.03, 148467.03, 0.0, 2.5004742, 2.4995449 
2.4629648e+2, 9.1211647e+1, 188228.16, -49579.832, -120.265274, 0.0026464032, 0.0058836956, 188228.22, 188228.22, 0.0, 2.5004742, 2.4996865 
2.462965e+2, 9.3711334e+1, 190928.6, -41281.484, 104.03234, 0.0039082007, 0.0054697217, 190928.64, 190928.64, 0.0, 2.5004714, 2.4997022 
2.4629653e+2, 9.621103e+1, 189229.14, -42107.348, -382.96844, 0.0050981315, 0.005008307, 189229.78, 189229.78, 0.0, 2.5004685, 2.4997022 
2.4629654e+2, 9.871072e+1, 187521.66, -42937.086, -869.31464, 0.006242655, 0.0045362795, 187524.94, 187524.94, 0.0, 2.5004656, 2.4997022 
2.4879687e+2, 1.2491683e+0, -198508.44, -843198.75, -79.651, 0.00048266252, 0.0002189352, -198508.42, -198508.42, 0.0, 2.5004637, 2.4983296 
2.4879687e+2, 3.7475047e+0, -198084.97, -843387.3, -281.3602, -0.000105680934, 0.0006585688, -198084.84, -198084.84, 0.0, 2.500465, 2.498329 
2.4879685e+2, 6.245841e+0, -197486.89, -843124.06, -407.96274, -0.0007011568, 0.0011005541, -197486.63, -197486.63, 0.0, 2.5004659, 2.4983287 
2.4879685e+2, 8.744178e+0, -196944.6, -842887.75, -533.9617, -0.0013037648, 0.001544891, -196944.16, -196944.16, 0.0, 2.5004668, 2.4983287 
2.4879685e+2, 1.12425916e+1, -153598.03, -752912.44, -117.951096, -0.0011826489, 0.002168121, -153598.02, -153598.02, 0.0, 2.500467, 2.498483 
2.4879687e+2, 1.3741083e+1, -154165.08, -752798.25, -975.9288, -0.00009361407, 0.0025770434, -154163.5, -154163.5, 0.0, 2.5004656, 2.498484 
2.4879687e+2, 1.6239573e+1, -155052.8, -753284.25, -980.1149, 0.0009901759, 0.0029881843, -155051.19, -155051.19, 0.0, 2.5004642, 2.4984837 
2.4879688e+2, 1.8738064e+1, -155981.33, -753789.94, -984.21643, 0.002068386, 0.0034020224, -155979.7, -155979.7, 0.0, 2.5004625, 2.4984837 
2.4879688e+2, 2.1236625e+1, -114137.57, -667178.0, 607.8258, 0.0021538266, 0.0036457127, -114136.91, -114136.91, 0.0, 2.500463, 2.498632 
2.4879688e+2, 2.3735256e+1, -112991.484, -665770.2, -959.037, 0.0013469078, 0.0030060904, -112989.82, -112989.82, 0.0, 2.500464, 2.4986339 
2.4879687e+2, 2.6233885e+1, -112526.18, -665636.8, -1040.6047, 0.00052599056, 0.0023692718, -112524.22, -112524.22, 0.0, 2.500465, 2.4986336 
2.4879685e+2, 2.8732514e+1, -112146.72, -665544.8, -1120.8945, -0.00030923515, 0.0017370656, -112144.45, -112144.45, 0.0, 2.5004656, 2.4986334 
2.4879687e+2, 3.123123e+1, -69864.82, -578860.75, 37.319843, -0.0004923843, 0.0024444344, -69864.82, -69864.82, 0.0, 2.5004668, 2.4987817 
2.4879687e+2, 3.3730027e+1, -68734.234, -576837.8, -1781.8401, 0.0004494754, 0.0034359603, -68727.984, -68727.984, 0.0, 2.5004673, 2.4987848 
2.4879687e+2, 3.622882e+1, -68696.664, -576925.44, -1887.5009, 0.001378323, 0.004427658, -68689.66, -68689.66, 0.0, 2.5004673, 2.4987845 
2.4879688e+2, 3.872762e+1, -68756.48, -577060.0, -1990.9534, 0.0022925055, 0.0054234397, -68748.68, -68748.68, 0.0, 2.5004673, 2.4987843 
2.4879688e+2, 4.1226482e+1, -26636.795, -489798.22, -394.63068, 0.00287439, 0.005881971, -26636.459, -26636.459, 0.0, 2.5004678, 2.498934 
2.4879688e+2, 4.3725407e+1, -25835.49, -487199.84, -2001.3602, 0.0030694432, 0.0044508227, -25826.809, -25826.809, 0.0, 2.5004666, 2.498939 
2.4879688e+2, 4.6224332e+1, -26634.822, -487692.47, -1950.488, 0.0032365322, 0.0030178674, -26626.57, -26626.57, 0.0, 2.5004654, 2.4989388 
2.4879688e+2, 4.872326e+1, -27577.023, -488253.9, -1896.3583, 0.0033759922, 0.0015894733, -27569.217, -27569.217, 0.0, 2.500464, 2.4989386 
2.4879688e+2, 5.122227e+1, 13426.44, -403962.63, 525.2506, 0.0031778938, 0.0019926028, 13427.101, 13427.101, 0.0, 2.500465, 2.4990826 
2.4879688e+2, 5.372136e+1, 16758.307, -399394.25, -478.98187, 0.002729056, 0.0025165065, 16758.857, 16758.857, 0.0, 2.5004673, 2.4990892 
2.4879688e+2, 5.622046e+1, 18016.17, -398886.03, -352.7598, 0.0022572626, 0.003036133, 18016.469, 18016.469, 0.0, 2.5004697, 2.499089 
2.4879688e+2, 5.871956e+1, 19121.057, -398451.53, -224.49356, 0.0017622602, 0.0035611496, 19121.178, 19121.178, 0.0, 2.5004716, 2.4990888 
2.4879688e+2, 6.121872e+1, 58898.676, -316747.84, 210.01663, 0.0017886071, 0.0046977047, 58898.793, 58898.793, 0.0, 2.5004728, 2.4992285 
2.4879688e+2, 6.3717955e+1, 60801.293, -312202.44, -663.87067, 0.0019471649, 0.004568071, 60802.473, 60802.473, 0.0, 2.500472, 2.4992366 
2.487969e+2, 6.6217196e+1, 60244.063, -312530.16, -1072.8469, 0.0020814345, 0.004428484, 60247.152, 60247.152, 0.0, 2.500471, 2.4992366 
2.487969e+2, 6.8716425e+1, 59540.242, -312928.5, -1484.8977, 0.0021940845, 0.004290712, 59546.16, 59546.16, 0.0, 2.50047, 2.4992363 
2.487969e+2, 7.121574e+1, 101514.99, -224689.31, -1281.3536, 0.0029925404, 0.0050360914, 101520.02, 101520.02, 0.0, 2.500469, 2.4993885 
2.4879691e+2, 7.371513e+1, 103673.45, -219123.7, -608.54675, 0.0034572054, 0.0043736296, 103674.6, 103674.6, 0.0, 2.5004678, 2.4993985 
2.4879692e+2, 7.621452e+1, 102838.16, -219565.6, -252.66516, 0.003893355, 0.003697775, 102838.36, 102838.36, 0.0, 2.5004663, 2.4993985 
2.4879692e+2, 7.871391e+1, 101869.95, -220071.5, 100.30826, 0.0043085497, 0.003024323, 101869.984, 101869.984, 0.0, 2.5004647, 2.4993985 
2.4879692e+2, 8.121338e+1, 139462.89, -141715.17, 471.47943, 0.004145221, 0.0033896137, 139463.69, 139463.69, 0.0, 2.5004644, 2.499533 
2.4879692e+2, 8.3712924e+1, 143662.48, -134308.61, 1586.1138, 0.0029081695, 0.003323133, 143671.53, 143671.53, 0.0, 2.5004659, 2.499545 
2.4879692e+2, 8.621246e+1, 144360.66, -133971.6, 1643.7379, 0.0016531136, 0.003244464, 144370.36, 144370.36, 0.0, 2.500467, 2.499545 
2.4879692e+2, 8.8712007e+1, 144929.0, -133697.1, 1696.4491, 0.00038344308, 0.003164243, 144939.33, 144939.33, 0.0, 2.500468, 2.499545 
2.4879695e+2, 9.121163e+1, 183138.16, -53233.035, -243.88667, 0.0023103831, 0.0052717407, 183138.4, 183138.4, 0.0, 2.5004668, 2.4996839 
2.4879697e+2, 9.371133e+1, 184984.34, -45464.855, 111.47567, 0.0039274916, 0.004728853, 184984.4, 184984.4, 0.0, 2.5004625, 2.499699 
2.48797e+2, 9.6211016e+1, 182182.5, -46820.336, -275.352, 0.0054601463, 0.00413792, 182182.83, 182182.83, 0.0, 2.5004578, 2.499699 
2.4879701e+2, 9.8710704e+1, 179049.19, -48335.44, -656.2666, 0.006937429, 0.0035366705, 179051.08, 179051.08, 0.0, 2.5004525, 2.499699 
2.5129732e+2, 1.2491681e+0, -193882.17, -841192.5, 65.15925, 0.00030495663, 0.00021797653, -193882.17, -193882.17, 0.0, 2.5004718, 2.4983292 
2.5129732e+2, 3.747504e+0, -194189.61, -841735.44, -3.8643909, -0.00008894287, 0.00065498485, -194189.61, -194189.61, 0.0, 2.5004718, 2.4983284 
2.5129732e+2, 6.24584e+0, -194265.89, -841795.56, -2.961063, -0.00046999604, 0.001093401, -194265.89, -194265.89, 0.0, 2.5004716, 2.4983282 
2.5129732e+2, 8.744176e+0, -194343.83, -841856.44, -2.4260547, -0.0008382025, 0.0015332248, -194343.83, -194343.83, 0.0, 2.5004716, 2.4983282 
2.5129732e+2, 1.124259e+1, -150938.55, -752020.44, 278.39648, -0.000759246, 0.002151617, -150938.42, -150938.42, 0.0, 2.500472, 2.4984822 
2.5129732e+2, 1.3741079e+1, -150554.83, -751436.6, -853.87555, 0.000016785707, 0.002545021, -150553.63, -150553.63, 0.0, 2.500472, 2.498483 
2.5129732e+2, 1.6239569e+1, -150458.28, -751446.8, -1091.2816, 0.00079838454, 0.0029400268, -150456.3, -150456.3, 0.0, 2.5004723, 2.498483 
2.5129732e+2, 1.8738058e+1, -150362.89, -751457.5, -1329.3716, 0.0015851961, 0.0033371253, -150359.95, -150359.95, 0.0, 2.5004725, 2.4984827 
2.5129735e+2, 2.123662e+1, -108760.54, -664662.5, 311.40314, 0.0017439101, 0.0035921116, -108760.37, -108760.37, 0.0, 2.5004723, 2.4986317 
2.5129732e+2, 2.373525e+1, -109325.266, -664068.8, -1212.9375, 0.0013588791, 0.0030097002, -109322.61, -109322.61, 0.0, 2.5004704, 2.4986339 
2.5129732e+2, 2.623388e+1, -110491.26, -664717.94, -1193.5923, 0.0009903626, 0.0024287826, -110488.69, -110488.69, 0.0, 2.5004685, 2.4986336 
2.5129732e+2, 2.8732508e+1, -111660.2, -665369.06, -1175.2728, 0.0006381331, 0.0018511243, -111657.71, -111657.71, 0.0, 2.5004666, 2.4986334 
2.5129732e+2, 3.1231225e+1, -70230.0, -579268.25, 338.1929, 0.00046076527, 0.002578385, -70229.77, -70229.77, 0.0, 2.5004666, 2.498781 
2.5129732e+2, 3.3730018e+1, -68990.42, -577144.4, -1545.3677, 0.0009767489, 0.0035541675, -68985.72, -68985.72, 0.0, 2.500467, 2.4987845 
2.5129732e+2, 3.6228818e+1, -68775.83, -577141.06, -1620.4728, 0.0015041524, 0.00453007, -68770.664, -68770.664, 0.0, 2.5004675, 2.4987843 
2.5129732e+2, 3.872761e+1, -68563.72, -577138.9, -1696.8887, 0.002041102, 0.00551, -68558.06, -68558.06, 0.0, 2.500468, 2.498784 
2.5129735e+2, 4.1226473e+1, -25976.723, -489590.9, -172.69516, 0.0025781603, 0.0059671006, -25976.658, -25976.658, 0.0, 2.500469, 2.4989338 
2.5129735e+2, 4.3725398e+1, -24195.79, -486462.47, -2075.572, 0.003024844, 0.0045442916, -24186.469, -24186.469, 0.0, 2.5004694, 2.4989388 
2.5129735e+2, 4.6224323e+1, -23906.227, -486422.8, -2258.8513, 0.0034919037, 0.0031174542, -23895.195, -23895.195, 0.0, 2.5004702, 2.4989386 
2.5129735e+2, 4.8723248e+1, -23620.037, -486384.44, -2443.5095, 0.003979956, 0.001692965, -23607.135, -23607.135, 0.0, 2.5004706, 2.4989383 
2.5129735e+2, 5.122226e+1, 16864.922, -402277.1, -61.827568, 0.0037942543, 0.0021202345, 16864.932, 16864.932, 0.0, 2.5004706, 2.4990828 
2.5129735e+2, 5.3721356e+1, 17848.58, -398766.06, -1433.219, 0.0030506782, 0.002686767, 17853.51, 17853.51, 0.0, 2.5004692, 2.4990895 
2.5129735e+2, 5.6220454e+1, 16864.783, -399331.56, -1622.2789, 0.002325062, 0.0032472594, 16871.107, 16871.107, 0.0, 2.5004675, 2.4990892 
2.5129732e+2, 5.8719546e+1, 15877.161, -399898.9, -1812.865, 0.0016169236, 0.0038114008, 15885.065, 15885.065, 0.0, 2.5004659, 2.499089 
2.5129735e+2, 6.1218715e+1, 54795.242, -318616.44, -1176.436, 0.0016532524, 0.0049078735, 54798.945, 54798.945, 0.0, 2.5004656, 2.4992287 
2.5129735e+2, 6.371795e+1, 57509.207, -313629.7, -1312.8496, 0.0019884475, 0.0046397937, 57513.85, 57513.85, 0.0, 2.500466, 2.499237 
2.5129735e+2, 6.621718e+1, 57874.383, -313517.16, -989.1814, 0.0023335335, 0.0043622977, 57877.016, 57877.016, 0.0, 2.5004668, 2.4992368 
2.5129735e+2, 6.871641e+1, 58235.906, -313406.38, -666.24963, 0.0026915744, 0.004087269, 58237.1, 58237.1, 0.0, 2.5004675, 2.4992368 
2.5129735e+2, 7.121573e+1, 101122.445, -224746.73, -495.9501, 0.0035445073, 0.00484468, 101123.195, 101123.195, 0.0, 2.500468, 2.4993887 
2.5129738e+2, 7.371512e+1, 104328.766, -218663.03, -586.45856, 0.0038229083, 0.0043207933, 104329.83, 104329.83, 0.0, 2.5004687, 2.499399 
2.5129738e+2, 7.6214516e+1, 104661.87, -218545.42, -1034.7014, 0.004103022, 0.003783715, 104665.18, 104665.18, 0.0, 2.5004692, 2.4993987 
2.5129738e+2, 7.8713906e+1, 104991.4, -218429.53, -1483.6736, 0.0043927175, 0.0032494445, 104998.2, 104998.2, 0.0, 2.50047, 2.4993987 
2.5129738e+2, 8.121337e+1, 142851.78, -139381.25, -1400.9783, 0.00421858, 0.0036158934, 142858.73, 142858.73, 0.0, 2.5004694, 2.4995346 
2.5129738e+2, 8.371291e+1, 145726.34, -132654.16, -108.47538, 0.0031199192, 0.0033722203, 145726.39, 145726.39, 0.0, 2.5004687, 2.4995465 
2.5129738e+2, 8.6212456e+1, 145246.77, -132892.27, 52.956, 0.002032452, 0.003116105, 145246.78, 145246.78, 0.0, 2.5004678, 2.4995465 
2.5129738e+2, 8.8712e+1, 144762.38, -133132.69, 214.65913, 0.0009593327, 0.0028584625, 144762.53, 144762.53, 0.0, 2.500467, 2.4995465 
2.512974e+2, 9.121162e+1, 183439.13, -53082.414, -1616.1381, 0.003019718, 0.0049220165, 183450.17, 183450.17, 0.0, 2.5004673, 2.4996839 
2.5129744e+2, 9.3711317e+1, 189230.81, -43606.266, -754.7076, 0.0044055358, 0.004441254, 189233.27, 189233.27, 0.0, 2.5004702, 2.4996989 
2.5129744e+2, 9.6211004e+1, 190825.03, -42841.13, -755.89374, 0.005787347, 0.0039013005, 190827.48, 190827.48, 0.0, 2.5004728, 2.4996989 
2.5129747e+2, 9.871069e+1, 192408.25, -42081.293, -756.02094, 0.007196885, 0.0033401358, 192410.69, 192410.69, 0.0, 2.5004756, 2.4996989 
2.537978e+2, 1.2491677e+0, -193872.36, -841172.8, 38.93576, -0.0008550355, 0.00018337743, -193872.36, -193872.36, 0.0, 2.5004718, 2.4983292 
2.537978e+2, 3.7475032e+0, -194180.2, -841718.1, -23.04885, -0.00053796323, 0.000550994, -194180.2, -194180.2, 0.0, 2.5004718, 2.4983284 
2.537978e+2, 6.2458384e+0, -194254.89, -841776.4, -19.811811, -0.00021499931, 0.0009197604, -194254.89, -194254.89, 0.0, 2.5004716, 2.4983284 
2.537978e+2, 8.744173e+0, -194331.22, -841835.44, -16.943092, 0.00011385678, 0.0012896764, -194331.22, -194331.22, 0.0, 2.5004716, 2.4983282 
2.537978e+2, 1.12425864e+1, -151353.28, -752902.4, 347.25024, 0.00012501473, 0.0018494613, -151353.08, -151353.08, 0.0, 2.500472, 2.4984806 
2.537978e+2, 1.3741073e+1, -150965.56, -752314.06, -823.07056, 0.000042216343, 0.0021945394, -150964.44, -150964.44, 0.0, 2.5004723, 2.4984815 
2.537978e+2, 1.6239561e+1, -150869.2, -752328.4, -1058.2437, -0.000039860603, 0.0025417898, -150867.34, -150867.34, 0.0, 2.5004725, 2.4984813 
2.537978e+2, 1.873805e+1, -150774.0, -752343.2, -1294.1007, -0.00012153319, 0.0028917075, -150771.22, -150771.22, 0.0, 2.5004728, 2.4984813 
2.537978e+2, 2.123661e+1, -108640.44, -664483.8, 70.713745, 0.000048276044, 0.0032691124, -108640.42, -108640.42, 0.0, 2.5004723, 2.4986322 
2.537978e+2, 2.3735245e+1, -109212.18, -663910.9, -1506.7438, 0.00063848594, 0.0030150404, -109208.086, -109208.086, 0.0, 2.5004704, 2.4986339 
2.537978e+2, 2.6233876e+1, -110376.75, -664563.06, -1484.2101, 0.0012370277, 0.002762953, -110372.77, -110372.77, 0.0, 2.5004685, 2.4986339 
2.537978e+2, 2.873251e+1, -111544.664, -665218.0, -1462.396, 0.0018434658, 0.0025145297, -111540.805, -111540.805, 0.0, 2.5004666, 2.4986336 
2.537978e+2, 3.1231225e+1, -70251.27, -579442.4, 497.77325, 0.0019119796, 0.0031070362, -70250.78, -70250.78, 0.0, 2.5004666, 2.4987807 
2.537978e+2, 3.3730015e+1, -68997.45, -577296.25, -1478.7944, 0.0018490388, 0.003514763, -68993.15, -68993.15, 0.0, 2.500467, 2.498784 
2.537978e+2, 3.6228806e+1, -68782.09, -577298.3, -1550.4291, 0.0017875438, 0.0039233724, -68777.37, -68777.37, 0.0, 2.5004675, 2.4987838 
2.537978e+2, 3.8727593e+1, -68569.195, -577301.56, -1623.166, 0.0017259698, 0.0043366444, -68564.016, -68564.016, 0.0, 2.500468, 2.4987836 
2.537978e+2, 4.1226456e+1, -26141.035, -490144.97, -39.119972, 0.0019250996, 0.0048533087, -26141.031, -26141.031, 0.0, 2.5004692, 2.4989326 
2.537978e+2, 4.3725386e+1, -24334.584, -486970.75, -1987.6589, 0.0023847353, 0.00412183, -24326.045, -24326.045, 0.0, 2.5004697, 2.4989378 
2.537978e+2, 4.622432e+1, -24045.066, -486937.88, -2166.2065, 0.002852554, 0.0033871639, -24034.93, -24034.93, 0.0, 2.5004704, 2.4989376 
2.537978e+2, 4.8723248e+1, -23758.43, -486905.3, -2346.004, 0.0033287865, 0.002655698, -23746.547, -23746.547, 0.0, 2.5004709, 2.4989374 
2.5379783e+2, 5.1222265e+1, 16742.14, -402792.84, -253.70406, 0.0033410299, 0.0032851957, 16742.295, 16742.295, 0.0, 2.500471, 2.4990816 
2.537978e+2, 5.3721356e+1, 17745.783, -399248.7, -1675.1779, 0.0029165114, 0.0035904117, 17752.512, 17752.512, 0.0, 2.5004694, 2.4990885 
2.537978e+2, 5.622045e+1, 16765.377, -399815.34, -1859.298, 0.0024961259, 0.0038894783, 16773.676, 16773.676, 0.0, 2.5004678, 2.4990883 
2.537978e+2, 5.8719534e+1, 15781.146, -400383.8, -2044.9441, 0.0020798796, 0.0041918955, 15791.194, 15791.194, 0.0, 2.5004663, 2.499088 
2.537978e+2, 6.12187e+1, 55655.73, -317145.72, -1102.666, 0.002197714, 0.005071701, 55658.992, 55658.992, 0.0, 2.5004659, 2.499231 
2.5379783e+2, 6.371794e+1, 58403.863, -312095.2, -1202.946, 0.0024154058, 0.004635398, 58407.77, 58407.77, 0.0, 2.5004666, 2.4992394 
2.5379783e+2, 6.621717e+1, 58770.95, -311985.6, -875.0809, 0.0026316606, 0.004190117, 58773.01, 58773.01, 0.0, 2.5004673, 2.4992394 
2.5379783e+2, 6.8716407e+1, 59134.383, -311877.78, -547.9521, 0.0028495465, 0.0037477356, 59135.195, 59135.195, 0.0, 2.500468, 2.4992392 
2.5379783e+2, 7.121572e+1, 100626.03, -226121.66, -460.1973, 0.0035531276, 0.004543876, 100626.68, 100626.68, 0.0, 2.5004685, 2.499386 
2.5379783e+2, 7.371511e+1, 103809.38, -220091.67, -487.1285, 0.0036551296, 0.004269233, 103810.12, 103810.12, 0.0, 2.500469, 2.4993963 
2.5379786e+2, 7.621451e+1, 104147.38, -219969.89, -931.63556, 0.0037488483, 0.003981209, 104150.055, 104150.055, 0.0, 2.5004697, 2.499396 
2.5379786e+2, 7.87139e+1, 104481.8, -219849.81, -1376.8721, 0.0038422938, 0.0036958482, 104487.64, 104487.64, 0.0, 2.5004704, 2.499396 
2.5379786e+2, 8.121336e+1, 143507.38, -138379.1, -1609.8875, 0.0038044564, 0.0040412913, 143516.56, 143516.56, 0.0, 2.50047, 2.499536 
2.5379786e+2, 8.37129e+1, 146356.73, -131703.56, -220.81789, 0.0032064884, 0.0034516496, 146356.9, 146356.9, 0.0, 2.500469, 2.499548 
2.5379786e+2, 8.621244e+1, 145875.47, -131944.47, -54.93796, 0.0026080427, 0.002850757, 145875.48, 145875.48, 0.0, 2.5004683, 2.499548 
2.5379786e+2, 8.871198e+1, 145389.39, -132187.7, 111.21372, 0.0020121667, 0.0022499072, 145389.44, 145389.44, 0.0, 2.5004675, 2.499548 
2.537979e+2, 9.121161e+1, 183977.7, -52360.2, -1375.8557, 0.004102451, 0.004219392, 183985.72, 183985.72, 0.0, 2.5004678, 2.4996848 
2.5379792e+2, 9.3711305e+1, 189604.47, -43217.375, -326.72888, 0.004755293, 0.0039414335, 189604.94, 189604.94, 0.0, 2.5004706, 2.4996994 
2.5379792e+2, 9.6211e+1, 191193.86, -42452.324, -318.38113, 0.0053791567, 0.0036067218, 191194.3, 191194.3, 0.0, 2.5004733, 2.4996994 
2.5379792e+2, 9.8710686e+1, 192772.25, -41692.574, -308.97446, 0.006008059, 0.0032530287, 192772.66, 192772.66, 0.0, 2.500476, 2.4996994 
2.5629824e+2, 1.2491673e+0, -193863.14, -841154.44, 12.728394, -0.0020155583, 0.00014790219, -193863.14, -193863.14, 0.0, 2.5004718, 2.4983294 
2.5629824e+2, 3.747502e+0, -194172.52, -841704.4, -42.13812, -0.0009885754, 0.00044437475, -194172.52, -194172.52, 0.0, 2.5004718, 2.4983284 
2.5629827e+2, 6.2458366e+0, -194245.61, -841760.8, -36.56737, 0.00003734443, 0.0007417391, -194245.61, -194245.61, 0.0, 2.5004716, 2.4983284 
2.5629827e+2, 8.744171e+0, -194320.34, -841818.06, -31.364944, 0.0010622018, 0.0010399951, -194320.34, -194320.34, 0.0, 2.5004716, 2.4983282 
2.5629827e+2, 1.1242583e+1, -151775.6, -753800.1, 417.86414, 0.0010133281, 0.0015442007, -151775.3, -151775.3, 0.0, 2.500472, 2.4984791 
2.5629827e+2, 1.3741069e+1, -151378.11, -753195.25, -791.4881, 0.00007288603, 0.0018372808, -151377.06, -151377.06, 0.0, 2.5004723, 2.49848 
2.5629824e+2, 1.6239554e+1, -151281.94, -753213.7, -1024.4282, -0.000871702, 0.0021330914, -151280.2, -151280.2, 0.0, 2.5004725, 2.4984798 
2.5629824e+2, 1.8738039e+1, -151187.28, -753233.4, -1257.8632, -0.0018206938, 0.0024321442, -151184.66, -151184.66, 0.0, 2.5004728, 2.4984796 
2.5629824e+2, 2.1236603e+1, -108533.38, -664332.25, -160.61313, -0.0016587753, 0.0029423418, -108533.336, -108533.336, 0.0, 2.5004723, 2.4986322 
2.5629824e+2, 2.3735239e+1, -109100.47, -663755.8, -1799.2998, -0.00009262323, 0.003013834, -109094.63, -109094.63, 0.0, 2.5004704, 2.498634 
2.5629827e+2, 2.6233876e+1, -110263.62, -664411.0, -1773.5776, 0.0014737764, 0.0030877385, -110257.94, -110257.94, 0.0, 2.5004687, 2.498634 
2.5629827e+2, 2.8732514e+1, -111430.484, -665069.8, -1748.272, 0.003039682, 0.0031657119, -111424.97, -111424.97, 0.0, 2.5004668, 2.4986339 
2.562983e+2, 3.1231225e+1, -70280.29, -579632.56, 661.67615, 0.0033738494, 0.0036277731, -70279.43, -70279.43, 0.0, 2.5004668, 2.4987803 
2.5629827e+2, 3.3730006e+1, -69005.65, -577450.5, -1410.6228, 0.002734109, 0.003464741, -69001.734, -69001.734, 0.0, 2.5004673, 2.4987838 
2.5629827e+2, 3.6228794e+1, -68789.53, -577458.06, -1478.787, 0.0020856939, 0.0033033092, -68785.234, -68785.234, 0.0, 2.5004678, 2.4987836 
2.5629827e+2, 3.872758e+1, -68575.9, -577466.8, -1547.8195, 0.001427575, 0.0031471753, -68571.19, -68571.19, 0.0, 2.5004683, 2.4987833 
2.5629827e+2, 4.1226438e+1, -26317.848, -490725.0, 109.03061, 0.0012552469, 0.0037333723, -26317.822, -26317.822, 0.0, 2.5004694, 2.4989316 
2.5629827e+2, 4.3725377e+1, -24474.475, -487481.28, -1898.0613, 0.001730071, 0.0036900074, -24466.693, -24466.693, 0.0, 2.50047, 2.498937 
2.5629827e+2, 4.622431e+1, -24185.0, -487455.22, -2071.8772, 0.002201203, 0.0036441823, -24175.734, -24175.734, 0.0, 2.5004706, 2.4989367 
2.5629827e+2, 4.8723248e+1, -23897.666, -487427.94, -2246.7288, 0.0026681707, 0.0036024104, -23886.777, -23886.777, 0.0, 2.5004714, 2.4989364 
2.5629827e+2, 5.1222265e+1, 16606.814, -403334.7, -443.30643, 0.0028986684, 0.004447467, 16607.283, 16607.283, 0.0, 2.5004714, 2.4990807 
2.5629827e+2, 5.372135e+1, 17641.916, -399733.56, -1915.8093, 0.0027931137, 0.00448799, 17650.71, 17650.71, 0.0, 2.5004697, 2.4990876 
2.5629827e+2, 5.622044e+1, 16664.904, -400301.34, -2094.9895, 0.0026776488, 0.0045220866, 16675.43, 16675.43, 0.0, 2.5004683, 2.4990873 
2.5629827e+2, 5.871953e+1, 15684.387, -400870.28, -2275.536, 0.002552984, 0.0045592347, 15696.817, 15696.817, 0.0, 2.5004666, 2.499087 
2.5629827e+2, 6.121869e+1, 56504.316, -315699.7, -1022.6855, 0.002736964, 0.005230995, 56507.13, 56507.13, 0.0, 2.500466, 2.4992335 
2.5629827e+2, 6.3717926e+1, 59297.586, -310562.63, -1092.1304, 0.0028364407, 0.004623596, 59300.813, 59300.813, 0.0, 2.5004668, 2.499242 
2.5629827e+2, 6.621716e+1, 59666.582, -310455.97, -760.06824, 0.0029233582, 0.004007521, 59668.145, 59668.145, 0.0, 2.5004675, 2.4992418 
2.562983e+2, 6.87164e+1, 60031.934, -310351.1, -428.74246, 0.0030005826, 0.0033947767, 60032.43, 60032.43, 0.0, 2.5004683, 2.4992416 
2.562983e+2, 7.1215713e+1, 100114.94, -227527.08, -426.59344, 0.0035715383, 0.0042423634, 100115.49, 100115.49, 0.0, 2.5004687, 2.4993837 
2.562983e+2, 7.37151e+1, 103289.12, -221522.16, -387.3774, 0.0034935572, 0.004214119, 103289.58, 103289.58, 0.0, 2.5004694, 2.4993937 
2.562983e+2, 7.621449e+1, 103632.01, -221396.19, -828.14874, 0.0033970722, 0.0041721053, 103634.12, 103634.12, 0.0, 2.5004702, 2.4993935 
2.562983e+2, 7.871389e+1, 103971.31, -221271.95, -1269.6495, 0.0032904595, 0.0041326107, 103976.266, 103976.266, 0.0, 2.5004706, 2.4993935 
2.562983e+2, 8.121335e+1, 144145.33, -137413.56, -1822.8911, 0.0033994492, 0.004464924, 144157.14, 144157.14, 0.0, 2.5004702, 2.4995377 
2.5629833e+2, 8.371289e+1, 146986.34, -130754.58, -333.09183, 0.0033023504, 0.0035264238, 146986.75, 146986.75, 0.0, 2.5004694, 2.4995494 
2.5629833e+2, 8.6212426e+1, 146503.4, -130998.28, -162.76335, 0.0031929414, 0.0025777188, 146503.5, 146503.5, 0.0, 2.5004687, 2.4995494 
2.5629833e+2, 8.8711965e+1, 146015.64, -131244.3, 7.8368855, 0.0030743242, 0.001630627, 146015.64, 146015.64, 0.0, 2.5004678, 2.4995494 
2.5629836e+2, 9.1211593e+1, 184489.27, -51694.11, -1127.6823, 0.0051908907, 0.0035356006, 184494.66, 184494.66, 0.0, 2.5004683, 2.4996858 
2.5629836e+2, 9.3711287e+1, 189977.25, -42830.3, 100.21346, 0.0051110997, 0.0034554705, 189977.3, 189977.3, 0.0, 2.5004709, 2.4996996 
2.562984e+2, 9.621098e+1, 191561.83, -42065.344, 118.09515, 0.0049774293, 0.0033205359, 191561.88, 191561.88, 0.0, 2.5004737, 2.4996998 
2.562984e+2, 9.871068e+1, 193135.39, -41305.68, 137.03572, 0.0048261094, 0.0031688504, 193135.47, 193135.47, 0.0, 2.5004764, 2.4996998 
2.5879872e+2, 1.24916695e+0, -197925.4, -843104.5, -42.48123, -0.0031665901, 0.00011141796, -197925.4, -197925.4, 0.0, 2.500465, 2.4983294 
2.5879875e+2, 3.747501e+0, -198107.63, -843598.8, -150.87227, -0.0014316163, 0.0003347422, -198107.6, -198107.6, 0.0, 2.5004652, 2.4983284 
2.5879875e+2, 6.245835e+0, -198099.34, -843614.94, -204.47311, 0.00029574093, 0.00055871846, -198099.28, -198099.28, 0.0, 2.5004652, 2.4983284 
2.5879878e+2, 8.7441695e+0, -198142.7, -843655.94, -259.46112, 0.002015482, 0.00078334654, -198142.61, -198142.61, 0.0, 2.500465, 2.4983282 
2.5879878e+2, 1.1242578e+1, -155920.84, -756507.9, 227.89381, 0.0019142099, 0.0012348244, -155920.75, -155920.75, 0.0, 2.5004656, 2.4984775 
2.5879875e+2, 1.3741063e+1, -155296.44, -755772.25, -1053.1455, 0.00011708908, 0.0014721011, -155294.6, -155294.6, 0.0, 2.5004663, 2.4984784 
2.5879875e+2, 1.6239546e+1, -155032.16, -755713.3, -1309.9099, -0.0016886849, 0.0017126534, -155029.3, -155029.3, 0.0, 2.5004668, 2.4984782 
2.5879872e+2, 1.873803e+1, -154812.95, -755677.5, -1561.2579, -0.0035032898, 0.001957022, -154808.9, -154808.9, 0.0, 2.5004673, 2.4984782 
2.5879872e+2, 2.1236593e+1, -111408.08, -665640.5, -752.5123, -0.0033684548, 0.0026102294, -111407.055, -111407.055, 0.0, 2.5004673, 2.4986324 
2.5879875e+2, 2.3735233e+1, -111605.945, -664865.5, -2501.0186, -0.0008267273, 0.0030043512, -111594.64, -111594.64, 0.0, 2.500466, 2.4986343 
2.5879875e+2, 2.6233873e+1, -112469.08, -665379.3, -2506.489, 0.0017075874, 0.0034012592, -112457.72, -112457.72, 0.0, 2.5004647, 2.498634 
2.5879878e+2, 2.8732514e+1, -113390.484, -665923.6, -2505.9607, 0.004233343, 0.0038026508, -113379.12, -113379.12, 0.0, 2.5004632, 2.4986339 
2.5879878e+2, 3.1231225e+1, -72109.23, -580701.1, 351.0572, 0.0048524197, 0.0041386834, -72108.984, -72108.984, 0.0, 2.5004637, 2.4987798 
2.5879878e+2, 3.3730003e+1, -70493.62, -578317.7, -1802.6399, 0.0036375965, 0.0034025267, -70487.22, -70487.22, 0.0, 2.500465, 2.4987836 
2.5879875e+2, 3.622878e+1, -70036.92, -578214.56, -1841.871, 0.002404413, 0.0026686182, -70030.24, -70030.24, 0.0, 2.5004659, 2.498783 
2.5879875e+2, 3.8727558e+1, -69656.58, -578148.3, -1873.2839, 0.0011524811, 0.001940617, -69649.67, -69649.67, 0.0, 2.5004666, 2.4987829 
2.5879875e+2, 4.1226423e+1, -27334.777, -491725.1, -99.64881, 0.0005750721, 0.0026065286, -27334.756, -27334.756, 0.0, 2.5004683, 2.4989305 
2.5879875e+2, 4.3725365e+1, -25125.623, -488234.7, -2153.2483, 0.0010661966, 0.003248302, -25115.611, -25115.611, 0.0, 2.5004694, 2.498936 
2.5879875e+2, 4.6224308e+1, -24608.752, -488105.22, -2289.55, 0.001542573, 0.0038882864, -24597.443, -24597.443, 0.0, 2.5004704, 2.4989357 
2.5879875e+2, 4.8723248e+1, -24183.242, -488016.16, -2418.7085, 0.002002708, 0.004533232, -24170.63, -24170.63, 0.0, 2.5004714, 2.4989352 
2.5879875e+2, 5.1222265e+1, 16490.176, -403879.25, -837.7943, 0.0024713983, 0.00560755, 16491.846, 16491.846, 0.0, 2.5004716, 2.4990795 
2.5879875e+2, 5.372135e+1, 17784.762, -400092.8, -2276.0422, 0.002684205, 0.005380447, 17797.158, 17797.158, 0.0, 2.5004704, 2.4990866 
2.5879875e+2, 5.622043e+1, 16919.38, -400609.2, -2361.8623, 0.0028734847, 0.005146585, 16932.742, 16932.742, 0.0, 2.500469, 2.4990864 
2.5879875e+2, 5.8719516e+1, 15942.374, -401178.16, -2446.5508, 0.0030408679, 0.0049155885, 15956.724, 15956.724, 0.0, 2.5004675, 2.4990861 
2.5879878e+2, 6.121868e+1, 57690.375, -314100.03, -793.543, 0.0032755672, 0.0053885467, 57692.07, 57692.07, 0.0, 2.500467, 2.4992359 
2.5879878e+2, 6.3717914e+1, 60538.59, -308854.44, -759.55066, 0.0032550546, 0.0046077175, 60540.152, 60540.152, 0.0, 2.5004678, 2.4992445 
2.5879878e+2, 6.621715e+1, 60805.547, -308800.47, -341.27893, 0.0032116333, 0.003818415, 60805.863, 60805.863, 0.0, 2.5004685, 2.4992442 
2.5879878e+2, 6.8716383e+1, 60965.656, -308798.0, 80.243706, 0.0031477618, 0.0030329141, 60965.67, 60965.67, 0.0, 2.5004687, 2.4992442 
2.5879878e+2, 7.121571e+1, 99380.805, -229052.33, 98.603035, 0.003602867, 0.003945176, 99380.836, 99380.836, 0.0, 2.5004687, 2.499381 
2.5879878e+2, 7.3715097e+1, 102277.305, -223179.81, 325.23962, 0.0033413211, 0.0041608703, 102277.63, 102277.63, 0.0, 2.500469, 2.499391 
2.5879878e+2, 7.6214486e+1, 102229.92, -223240.02, 4.0075827, 0.0030513788, 0.0043622, 102229.92, 102229.92, 0.0, 2.500469, 2.4993908 
2.587988e+2, 7.871388e+1, 102066.04, -223356.31, -320.8466, 0.0027420076, 0.0045658946, 102066.35, 102066.35, 0.0, 2.5004687, 2.4993908 
2.587988e+2, 8.1213343e+1, 142835.13, -137404.9, -1090.9961, 0.003008631, 0.0048934026, 142839.38, 142839.38, 0.0, 2.5004673, 2.4995391 
2.587988e+2, 8.3712876e+1, 145132.44, -130993.41, 608.88226, 0.003412052, 0.0036036693, 145133.77, 145133.77, 0.0, 2.5004656, 2.4995508 
2.5879884e+2, 8.621242e+1, 143979.3, -131561.81, 891.7294, 0.0037918424, 0.0023045503, 143982.19, 143982.19, 0.0, 2.5004637, 2.4995508 
2.5879884e+2, 8.8711953e+1, 142704.97, -132188.6, 1177.752, 0.00415132, 0.0010085325, 142710.02, 142710.02, 0.0, 2.5004613, 2.4995508 
2.5879887e+2, 9.121158e+1, 180163.89, -53392.164, 499.0536, 0.0062912754, 0.002878748, 180164.97, 180164.97, 0.0, 2.5004604, 2.4996867 
2.5879887e+2, 9.371128e+1, 184510.92, -45248.51, 1975.5059, 0.0054802042, 0.0029915317, 184527.9, 184527.9, 0.0, 2.5004613, 2.4997 
2.5879887e+2, 9.6210974e+1, 184843.75, -45084.336, 2080.3154, 0.004591693, 0.003050904, 184862.56, 184862.56, 0.0, 2.5004618, 2.4997003 
2.5879887e+2, 9.871067e+1, 184957.84, -45025.492, 2184.6045, 0.0036641175, 0.0030956883, 184978.6, 184978.6, 0.0, 2.500462, 2.4997003 
2.612992e+2, 1.2491665e+0, -191864.55, -840671.1, -143.38637, -0.0027380139, 0.000116165254, -191864.52, -191864.52, 0.0, 2.500476, 2.4983282 
2.612992e+2, 3.7474996e+0, -192355.9, -841319.4, -419.23776, -0.0012804175, 0.00034949975, -192355.63, -192355.63, 0.0, 2.5004754, 2.4983273 
2.612992e+2, 6.2458324e+0, -192603.2, -841458.8, -643.5635, 0.00018696676, 0.0005841738, -192602.56, -192602.56, 0.0, 2.5004752, 2.4983273 
2.6129922e+2, 8.7441653e+0, -192851.61, -841598.8, -868.2084, 0.0016641397, 0.00082018715, -192850.45, -192850.45, 0.0, 2.5004747, 2.4983273 
2.6129922e+2, 1.12425745e+1, -151152.3, -754414.9, -212.93317, 0.0016061444, 0.0012503344, -151152.22, -151152.22, 0.0, 2.500474, 2.498477 
2.6129922e+2, 1.3741058e+1, -151593.27, -754179.1, -1107.3167, 0.0001093491, 0.0014388742, -151591.23, -151591.23, 0.0, 2.5004728, 2.498478 
2.612992e+2, 1.623954e+1, -152353.19, -754602.8, -949.6582, -0.0013793659, 0.0016303258, -152351.69, -152351.69, 0.0, 2.5004716, 2.498478 
2.6129916e+2, 1.8738022e+1, -153116.05, -755030.1, -792.12, -0.0028601384, 0.0018252211, -153115.0, -153115.0, 0.0, 2.5004704, 2.4984777 
2.612992e+2, 2.1236585e+1, -109735.84, -665365.94, 205.36263, -0.0027232724, 0.0025011313, -109735.766, -109735.766, 0.0, 2.5004709, 2.4986312 
2.612992e+2, 2.3735225e+1, -108509.83, -663872.8, -1950.9213, -0.00044738737, 0.0029827477, -108502.98, -108502.98, 0.0, 2.500472, 2.4986334 
2.6129922e+2, 2.6233867e+1, -107904.695, -663664.94, -2297.5708, 0.0018351343, 0.0034673682, -107895.2, -107895.2, 0.0, 2.500473, 2.4986331 
2.6129922e+2, 2.8732505e+1, -107302.44, -663461.25, -2644.0571, 0.004122966, 0.0039567053, -107289.87, -107289.87, 0.0, 2.5004742, 2.498633 
2.6129925e+2, 3.1231216e+1, -66023.35, -577769.7, 114.98984, 0.004719343, 0.004274856, -66023.33, -66023.33, 0.0, 2.5004742, 2.4987798 
2.6129922e+2, 3.372999e+1, -66159.28, -576194.0, -2066.0015, 0.0036149174, 0.003420885, -66150.914, -66150.914, 0.0, 2.5004723, 2.4987836 
2.6129922e+2, 3.6228767e+1, -67389.59, -576885.44, -2064.1853, 0.0025183547, 0.0025678058, -67381.23, -67381.23, 0.0, 2.5004702, 2.4987833 
2.612992e+2, 3.8727546e+1, -68622.28, -577578.9, -2062.7227, 0.001429612, 0.0017192455, -68613.92, -68613.92, 0.0, 2.5004683, 2.498783 
2.612992e+2, 4.1226405e+1, -27634.357, -492012.84, 53.68661, 0.0008630921, 0.0024049422, -27634.35, -27634.35, 0.0, 2.5004678, 2.4989302 
2.612992e+2, 4.3725353e+1, -26142.742, -488815.44, -2003.4872, 0.0013023693, 0.003218445, -26134.066, -26134.066, 0.0, 2.5004678, 2.4989357 
2.612992e+2, 4.6224296e+1, -26273.326, -488979.88, -2075.7268, 0.0017500581, 0.0040323474, -26264.014, -26264.014, 0.0, 2.5004675, 2.4989355 
2.612992e+2, 4.872324e+1, -26403.348, -489140.34, -2148.5137, 0.002204212, 0.0048533618, -26393.373, -26393.373, 0.0, 2.5004675, 2.4989352 
2.6129922e+2, 5.122225e+1, 14324.517, -404919.34, -570.2573, 0.0027094425, 0.0059885904, 14325.292, 14325.292, 0.0, 2.500468, 2.4990795 
2.6129922e+2, 5.372134e+1, 16689.527, -400570.94, -2017.5632, 0.0029086128, 0.005690253, 16699.281, 16699.281, 0.0, 2.5004685, 2.4990866 
2.6129922e+2, 5.6220424e+1, 16983.43, -400520.22, -2088.3147, 0.0031127585, 0.0053899973, 16993.875, 16993.875, 0.0, 2.5004692, 2.4990866 
2.6129922e+2, 5.871951e+1, 17276.188, -400468.56, -2159.9175, 0.0033240593, 0.0050975345, 17287.355, 17287.355, 0.0, 2.5004697, 2.4990864 
2.6129922e+2, 6.121867e+1, 59375.004, -312864.94, -797.9036, 0.0035370348, 0.0055686748, 59376.715, 59376.715, 0.0, 2.5004697, 2.4992368 
2.6129922e+2, 6.371791e+1, 61288.074, -308028.06, -1486.0104, 0.0034587441, 0.0048244665, 61294.055, 61294.055, 0.0, 2.5004687, 2.4992454 
2.6129922e+2, 6.621715e+1, 60704.402, -308374.94, -1816.3317, 0.0033832733, 0.004072936, 60713.34, 60713.34, 0.0, 2.5004678, 2.4992454 
2.6129922e+2, 6.8716383e+1, 60118.438, -308723.25, -2147.7168, 0.0033128774, 0.0033264845, 60130.94, 60130.94, 0.0, 2.5004668, 2.4992452 
2.6129925e+2, 7.12157e+1, 97949.25, -229569.06, -2238.6934, 0.0038123745, 0.004275201, 97964.555, 97964.555, 0.0, 2.500466, 2.4993813 
2.6129925e+2, 7.371509e+1, 101063.66, -223602.08, -1450.1844, 0.0035765953, 0.0044738096, 101070.13, 101070.13, 0.0, 2.5004668, 2.4993913 
2.6129925e+2, 7.6214486e+1, 101353.4, -223504.23, -1289.2858, 0.003335514, 0.004656513, 101358.516, 101358.516, 0.0, 2.5004673, 2.4993913 
2.6129925e+2, 7.8713876e+1, 101640.57, -223407.63, -1128.8319, 0.0030985572, 0.0048403917, 101644.49, 101644.49, 0.0, 2.5004678, 2.499391 
2.6129925e+2, 8.121333e+1, 142954.98, -137104.88, -2215.6587, 0.0034588082, 0.0051672407, 142972.5, 142972.5, 0.0, 2.5004673, 2.4995396 
2.6129925e+2, 8.3712876e+1, 146154.44, -130326.53, -1060.2468, 0.003967785, 0.0038712993, 146158.5, 146158.5, 0.0, 2.500467, 2.4995513 
2.6129928e+2, 8.621241e+1, 146068.27, -130378.41, -1452.0814, 0.004482078, 0.0025610642, 146075.89, 146075.89, 0.0, 2.500467, 2.4995513 
2.6129928e+2, 8.871195e+1, 145979.02, -130431.76, -1843.8018, 0.0050051063, 0.0012492123, 145991.31, 145991.31, 0.0, 2.5004668, 2.4995513 
2.612993e+2, 9.121158e+1, 184501.89, -50463.91, -2624.051, 0.0071702297, 0.0031491392, 184531.19, 184531.19, 0.0, 2.5004668, 2.4996886 
2.612993e+2, 9.3711275e+1, 189357.58, -42246.3, -978.5318, 0.005971982, 0.0031980872, 189361.7, 189361.7, 0.0, 2.500469, 2.4997017 
2.612993e+2, 9.6210974e+1, 190521.69, -41688.75, -892.0744, 0.0047437376, 0.0031881034, 190525.11, 190525.11, 0.0, 2.5004709, 2.4997017 
2.612993e+2, 9.871067e+1, 191662.42, -41142.45, -805.0602, 0.0035259903, 0.0031591423, 191665.2, 191665.2, 0.0, 2.500473, 2.4997017 
2.637997e+2, 1.24916635e+0, -192275.27, -841525.4, -212.0474, -0.0016799202, 0.00017142003, -192275.2, -192275.2, 0.0, 2.500476, 2.4983268 
2.637997e+2, 3.747499e+0, -192767.58, -842177.56, -481.93896, -0.0013543637, 0.000514992, -192767.22, -192767.22, 0.0, 2.5004754, 2.4983258 
2.637997e+2, 6.245832e+0, -193014.08, -842317.25, -704.36676, -0.0010246894, 0.0008595407, -193013.31, -193013.31, 0.0, 2.5004752, 2.4983258 
2.637997e+2, 8.744165e+0, -193261.69, -842457.5, -927.11365, -0.0006908968, 0.0012050661, -193260.36, -193260.36, 0.0, 2.5004747, 2.4983258 
2.637997e+2, 1.1242574e+1, -150822.23, -753752.06, -381.215, -0.0006109864, 0.001659834, -150821.98, -150821.98, 0.0, 2.500474, 2.4984782 
2.637997e+2, 1.3741058e+1, -151272.39, -753539.25, -1300.3574, -0.00067388837, 0.001817514, -151269.58, -151269.58, 0.0, 2.5004728, 2.4984791 
2.637997e+2, 1.623954e+1, -152031.66, -753965.44, -1140.5016, -0.000733123, 0.0019781236, -152029.48, -152029.48, 0.0, 2.5004716, 2.498479 
2.6379964e+2, 1.8738024e+1, -152794.31, -754396.1, -980.605, -0.00078884227, 0.0021421579, -152792.72, -152792.72, 0.0, 2.5004704, 2.498479 
2.637997e+2, 2.1236585e+1, -110315.26, -666638.5, 440.69675, -0.0005947961, 0.0027367864, -110314.91, -110314.91, 0.0, 2.5004709, 2.498629 
2.637997e+2, 2.3735222e+1, -109081.95, -665136.5, -1785.6149, 0.00032642594, 0.0030925488, -109076.22, -109076.22, 0.0, 2.500472, 2.498631 
2.637997e+2, 2.623386e+1, -108475.85, -664932.75, -2130.641, 0.0012505, 0.0034516195, -108467.69, -108467.69, 0.0, 2.5004733, 2.498631 
2.637997e+2, 2.8732497e+1, -107872.74, -664733.5, -2475.4326, 0.0021761754, 0.003815693, -107861.74, -107861.74, 0.0, 2.5004742, 2.4986308 
2.637997e+2, 3.1231204e+1, -65889.164, -577622.25, -136.35007, 0.0024800377, 0.00421652, -65889.125, -65889.125, 0.0, 2.5004745, 2.49878 
2.637997e+2, 3.3729985e+1, -66023.68, -576051.44, -2373.7056, 0.0021873955, 0.0036566304, -66012.63, -66012.63, 0.0, 2.5004725, 2.4987838 
2.637997e+2, 3.6228764e+1, -67252.695, -576747.7, -2369.773, 0.001897994, 0.0030975433, -67241.68, -67241.68, 0.0, 2.5004704, 2.4987836 
2.637997e+2, 3.8727543e+1, -68484.555, -577446.9, -2365.9238, 0.0016117173, 0.0025428869, -68473.555, -68473.555, 0.0, 2.5004685, 2.4987833 
2.637997e+2, 4.1226405e+1, -27575.486, -492082.22, 102.7106, 0.0014832501, 0.0031782323, -27575.463, -27575.463, 0.0, 2.500468, 2.49893 
2.637997e+2, 4.3725345e+1, -26084.305, -488895.5, -2023.5938, 0.0019202869, 0.003653823, -26075.457, -26075.457, 0.0, 2.500468, 2.4989355 
2.637997e+2, 4.622429e+1, -26211.902, -489063.28, -2093.6736, 0.0023605907, 0.004128819, -26202.432, -26202.432, 0.0, 2.5004678, 2.4989352 
2.637997e+2, 4.872323e+1, -26339.277, -489227.75, -2164.0093, 0.0028024772, 0.004609646, -26329.16, -26329.16, 0.0, 2.5004678, 2.498935 
2.637997e+2, 5.1222247e+1, 14433.411, -404950.53, -477.8299, 0.0031619975, 0.005616894, 14433.956, 14433.956, 0.0, 2.5004683, 2.4990795 
2.637997e+2, 5.3721327e+1, 16811.002, -400585.66, -1924.9899, 0.0030888007, 0.0054068365, 16819.879, 16819.879, 0.0, 2.5004687, 2.4990866 
2.637997e+2, 5.622041e+1, 17108.379, -400537.1, -1993.3944, 0.0030153142, 0.0051933387, 17117.893, 17117.893, 0.0, 2.5004694, 2.4990864 
2.637997e+2, 5.87195e+1, 17404.47, -400487.88, -2062.4443, 0.0029437048, 0.0049861167, 17414.65, 17414.65, 0.0, 2.50047, 2.4990861 
2.637997e+2, 6.121866e+1, 59062.074, -313822.97, -961.4301, 0.0030813033, 0.005599513, 59064.555, 59064.555, 0.0, 2.50047, 2.499235 
2.637997e+2, 6.3717896e+1, 60970.793, -309002.13, -1622.8307, 0.0031192668, 0.005051397, 60977.91, 60977.91, 0.0, 2.500469, 2.4992437 
2.637997e+2, 6.621713e+1, 60389.72, -309350.38, -1951.1448, 0.0031554447, 0.0044953246, 60400.016, 60400.016, 0.0, 2.500468, 2.4992435 
2.6379973e+2, 6.871637e+1, 59806.117, -309700.6, -2280.5005, 0.0031922117, 0.003943755, 59820.19, 59820.19, 0.0, 2.500467, 2.4992433 
2.6379973e+2, 7.121569e+1, 98591.16, -228589.42, -2245.6897, 0.0038737906, 0.0048600435, 98606.57, 98606.57, 0.0, 2.5004666, 2.499383 
2.6379973e+2, 7.371508e+1, 101699.266, -222638.11, -1359.8585, 0.0038804882, 0.004760492, 101704.97, 101704.97, 0.0, 2.500467, 2.4993927 
2.6379973e+2, 7.621447e+1, 101989.6, -222541.31, -1196.5876, 0.003876419, 0.0046452074, 101994.016, 101994.016, 0.0, 2.5004675, 2.4993927 
2.6379973e+2, 7.871386e+1, 102277.37, -222445.77, -1033.7616, 0.0038711736, 0.004531526, 102280.664, 102280.664, 0.0, 2.5004683, 2.4993925 
2.6379976e+2, 8.121332e+1, 142677.17, -138064.9, -2375.193, 0.0042351503, 0.004828854, 142697.27, 142697.27, 0.0, 2.5004678, 2.4995377 
2.6379976e+2, 8.371286e+1, 145785.53, -131474.05, -1071.6938, 0.004532042, 0.003813468, 145789.67, 145789.67, 0.0, 2.5004675, 2.4995492 
2.6379976e+2, 8.6212397e+1, 145697.56, -131527.6, -1460.7972, 0.004828398, 0.0027846484, 145705.27, 145705.27, 0.0, 2.5004673, 2.4995492 
2.637998e+2, 8.871193e+1, 145606.52, -131582.63, -1849.7865, 0.0051275133, 0.0017548684, 145618.86, 145618.86, 0.0, 2.5004673, 2.4995492 
2.637998e+2, 9.1211563e+1, 185155.86, -49524.633, -2521.1519, 0.007260154, 0.0037317062, 185182.94, 185182.94, 0.0, 2.5004673, 2.4996898 
2.637998e+2, 9.3711257e+1, 189915.33, -41498.53, -657.03973, 0.005944448, 0.003450853, 189917.2, 189917.2, 0.0, 2.5004694, 2.4997027 
2.637998e+2, 9.621095e+1, 191079.66, -40940.438, -564.3102, 0.0045836475, 0.0031105164, 191081.03, 191081.03, 0.0, 2.5004714, 2.4997027 
2.637998e+2, 9.871065e+1, 192237.11, -40385.656, -470.71808, 0.003220339, 0.0027522307, 192238.06, 192238.06, 0.0, 2.5004735, 2.4997027 
2.6630014e+2, 1.2491663e+0, -192686.56, -842380.8, -280.36722, -0.00062177685, 0.00022573874, -192686.44, -192686.44, 0.0, 2.500476, 2.4983253 
2.6630014e+2, 3.7474984e+0, -193180.9, -843039.2, -544.3749, -0.0014281605, 0.00067767606, -193180.45, -193180.45, 0.0, 2.5004754, 2.4983244 
2.6630014e+2, 6.245831e+0, -193426.6, -843179.1, -764.9047, -0.0022360967, 0.0011302273, -193425.69, -193425.69, 0.0, 2.5004752, 2.4983244 
2.6630014e+2, 8.7441635e+0, -193673.39, -843319.6, -985.75366, -0.0030455848, 0.0015833925, -193671.9, -193671.9, 0.0, 2.5004747, 2.4983242 
2.6630014e+2, 1.1242573e+1, -150501.0, -753107.5, -546.47266, -0.002828941, 0.0020686402, -150500.5, -150500.5, 0.0, 2.5004742, 2.4984791 
2.6630014e+2, 1.3741057e+1, -150953.16, -752902.8, -1492.5735, -0.0014570595, 0.0021919324, -150949.45, -150949.45, 0.0, 2.5004728, 2.49848 
2.6630014e+2, 1.6239542e+1, -151711.78, -753331.5, -1330.5201, -0.00008592213, 0.0023181527, -151708.84, -151708.84, 0.0, 2.5004716, 2.49848 
2.6630017e+2, 1.8738025e+1, -152474.28, -753765.7, -1168.2668, 0.0012843034, 0.0024477786, -152472.02, -152472.02, 0.0, 2.5004704, 2.4984798 
2.6630017e+2, 2.1236585e+1, -110905.11, -667932.7, 682.60443, 0.0015315972, 0.002967066, -110904.27, -110904.27, 0.0, 2.5004709, 2.4986267 
2.6630017e+2, 2.3735218e+1, -109655.57, -666403.3, -1619.0586, 0.0010997325, 0.0031935796, -109650.87, -109650.87, 0.0, 2.500472, 2.4986289 
2.6630014e+2, 2.6233852e+1, -109048.49, -666203.75, -1962.4612, 0.0006669563, 0.003423665, -109041.586, -109041.586, 0.0, 2.5004733, 2.4986286 
2.6630014e+2, 2.8732485e+1, -108444.55, -666008.9, -2305.5645, 0.00023207252, 0.0036590388, -108435.016, -108435.016, 0.0, 2.5004745, 2.4986284 
2.6630014e+2, 3.1231195e+1, -65765.92, -577497.6, -378.96252, 0.00023616753, 0.0041507157, -65765.64, -65765.64, 0.0, 2.5004745, 2.4987803 
2.6630014e+2, 3.3729976e+1, -65889.336, -575911.5, -2679.805, 0.0007572249, 0.003882023, -65875.25, -65875.25, 0.0, 2.5004725, 2.4987838 
2.6630014e+2, 3.622876e+1, -67117.06, -576612.56, -2673.7559, 0.0012769557, 0.0036139705, -67103.04, -67103.04, 0.0, 2.5004706, 2.4987836 
2.6630014e+2, 3.8727543e+1, -68348.07, -577317.5, -2667.52, 0.001795116, 0.0033502604, -68334.09, -68334.09, 0.0, 2.5004685, 2.4987833 
2.6630014e+2, 4.1226405e+1, -27526.225, -492171.56, 158.04709, 0.00210226, 0.003945058, -27526.172, -27526.172, 0.0, 2.5004683, 2.4989297 
2.6630014e+2, 4.3725342e+1, -26026.986, -488977.9, -2042.1704, 0.002538566, 0.004079492, -26017.979, -26017.979, 0.0, 2.5004683, 2.4989352 
2.6630014e+2, 4.6224278e+1, -26151.598, -489149.0, -2110.0906, 0.0029730133, 0.0042122267, -26141.98, -26141.98, 0.0, 2.500468, 2.498935 
2.6630014e+2, 4.8723218e+1, -26276.41, -489317.7, -2177.937, 0.0034041612, 0.0043495116, -26266.166, -26266.166, 0.0, 2.500468, 2.4989347 
2.6630017e+2, 5.122223e+1, 14531.52, -405004.13, -379.35104, 0.0036106093, 0.0052375253, 14531.862, 14531.862, 0.0, 2.5004685, 2.4990792 
2.6630017e+2, 5.3721315e+1, 16931.506, -400602.4, -1831.0956, 0.003265672, 0.0051124846, 16939.537, 16939.537, 0.0, 2.5004692, 2.4990864 
2.6630014e+2, 5.62204e+1, 17232.357, -400556.0, -1897.1533, 0.002915264, 0.0049823644, 17240.97, 17240.97, 0.0, 2.5004697, 2.4990861 
2.6630014e+2, 5.871948e+1, 17531.84, -400509.06, -1963.6244, 0.0025614551, 0.0048570028, 17541.063, 17541.063, 0.0, 2.5004704, 2.499086 
2.6630014e+2, 6.121865e+1, 58735.08, -314810.22, -1122.5414, 0.002625715, 0.0056263707, 58738.45, 58738.45, 0.0, 2.5004702, 2.499233 
2.6630017e+2, 6.3717884e+1, 60652.72, -309977.84, -1758.662, 0.0027797245, 0.005271644, 60661.063, 60661.063, 0.0, 2.5004692, 2.4992418 
2.6630017e+2, 6.6217124e+1, 60074.246, -310327.5, -2084.9688, 0.00292732, 0.004908132, 60085.984, 60085.984, 0.0, 2.5004685, 2.4992416 
2.6630017e+2, 6.871636e+1, 59493.04, -310679.5, -2412.3044, 0.0030710187, 0.004548544, 59508.758, 59508.758, 0.0, 2.5004675, 2.4992416 
2.6630017e+2, 7.121568e+1, 99220.734, -227635.38, -2249.111, 0.0039341417, 0.0054422766, 99236.21, 99236.21, 0.0, 2.5004668, 2.4993844 
2.6630017e+2, 7.3715067e+1, 102334.17, -221675.56, -1269.1221, 0.004182988, 0.0050416626, 102339.15, 102339.15, 0.0, 2.5004675, 2.4993942 
2.663002e+2, 7.6214457e+1, 102625.11, -221579.84, -1103.4789, 0.00441562, 0.004625324, 102628.87, 102628.87, 0.0, 2.500468, 2.4993942 
2.663002e+2, 7.8713846e+1, 102913.48, -221485.34, -938.28064, 0.0046417755, 0.0042110165, 102916.19, 102916.19, 0.0, 2.5004685, 2.4993942 
2.663002e+2, 8.12133e+1, 142378.52, -139068.28, -2531.835, 0.005011024, 0.004490055, 142401.28, 142401.28, 0.0, 2.500468, 2.4995358 
2.663002e+2, 8.3712846e+1, 145415.9, -132623.06, -1083.2198, 0.0050971457, 0.0037514647, 145420.13, 145420.13, 0.0, 2.500468, 2.499547 
2.6630023e+2, 8.621238e+1, 145326.14, -132678.28, -1469.592, 0.005176864, 0.0030001113, 145333.9, 145333.9, 0.0, 2.5004678, 2.499547 
2.6630023e+2, 8.8711923e+1, 145233.3, -132735.0, -1855.8501, 0.005253364, 0.0022484541, 145245.69, 145245.69, 0.0, 2.5004678, 2.499547 
2.6630026e+2, 9.1211545e+1, 185779.0, -48649.418, -2410.574, 0.00734627, 0.004335971, 185803.78, 185803.78, 0.0, 2.5004678, 2.4996912 
2.6630026e+2, 9.3711245e+1, 190472.27, -40752.465, -336.19247, 0.0059164152, 0.0037200663, 190472.77, 190472.77, 0.0, 2.50047, 2.499704 
2.6630026e+2, 9.621094e+1, 191631.23, -40196.52, -237.67087, 0.004426472, 0.0030435636, 191631.48, 191631.48, 0.0, 2.5004718, 2.499704 
2.6630026e+2, 9.8710626e+1, 192783.33, -39643.883, -138.2867, 0.0029210146, 0.0023501387, 192783.4, 192783.4, 0.0, 2.5004737, 2.499704 
2.6880062e+2, 1.249166e+0, -197074.06, -845159.9, -383.9714, 0.00044640177, 0.00027899354, -197073.83, -197073.83, 0.0, 2.500469, 2.498324 
2.6880062e+2, 3.747498e+0, -197445.98, -845766.0, -712.9571, -0.0014917762, 0.00083721115, -197445.2, -197445.2, 0.0, 2.500469, 2.498323 
2.688006e+2, 6.24583e+0, -197616.2, -845870.06, -1001.03955, -0.0034367181, 0.0013957369, -197614.66, -197614.66, 0.0, 2.5004685, 2.4983227 
2.6880056e+2, 8.744162e+0, -197838.4, -845999.2, -1287.9585, -0.0053884233, 0.0019545709, -197835.84, -197835.84, 0.0, 2.5004683, 2.4983227 
2.688006e+2, 1.1242571e+1, -153808.78, -754231.5, -1023.3825, -0.0050363922, 0.0024760454, -153807.03, -153807.03, 0.0, 2.500468, 2.4984803 
2.688006e+2, 1.3741057e+1, -154007.2, -753899.7, -2071.2026, -0.0022302608, 0.002561277, -154000.05, -154000.05, 0.0, 2.500467, 2.4984813 
2.6880062e+2, 1.6239542e+1, -154556.06, -754229.7, -1973.5, 0.0005710391, 0.0026494393, -154549.58, -154549.58, 0.0, 2.5004663, 2.498481 
2.6880065e+2, 1.8738025e+1, -155148.81, -754585.25, -1869.4259, 0.0033673218, 0.0027410106, -155142.98, -155142.98, 0.0, 2.5004654, 2.498481 
2.6880065e+2, 2.1236585e+1, -114287.98, -670590.8, 379.9927, 0.0036635883, 0.0031909193, -114287.72, -114287.72, 0.0, 2.5004663, 2.4986246 
2.6880062e+2, 2.3735216e+1, -112754.02, -668889.8, -2015.474, 0.0018802114, 0.0032849659, -112746.72, -112746.72, 0.0, 2.5004678, 2.4986267 
2.6880062e+2, 2.6233846e+1, -111926.336, -668587.9, -2362.1282, 0.00009243413, 0.0033828386, -111916.31, -111916.31, 0.0, 2.5004694, 2.4986265 
2.688006e+2, 2.8732476e+1, -111141.7, -668310.4, -2700.028, -0.001700906, 0.003486318, -111128.62, -111128.62, 0.0, 2.5004709, 2.4986262 
2.688006e+2, 3.1231183e+1, -67512.586, -578289.06, -1167.1052, -0.002004051, 0.004077158, -67509.92, -67509.92, 0.0, 2.5004716, 2.4987803 
2.688006e+2, 3.372997e+1, -67268.445, -576499.75, -3519.9253, -0.0006683253, 0.004096903, -67244.11, -67244.11, 0.0, 2.5004702, 2.498784 
2.688006e+2, 3.6228755e+1, -68194.48, -577060.06, -3483.6992, 0.00066182483, 0.004117157, -68170.63, -68170.63, 0.0, 2.5004687, 2.4987838 
2.688006e+2, 3.8727543e+1, -69170.65, -577647.44, -3437.518, 0.0019859727, 0.0041417726, -69147.414, -69147.414, 0.0, 2.500467, 2.4987836 
2.6880062e+2, 4.1226402e+1, -28193.021, -492613.88, -189.54358, 0.0027258021, 0.0047061644, -28192.943, -28192.943, 0.0, 2.5004673, 2.4989295 
2.6880062e+2, 4.372534e+1, -26421.72, -489271.78, -2385.919, 0.0031622897, 0.004496566, -26409.422, -26409.422, 0.0, 2.5004675, 2.498935 
2.6880062e+2, 4.622427e+1, -26341.7, -489348.22, -2360.7407, 0.003592066, 0.0042842194, -26329.662, -26329.662, 0.0, 2.5004678, 2.4989347 
2.6880062e+2, 4.8723203e+1, -26316.313, -489449.34, -2326.6938, 0.0040139137, 0.0040753037, -26304.623, -26304.623, 0.0, 2.500468, 2.4989345 
2.6880062e+2, 5.122221e+1, 14662.487, -405047.88, -294.2853, 0.004059707, 0.004853287, 14662.694, 14662.694, 0.0, 2.5004687, 2.499079 
2.6880062e+2, 5.37213e+1, 17231.088, -400522.53, -1622.3826, 0.0034433054, 0.004810226, 17237.389, 17237.389, 0.0, 2.5004697, 2.4990861 
2.6880062e+2, 5.622039e+1, 17606.236, -400443.44, -1545.3129, 0.0028165996, 0.004760471, 17611.95, 17611.95, 0.0, 2.5004704, 2.499086 
2.6880062e+2, 5.871947e+1, 17914.393, -400395.5, -1460.5706, 0.0021814778, 0.0047140997, 17919.492, 17919.492, 0.0, 2.500471, 2.499086 
2.6880062e+2, 6.121864e+1, 58642.152, -315693.28, -719.6223, 0.0021743914, 0.0056535834, 58643.54, 58643.54, 0.0, 2.5004709, 2.499231 
2.6880062e+2, 6.371787e+1, 60562.36, -310830.78, -1165.1984, 0.0024439655, 0.005489843, 60566.016, 60566.016, 0.0, 2.50047, 2.49924 
2.6880062e+2, 6.621711e+1, 59888.586, -311228.53, -1317.0625, 0.0027027784, 0.005316344, 59893.26, 59893.26, 0.0, 2.500469, 2.49924 
2.6880062e+2, 6.871635e+1, 59133.38, -311667.13, -1464.1282, 0.002953514, 0.005146245, 59139.156, 59139.156, 0.0, 2.5004678, 2.4992397 
2.6880062e+2, 7.1215665e+1, 99560.17, -226826.8, -998.3314, 0.0039976067, 0.006027722, 99563.23, 99563.23, 0.0, 2.5004668, 2.4993858 
2.6880065e+2, 7.371505e+1, 102398.43, -220975.1, 236.40895, 0.004487931, 0.005323574, 102398.6, 102398.6, 0.0, 2.5004668, 2.4993958 
2.6880065e+2, 7.621444e+1, 102302.664, -221066.67, 572.8092, 0.0049570566, 0.0046035354, 102303.68, 102303.68, 0.0, 2.5004668, 2.4993956 
2.6880068e+2, 7.871383e+1, 102108.95, -221205.44, 913.4564, 0.0054148496, 0.0038859462, 102111.54, 102111.54, 0.0, 2.5004666, 2.4993956 
2.6880068e+2, 8.121329e+1, 140098.34, -141047.05, -765.1102, 0.005791342, 0.004158157, 140100.44, 140100.44, 0.0, 2.5004652, 2.499534 
2.6880068e+2, 8.371283e+1, 142531.14, -134972.31, 979.3906, 0.005668344, 0.003692662, 142534.6, 142534.6, 0.0, 2.500464, 2.4995449 
2.6880068e+2, 8.6212367e+1, 141781.1, -135346.25, 752.8304, 0.0055335704, 0.003214883, 141783.14, 141783.14, 0.0, 2.5004628, 2.4995449 
2.6880068e+2, 8.8711905e+1, 140923.2, -135772.13, 529.73157, 0.0053901146, 0.0027374534, 140924.2, 140924.2, 0.0, 2.5004613, 2.4995449 
2.688007e+2, 9.1211534e+1, 181592.8, -50131.656, 237.36435, 0.0074368287, 0.0049692686, 181593.05, 181593.05, 0.0, 2.5004601, 2.4996924 
2.688007e+2, 9.371123e+1, 185239.55, -42788.12, 2625.8691, 0.0058970307, 0.004012766, 185269.78, 185269.78, 0.0, 2.5004604, 2.4997048 
2.688007e+2, 9.6210915e+1, 185140.55, -42837.508, 2845.3933, 0.0042838063, 0.0029939427, 185176.06, 185176.06, 0.0, 2.5004601, 2.4997048 
2.688007e+2, 9.871061e+1, 184787.98, -43009.008, 3070.0935, 0.0026436117, 0.0019591805, 184829.36, 184829.36, 0.0, 2.5004594, 2.4997048 
2.7130112e+2, 1.2491651e+0, -193681.45, -843936.9, -189.53918, 0.00052390224, 0.00023352038, -193681.39, -193681.39, 0.0, 2.5004754, 2.498323 
2.713011e+2, 3.7474954e+0, -193801.61, -844420.94, -147.26637, -0.0013363234, 0.0007024153, -193801.56, -193801.56, 0.0, 2.5004756, 2.498322 
2.7130106e+2, 6.245825e+0, -193666.42, -844372.0, -69.542854, -0.0031848962, 0.0011737832, -193666.42, -193666.42, 0.0, 2.500476, 2.498322 
2.7130106e+2, 8.744156e+0, -193532.86, -844323.8, 7.698757, -0.0050218157, 0.0016476241, -193532.86, -193532.86, 0.0, 2.5004761, 2.4983218 
2.7130106e+2, 1.1242564e+1, -149225.95, -752661.1, 180.81361, -0.0046628243, 0.0021895505, -149225.9, -149225.9, 0.0, 2.5004764, 2.498479 
2.713011e+2, 1.3741049e+1, -148947.53, -752087.3, -1451.808, -0.0019316154, 0.0024059643, -148944.05, -148944.05, 0.0, 2.5004764, 2.4984798 
2.713011e+2, 1.6239534e+1, -148978.95, -752153.7, -1911.7825, 0.000807186, 0.0026266316, -148972.89, -148972.89, 0.0, 2.5004764, 2.4984796 
2.7130112e+2, 1.873802e+1, -149015.11, -752227.2, -2371.187, 0.0035533507, 0.002852024, -149005.78, -149005.78, 0.0, 2.5004764, 2.4984796 
2.7130112e+2, 2.1236576e+1, -108736.7, -668126.06, 17.778349, 0.0038187269, 0.0032911242, -108736.7, -108736.7, 0.0, 2.5004761, 2.498624 
2.7130112e+2, 2.3735204e+1, -109067.43, -667298.5, -1891.9032, 0.001948099, 0.0032299624, -109061.016, -109061.016, 0.0, 2.5004745, 2.4986262 
2.713011e+2, 2.6233834e+1, -110066.23, -667854.75, -1702.0093, 0.00008272824, 0.0031739015, -110061.04, -110061.04, 0.0, 2.5004728, 2.498626 
2.7130106e+2, 2.873246e+1, -111069.28, -668417.4, -1511.4739, -0.0017783535, 0.0031247155, -111065.18, -111065.18, 0.0, 2.500471, 2.498626 
2.7130106e+2, 3.123117e+1, -67877.37, -578786.75, 177.16261, -0.0020855195, 0.0037172823, -67877.305, -67877.305, 0.0, 2.500471, 2.4987795 
2.713011e+2, 3.372996e+1, -66430.17, -576389.3, -2596.0015, -0.0005921091, 0.0039020898, -66416.96, -66416.96, 0.0, 2.5004718, 2.4987833 
2.713011e+2, 3.6228743e+1, -66107.95, -576321.8, -2916.7424, 0.00090529374, 0.004091891, -66091.28, -66091.28, 0.0, 2.5004725, 2.498783 
2.713011e+2, 3.872753e+1, -65789.45, -576259.1, -3236.8245, 0.002405909, 0.004290514, -65768.93, -65768.93, 0.0, 2.5004733, 2.498783 
2.713011e+2, 4.122639e+1, -24637.367, -490967.13, -196.76022, 0.0031854922, 0.004911643, -24637.283, -24637.283, 0.0, 2.5004735, 2.4989293 
2.713011e+2, 4.3725324e+1, -23567.727, -487936.13, -2694.5295, 0.0034318597, 0.0046338085, -23552.092, -23552.092, 0.0, 2.5004725, 2.4989347 
2.713011e+2, 4.6224257e+1, -24134.662, -488299.4, -2924.8862, 0.0036803246, 0.0043606656, -24116.232, -24116.232, 0.0, 2.5004716, 2.4989347 
2.713011e+2, 4.872319e+1, -24703.063, -488662.97, -3154.4512, 0.003930077, 0.004098428, -24681.617, -24681.617, 0.0, 2.5004709, 2.4989345 
2.7130112e+2, 5.1222205e+1, 15779.04, -404071.6, -1186.9403, 0.003921208, 0.004839316, 15782.3955, 15782.3955, 0.0, 2.5004702, 2.49908 
2.713011e+2, 5.3721285e+1, 17444.213, -399955.4, -2615.2935, 0.003445169, 0.004771556, 17460.6, 17460.6, 0.0, 2.5004694, 2.4990873 
2.713011e+2, 5.6220376e+1, 16979.559, -400257.66, -2631.332, 0.0029687402, 0.004703293, 16996.152, 16996.152, 0.0, 2.5004687, 2.499087 
2.713011e+2, 5.871946e+1, 16513.322, -400559.63, -2647.4766, 0.002493413, 0.0046446174, 16530.129, 16530.129, 0.0, 2.500468, 2.4990869 
2.713011e+2, 6.1218625e+1, 56828.52, -316622.0, -1991.2034, 0.0025735712, 0.005649728, 56839.137, 56839.137, 0.0, 2.500468, 2.499231 
2.713011e+2, 6.3717866e+1, 59761.094, -311262.0, -2422.5005, 0.0027966718, 0.0055938703, 59776.91, 59776.91, 0.0, 2.5004687, 2.49924 
2.713011e+2, 6.62171e+1, 60181.336, -311119.56, -2607.5383, 0.0030197578, 0.0055305148, 60199.645, 60199.645, 0.0, 2.5004694, 2.4992397 
2.713011e+2, 6.871634e+1, 60597.89, -310980.84, -2793.1821, 0.0032458655, 0.0054730405, 60618.883, 60618.883, 0.0, 2.5004702, 2.4992397 
2.7130112e+2, 7.121566e+1, 101514.18, -225290.06, -2769.7214, 0.00429329, 0.006434022, 101537.65, 101537.65, 0.0, 2.5004694, 2.499387 
2.7130112e+2, 7.371505e+1, 103532.21, -219843.5, -2014.4006, 0.0048054913, 0.005714948, 103544.76, 103544.76, 0.0, 2.5004683, 2.499397 
2.7130115e+2, 7.621443e+1, 102724.78, -220267.52, -2256.6567, 0.0053132963, 0.004979194, 102740.55, 102740.55, 0.0, 2.5004668, 2.499397 
2.7130115e+2, 7.871382e+1, 101914.28, -220693.0, -2499.6316, 0.0058266637, 0.004245516, 101933.65, 101933.65, 0.0, 2.5004654, 2.499397 
2.7130115e+2, 8.121329e+1, 140287.16, -140572.25, -4216.946, 0.0062235976, 0.0045715547, 140350.45, 140350.45, 0.0, 2.5004652, 2.4995346 
2.7130115e+2, 8.371283e+1, 144606.86, -133672.88, -1961.245, 0.0061144005, 0.004197421, 144620.69, 144620.69, 0.0, 2.5004673, 2.4995456 
2.7130115e+2, 8.6212367e+1, 145903.97, -133056.83, -1834.7223, 0.0060129506, 0.0038105485, 145916.03, 145916.03, 0.0, 2.5004694, 2.4995456 
2.7130118e+2, 8.8711905e+1, 147196.83, -132442.83, -1707.7926, 0.0059220996, 0.0034238338, 147207.25, 147207.25, 0.0, 2.5004718, 2.4995453 
2.7130118e+2, 9.121154e+1, 188410.73, -46837.47, -2388.8845, 0.008082802, 0.005759175, 188434.98, 188434.98, 0.0, 2.5004718, 2.4996924 
2.7130118e+2, 9.371123e+1, 191475.61, -39900.23, -534.9425, 0.0064816736, 0.0046994067, 191476.84, 191476.84, 0.0, 2.500471, 2.4997046 
2.7130118e+2, 9.621092e+1, 191111.02, -40071.996, -1046.4491, 0.004863416, 0.003572991, 191115.75, 191115.75, 0.0, 2.5004706, 2.4997046 
2.7130118e+2, 9.871061e+1, 190734.08, -40249.7, -1556.4708, 0.0032764554, 0.0024280283, 190744.56, 190744.56, 0.0, 2.50047, 2.4997046 
2.7380157e+2, 1.2491641e+0, -193531.34, -843626.3, -159.69664, -0.0011892455, 0.00010410206, -193531.3, -193531.3, 0.0, 2.5004754, 2.4983234 
2.7380157e+2, 3.7474924e+0, -193652.7, -844115.5, -111.318855, -0.0018091846, 0.00031355166, -193652.69, -193652.69, 0.0, 2.5004756, 2.4983225 
2.7380154e+2, 6.2458205e+0, -193516.19, -844066.3, -30.948433, -0.0024253135, 0.0005246627, -193516.19, -193516.19, 0.0, 2.500476, 2.4983225 
2.7380154e+2, 8.744148e+0, -193381.28, -844018.0, 48.940083, -0.0030376317, 0.00073743507, -193381.27, -193381.27, 0.0, 2.5004761, 2.4983225 
2.7380154e+2, 1.1242556e+1, -150054.03, -754396.44, 205.65816, -0.0027815916, 0.001292914, -150053.97, -150053.97, 0.0, 2.5004766, 2.4984758 
2.7380154e+2, 1.3741042e+1, -149781.02, -753838.3, -1457.3031, -0.0014408311, 0.001812427, -149777.5, -149777.5, 0.0, 2.5004766, 2.4984767 
2.7380157e+2, 1.6239527e+1, -149811.6, -753907.44, -1914.4911, -0.000098722856, 0.0023356823, -149805.53, -149805.53, 0.0, 2.5004766, 2.4984767 
2.7380157e+2, 1.873801e+1, -149846.9, -753983.7, -2371.1565, 0.0012444383, 0.0028631366, -149837.61, -149837.61, 0.0, 2.5004766, 2.4984765 
2.7380157e+2, 2.1236569e+1, -108296.72, -667281.75, -196.35829, 0.0014236863, 0.0033444664, -108296.65, -108296.65, 0.0, 2.5004761, 2.4986255 
2.7380157e+2, 2.3735197e+1, -108640.664, -666488.4, -2144.3684, 0.0006778008, 0.003091545, -108632.414, -108632.414, 0.0, 2.5004745, 2.4986277 
2.7380154e+2, 2.6233825e+1, -109637.26, -667046.56, -1952.2583, -0.000068111185, 0.0028430675, -109630.42, -109630.42, 0.0, 2.5004728, 2.4986274 
2.7380154e+2, 2.8732452e+1, -110638.6, -667612.2, -1759.4379, -0.00081470405, 0.0026007455, -110633.04, -110633.04, 0.0, 2.500471, 2.4986272 
2.7380154e+2, 3.123116e+1, -68341.984, -579860.1, 338.00775, -0.00081105484, 0.003093113, -68341.76, -68341.76, 0.0, 2.5004714, 2.4987776 
2.7380154e+2, 3.3729944e+1, -66907.234, -577497.8, -2502.3594, 0.0002928551, 0.0033171016, -66894.98, -66894.98, 0.0, 2.500472, 2.4987814 
2.7380154e+2, 3.6228728e+1, -66581.7, -577432.6, -2820.9915, 0.0013961074, 0.0035451031, -66566.125, -66566.125, 0.0, 2.5004728, 2.4987812 
2.7380154e+2, 3.8727516e+1, -66259.695, -577371.8, -3139.064, 0.0024974851, 0.0037807776, -66240.414, -66240.414, 0.0, 2.5004733, 2.498781 
2.7380157e+2, 4.1226375e+1, -24865.658, -491628.16, -300.4492, 0.0029730753, 0.0045167413, -24865.465, -24865.465, 0.0, 2.5004735, 2.498928 
2.7380157e+2, 4.372531e+1, -23802.61, -488621.2, -2829.7485, 0.0029002042, 0.004413509, -23785.383, -23785.383, 0.0, 2.5004728, 2.4989336 
2.7380154e+2, 4.6224242e+1, -24365.441, -488985.88, -3058.0952, 0.0028242737, 0.0043130107, -24345.314, -24345.314, 0.0, 2.5004718, 2.4989333 
2.7380154e+2, 4.8723176e+1, -24930.664, -489352.78, -3285.6882, 0.0027449783, 0.004221559, -24907.42, -24907.42, 0.0, 2.500471, 2.498933 
2.7380157e+2, 5.122219e+1, 16010.6455, -403824.3, -1282.6987, 0.0028104654, 0.004965956, 16014.564, 16014.564, 0.0, 2.5004704, 2.4990802 
2.7380157e+2, 5.372127e+1, 17661.947, -399746.88, -2723.7952, 0.0029028456, 0.0047607045, 17679.72, 17679.72, 0.0, 2.50047, 2.4990876 
2.7380157e+2, 5.622036e+1, 17201.64, -400049.88, -2737.376, 0.002990081, 0.004552984, 17219.598, 17219.598, 0.0, 2.5004692, 2.4990873 
2.7380154e+2, 5.871944e+1, 16739.625, -400352.88, -2751.0208, 0.0030731917, 0.004352737, 16757.768, 16757.768, 0.0, 2.5004685, 2.499087 
2.7380157e+2, 6.121861e+1, 56816.047, -316953.94, -1929.6903, 0.0033878218, 0.0052890787, 56826.008, 56826.008, 0.0, 2.5004683, 2.4992304 
2.7380157e+2, 6.371784e+1, 59726.707, -311644.53, -2302.3606, 0.0034421345, 0.005244494, 59740.98, 59740.98, 0.0, 2.500469, 2.4992392 
2.7380157e+2, 6.6217077e+1, 60147.676, -311505.22, -2484.9355, 0.0034904403, 0.0051920633, 60164.29, 60164.29, 0.0, 2.50047, 2.499239 
2.7380157e+2, 6.871632e+1, 60565.19, -311369.13, -2668.1772, 0.003536197, 0.0051451554, 60584.332, 60584.332, 0.0, 2.5004706, 2.4992387 
2.7380157e+2, 7.1215636e+1, 101453.69, -225773.67, -3065.2046, 0.0044224495, 0.006244147, 101482.4, 101482.4, 0.0, 2.50047, 2.499386 
2.7380157e+2, 7.3715025e+1, 103437.195, -220401.23, -2210.9072, 0.00478473, 0.0057555307, 103452.29, 103452.29, 0.0, 2.5004685, 2.4993958 
2.738016e+2, 7.6214415e+1, 102630.13, -220826.42, -2450.545, 0.0051355273, 0.0052494807, 102648.695, 102648.695, 0.0, 2.5004673, 2.4993958 
2.738016e+2, 7.8713804e+1, 101819.99, -221253.1, -2690.9016, 0.0054848543, 0.0047450447, 101842.41, 101842.41, 0.0, 2.5004659, 2.4993958 
2.738016e+2, 8.121327e+1, 140969.42, -139548.17, -4042.2063, 0.005878509, 0.0051655844, 141027.66, 141027.66, 0.0, 2.5004654, 2.4995363 
2.738016e+2, 8.3712804e+1, 145225.47, -132776.25, -1616.4413, 0.005984888, 0.0047063935, 145234.88, 145234.88, 0.0, 2.5004678, 2.4995468 
2.7380162e+2, 8.621235e+1, 146518.23, -132164.02, -1486.2888, 0.0060905283, 0.0042343778, 146526.16, 146526.16, 0.0, 2.50047, 2.4995468 
2.7380162e+2, 8.8711894e+1, 147806.75, -131553.84, -1355.7294, 0.006197822, 0.0037627702, 147813.34, 147813.34, 0.0, 2.500472, 2.4995468 
2.7380165e+2, 9.121153e+1, 188032.67, -48080.68, -2654.9155, 0.008553589, 0.0061752973, 188062.52, 188062.52, 0.0, 2.5004723, 2.49969 
2.7380165e+2, 9.371121e+1, 190976.7, -41396.59, -609.89777, 0.006882314, 0.005263342, 190978.3, 190978.3, 0.0, 2.5004716, 2.4997017 
2.7380165e+2, 9.6210897e+1, 190621.86, -41562.03, -1117.372, 0.0051760124, 0.004282825, 190627.23, 190627.23, 0.0, 2.500471, 2.4997017 
2.7380165e+2, 9.8710597e+1, 190259.06, -41731.3, -1623.7721, 0.0034849918, 0.0032826718, 190270.44, 190270.44, 0.0, 2.5004704, 2.499702 
2.7630204e+2, 1.249163e+0, -193381.86, -843317.06, -129.46645, -0.0029023036, -0.000026278956, -193381.83, -193381.83, 0.0, 2.5004754, 2.498324 
2.7630204e+2, 3.7474892e+0, -193505.53, -843813.6, -74.92983, -0.002281777, -0.000078200086, -193505.52, -193505.52, 0.0, 2.5004756, 2.498323 
2.7630204e+2, 6.245815e+0, -193367.67, -843764.25, 8.087482, -0.0016652833, -0.00012927133, -193367.67, -193367.67, 0.0, 2.500476, 2.498323 
2.7630204e+2, 8.7441415e+0, -193231.42, -843715.7, 90.622894, -0.0010528218, -0.00017949284, -193231.42, -193231.42, 0.0, 2.5004761, 2.498323 
2.7630207e+2, 1.1242548e+1, -150890.84, -756149.9, 231.08986, -0.00089920394, 0.00039531584, -150890.75, -150890.75, 0.0, 2.5004766, 2.498473 
2.7630204e+2, 1.3741033e+1, -150616.23, -755593.0, -1461.9999, -0.0009473241, 0.0012140363, -150612.7, -150612.7, 0.0, 2.5004766, 2.498474 
2.7630204e+2, 1.6239518e+1, -150645.98, -755664.9, -1916.4012, -0.0010003429, 0.002035968, -150639.92, -150639.92, 0.0, 2.5004766, 2.4984736 
2.7630204e+2, 1.8738003e+1, -150680.45, -755743.9, -2370.3274, -0.0010586192, 0.0028615727, -150671.17, -150671.17, 0.0, 2.5004766, 2.4984736 
2.7630204e+2, 2.1236561e+1, -107870.21, -666465.5, -402.05002, -0.00097643037, 0.0033922507, -107869.92, -107869.92, 0.0, 2.5004761, 2.4986267 
2.7630204e+2, 2.3735188e+1, -108215.375, -665681.4, -2395.6646, -0.00059704465, 0.002944235, -108205.08, -108205.08, 0.0, 2.5004745, 2.4986289 
2.7630204e+2, 2.6233813e+1, -109209.76, -666241.44, -2201.3381, -0.00022291417, 0.0024999587, -109201.06, -109201.06, 0.0, 2.500473, 2.4986289 
2.7630204e+2, 2.873244e+1, -110209.414, -666810.06, -2006.2313, 0.00014556549, 0.0020611186, -110202.18, -110202.18, 0.0, 2.5004714, 2.4986286 
2.7630204e+2, 3.1231147e+1, -68816.445, -580953.9, 501.22916, 0.00046669814, 0.002463367, -68815.95, -68815.95, 0.0, 2.5004714, 2.4987757 
2.7630204e+2, 3.3729932e+1, -67385.49, -578608.75, -2407.4258, 0.0011817296, 0.0027238512, -67374.16, -67374.16, 0.0, 2.500472, 2.4987795 
2.7630204e+2, 3.6228713e+1, -67056.64, -578545.9, -2723.9492, 0.001891404, 0.0029872784, -67042.14, -67042.14, 0.0, 2.5004728, 2.4987793 
2.7630204e+2, 3.8727498e+1, -66731.164, -578487.0, -3040.0225, 0.0025941175, 0.0032572295, -66713.11, -66713.11, 0.0, 2.5004735, 2.498779 
2.7630204e+2, 4.1226357e+1, -25101.945, -492305.8, -394.67532, 0.0027546445, 0.0041125673, -25101.611, -25101.611, 0.0, 2.5004737, 2.4989266 
2.7630204e+2, 4.372529e+1, -24038.54, -489308.44, -2963.7395, 0.0023626545, 0.004181024, -24019.66, -24019.66, 0.0, 2.500473, 2.4989324 
2.7630204e+2, 4.6224228e+1, -24597.268, -489674.56, -3190.0762, 0.0019625498, 0.0042502023, -24575.387, -24575.387, 0.0, 2.500472, 2.4989321 
2.76302e+2, 4.872316e+1, -25158.967, -490044.03, -3415.558, 0.0015544281, 0.0043265675, -25133.873, -25133.873, 0.0, 2.5004714, 2.498932 
2.7630204e+2, 5.122217e+1, 16226.387, -403609.97, -1377.8357, 0.001701543, 0.005088206, 16230.908, 16230.908, 0.0, 2.5004706, 2.4990804 
2.7630204e+2, 5.3721255e+1, 17878.672, -399540.44, -2831.0269, 0.0023625193, 0.0047421, 17897.871, 17897.871, 0.0, 2.5004702, 2.4990878 
2.7630204e+2, 5.622034e+1, 17422.713, -399844.2, -2842.15, 0.0030135012, 0.004391385, 17442.07, 17442.07, 0.0, 2.5004694, 2.4990876 
2.7630204e+2, 5.8719426e+1, 16964.893, -400148.28, -2853.2869, 0.0036551324, 0.0040460294, 16984.41, 16984.41, 0.0, 2.5004687, 2.4990873 
2.7630204e+2, 6.1218584e+1, 56792.15, -317309.6, -1861.1763, 0.004195544, 0.0049238857, 56801.406, 56801.406, 0.0, 2.5004685, 2.4992297 
2.7630204e+2, 6.3717824e+1, 59691.42, -312028.94, -2181.461, 0.004082239, 0.0048875515, 59704.223, 59704.223, 0.0, 2.5004694, 2.4992383 
2.7630204e+2, 6.6217065e+1, 60113.117, -311892.75, -2361.5732, 0.003957043, 0.0048428723, 60128.11, 60128.11, 0.0, 2.5004702, 2.499238 
2.7630204e+2, 6.87163e+1, 60531.547, -311759.38, -2542.3687, 0.003823727, 0.0048033562, 60548.906, 60548.906, 0.0, 2.5004709, 2.499238 
2.7630204e+2, 7.121561e+1, 101378.945, -226286.9, -3354.1206, 0.004547098, 0.006051955, 101413.28, 101413.28, 0.0, 2.5004704, 2.499385 
2.7630207e+2, 7.3715e+1, 103341.5, -220960.39, -2406.9119, 0.0047604283, 0.0057914797, 103359.36, 103359.36, 0.0, 2.500469, 2.499395 
2.7630207e+2, 7.621439e+1, 102534.8, -221386.77, -2643.9316, 0.0049552065, 0.005512637, 102556.375, 102556.375, 0.0, 2.5004675, 2.4993947 
2.7630207e+2, 7.871379e+1, 101725.02, -221814.61, -2881.67, 0.0051414818, 0.0052349465, 101750.69, 101750.69, 0.0, 2.5004663, 2.4993947 
2.7630207e+2, 8.121325e+1, 141634.66, -138559.5, -3861.581, 0.0055274065, 0.0057589584, 141687.88, 141687.88, 0.0, 2.5004659, 2.4995377 
2.763021e+2, 8.371279e+1, 145843.31, -131881.2, -1271.8026, 0.0058531514, 0.00521127, 145849.14, 145849.14, 0.0, 2.500468, 2.4995482 
2.763021e+2, 8.621233e+1, 147131.73, -131272.81, -1138.0203, 0.006169742, 0.0046505113, 147136.39, 147136.39, 0.0, 2.5004704, 2.4995482 
2.7630213e+2, 8.8711876e+1, 148415.92, -130666.445, -1003.8311, 0.006479039, 0.0040904125, 148419.53, 148419.53, 0.0, 2.5004725, 2.4995482 
2.7630213e+2, 9.121151e+1, 187622.92, -49389.73, -2904.9126, 0.009003991, 0.00660949, 187658.52, 187658.52, 0.0, 2.5004728, 2.4996877 
2.7630213e+2, 9.37112e+1, 190471.05, -42897.8, -684.4319, 0.0072661606, 0.0058398102, 190473.06, 190473.06, 0.0, 2.500472, 2.499699 
2.7630213e+2, 9.6210885e+1, 190112.06, -43063.613, -1184.9539, 0.0054757926, 0.004999164, 190118.1, 190118.1, 0.0, 2.5004716, 2.499699 
2.7630213e+2, 9.871057e+1, 189745.14, -43233.246, -1684.4017, 0.003684688, 0.004137792, 189757.31, 189757.31, 0.0, 2.5004709, 2.499699 
2.7880248e+2, 1.2491621e+0, -196629.03, -844654.3, -153.7578, -0.0046033897, -0.00015757394, -196629.0, -196629.0, 0.0, 2.5004694, 2.4983244 
2.7880248e+2, 3.7474862e+0, -196674.58, -845121.0, -200.34111, -0.0027433285, -0.00047267863, -196674.52, -196674.52, 0.0, 2.50047, 2.4983234 
2.788025e+2, 6.24581e+0, -196527.28, -845067.3, -217.86423, -0.0008944765, -0.0007877249, -196527.2, -196527.2, 0.0, 2.5004702, 2.4983234 
2.7880254e+2, 8.744134e+0, -196455.03, -845049.8, -231.67726, 0.0009431666, -0.0011027129, -196454.95, -196454.95, 0.0, 2.5004704, 2.4983234 
2.7880254e+2, 1.12425394e+1, -155001.92, -759500.8, -186.79459, 0.0009946931, -0.00050285016, -155001.88, -155001.88, 0.0, 2.5004709, 2.4984698 
2.788025e+2, 1.3741025e+1, -154441.23, -758796.25, -1970.7721, -0.0004414043, 0.00061101664, -154434.81, -154434.81, 0.0, 2.5004714, 2.4984708 
2.7880248e+2, 1.6239509e+1, -154269.31, -758773.5, -2476.2158, -0.0018879704, 0.0017276686, -154259.17, -154259.17, 0.0, 2.5004718, 2.4984705 
2.7880248e+2, 1.8737996e+1, -154178.77, -758794.8, -2974.09, -0.003345426, 0.0028475919, -154164.14, -154164.14, 0.0, 2.500472, 2.4984705 
2.7880248e+2, 2.1236551e+1, -109930.57, -666871.5, -1244.519, -0.0033714627, 0.0034348578, -109927.79, -109927.79, 0.0, 2.500472, 2.4986281 
2.7880248e+2, 2.3735178e+1, -109990.305, -665938.44, -3322.9497, -0.00186757, 0.0027885642, -109970.445, -109970.445, 0.0, 2.5004709, 2.4986303 
2.7880248e+2, 2.6233804e+1, -110767.57, -666395.94, -3146.8953, -0.00037363268, 0.0021453425, -110749.75, -110749.75, 0.0, 2.5004697, 2.49863 
2.7880248e+2, 2.873243e+1, -111610.39, -666892.0, -2958.531, 0.0011101578, 0.0015069224, -111594.625, -111594.625, 0.0, 2.5004683, 2.4986298 
2.788025e+2, 3.1231135e+1, -70902.21, -582835.56, -17.154945, 0.0017548873, 0.0018294101, -70902.21, -70902.21, 0.0, 2.5004687, 2.4987738 
2.788025e+2, 3.372992e+1, -69176.97, -580349.1, -2942.08, 0.0020808682, 0.0021239552, -69160.03, -69160.03, 0.0, 2.50047, 2.4987776 
2.788025e+2, 3.6228698e+1, -68639.266, -580188.5, -3191.6008, 0.0023973198, 0.0024203863, -68619.35, -68619.35, 0.0, 2.500471, 2.4987774 
2.7880248e+2, 3.8727483e+1, -68188.73, -580072.1, -3428.9788, 0.0027023002, 0.0027222917, -68165.76, -68165.76, 0.0, 2.5004718, 2.4987772 
2.788025e+2, 4.1226342e+1, -26140.645, -493372.8, -861.8657, 0.0025364805, 0.0037018366, -26139.055, -26139.055, 0.0, 2.5004725, 2.4989254 
2.7880248e+2, 4.3725276e+1, -24800.113, -490239.63, -3344.1663, 0.0018246796, 0.0039392374, -24776.088, -24776.088, 0.0, 2.5004723, 2.498931 
2.7880248e+2, 4.6224213e+1, -25169.068, -490516.7, -3422.919, 0.0011003388, 0.0041754036, -25143.893, -25143.893, 0.0, 2.5004718, 2.498931 
2.7880245e+2, 4.8723143e+1, -25625.672, -490838.75, -3489.8306, 0.00036385746, 0.004417011, -25599.494, -25599.494, 0.0, 2.500471, 2.4989307 
2.7880248e+2, 5.122216e+1, 16314.266, -403467.75, -1250.5924, 0.00059962523, 0.005209995, 16317.991, 16317.991, 0.0, 2.5004709, 2.4990807 
2.7880248e+2, 5.372124e+1, 18132.484, -399302.56, -2539.3264, 0.001828615, 0.004720039, 18147.932, 18147.932, 0.0, 2.5004704, 2.499088 
2.7880248e+2, 5.622032e+1, 17733.08, -399581.06, -2361.6455, 0.003043278, 0.0042232974, 17746.443, 17746.443, 0.0, 2.5004697, 2.4990878 
2.788025e+2, 5.871941e+1, 17233.365, -399907.63, -2173.5935, 0.0042439755, 0.0037299378, 17244.691, 17244.691, 0.0, 2.500469, 2.4990876 
2.788025e+2, 6.1218566e+1, 56769.844, -317665.22, -788.9553, 0.005001384, 0.0045600417, 56771.504, 56771.504, 0.0, 2.500469, 2.4992287 
2.788025e+2, 6.3717806e+1, 59659.83, -312394.84, -829.6135, 0.004720936, 0.0045291344, 59661.676, 59661.676, 0.0, 2.5004697, 2.4992375 
2.788025e+2, 6.621704e+1, 59972.043, -312314.2, -764.811, 0.004423413, 0.004489265, 59973.617, 59973.617, 0.0, 2.5004704, 2.4992373 
2.788025e+2, 6.8716276e+1, 60179.29, -312285.13, -691.6867, 0.00411279, 0.004454236, 60180.574, 60180.574, 0.0, 2.5004706, 2.499237 
2.788025e+2, 7.12156e+1, 100766.99, -227064.38, -1670.86, 0.004671819, 0.0058642114, 100775.51, 100775.51, 0.0, 2.5004697, 2.499384 
2.788025e+2, 7.371499e+1, 102526.13, -221849.61, -408.62708, 0.00473724, 0.005829657, 102526.65, 102526.65, 0.0, 2.500468, 2.4993937 
2.788025e+2, 7.621438e+1, 101404.71, -222428.47, -407.39435, 0.0047777924, 0.0057756244, 101405.23, 101405.23, 0.0, 2.500466, 2.4993937 
2.788025e+2, 7.871377e+1, 100161.06, -223066.19, -399.41434, 0.0048035444, 0.005722286, 100161.555, 100161.555, 0.0, 2.5004642, 2.4993935 
2.788025e+2, 8.1213236e+1, 140350.33, -138523.58, -793.5923, 0.0051777763, 0.0063587734, 140352.6, 140352.6, 0.0, 2.500463, 2.4995391 
2.7880254e+2, 8.3712775e+1, 144051.81, -132134.42, 2122.0623, 0.0057260464, 0.005719158, 144068.13, 144068.13, 0.0, 2.5004644, 2.4995496 
2.7880254e+2, 8.621232e+1, 144747.95, -131812.95, 2429.339, 0.0062576314, 0.0050661066, 144769.28, 144769.28, 0.0, 2.5004656, 2.4995494 
2.7880257e+2, 8.871186e+1, 145327.84, -131547.45, 2738.976, 0.006773792, 0.0044140033, 145354.94, 145354.94, 0.0, 2.5004666, 2.4995494 
2.788026e+2, 9.1211504e+1, 182740.03, -52894.32, 424.43353, 0.009443171, 0.0070687076, 182740.8, 182740.8, 0.0, 2.5004656, 2.499685 
2.788026e+2, 9.371118e+1, 184679.38, -46937.51, 2968.2163, 0.007643847, 0.006435307, 184717.4, 184717.4, 0.0, 2.5004635, 2.4996963 
2.788026e+2, 9.621087e+1, 183270.38, -47607.727, 2631.1292, 0.0057759727, 0.0057283216, 183300.34, 183300.34, 0.0, 2.500461, 2.4996963 
2.788026e+2, 9.8710555e+1, 181650.64, -48379.426, 2287.9866, 0.0038924497, 0.0049997987, 181673.39, 181673.39, 0.0, 2.5004582, 2.4996963 
2.8130296e+2, 1.2491615e+0, -190480.56, -842297.7, -361.38272, -0.0045361626, -0.00014635622, -190480.38, -190480.38, 0.0, 2.5004807, 2.4983232 
2.81303e+2, 3.7474844e+0, -191625.94, -843292.06, -664.598, -0.0024239633, -0.00043819164, -191625.27, -191625.27, 0.0, 2.5004792, 2.498322 
2.8130302e+2, 6.2458074e+0, -192501.77, -843723.2, -944.8002, -0.00029506948, -0.00072885683, -192500.39, -192500.39, 0.0, 2.5004778, 2.498322 
2.8130302e+2, 8.74413e+0, -193379.63, -844155.25, -1224.9968, 0.001850519, -0.0010183519, -193377.31, -193377.31, 0.0, 2.5004761, 2.498322 
2.8130302e+2, 1.12425335e+1, -152224.44, -758576.94, -658.4809, 0.001869876, -0.00048797365, -152223.72, -152223.72, 0.0, 2.5004761, 2.4984689 
2.8130302e+2, 1.3741016e+1, -151434.77, -757739.2, -1672.7388, 0.000031233973, 0.00045928732, -151430.16, -151430.16, 0.0, 2.500477, 2.4984698 
2.81303e+2, 1.62395e+1, -150957.45, -757547.3, -1391.435, -0.0017900507, 0.0014148386, -150954.27, -150954.27, 0.0, 2.5004778, 2.4984698 
2.8130296e+2, 1.8737982e+1, -150484.44, -757361.8, -1110.1208, -0.003594361, 0.0023791739, -150482.4, -150482.4, 0.0, 2.5004787, 2.4984696 
2.8130296e+2, 2.1236537e+1, -106314.6, -665618.2, 484.632, -0.0036288202, 0.0029283424, -106314.18, -106314.18, 0.0, 2.5004787, 2.498627 
2.81303e+2, 2.3735164e+1, -106545.5, -664749.56, -2297.0708, -0.0017669888, 0.0023810246, -106536.05, -106536.05, 0.0, 2.5004773, 2.4986293 
2.81303e+2, 2.623379e+1, -107426.234, -665226.06, -2789.2432, 0.00010386384, 0.0018406115, -107412.29, -107412.29, 0.0, 2.500476, 2.498629 
2.81303e+2, 2.8732416e+1, -108313.27, -665712.2, -3280.5881, 0.0019834687, 0.001308785, -108293.96, -108293.96, 0.0, 2.5004745, 2.498629 
2.8130302e+2, 3.123112e+1, -67929.88, -581682.0, -176.74802, 0.002634569, 0.001679722, -67929.83, -67929.83, 0.0, 2.5004742, 2.498773 
2.81303e+2, 3.3729905e+1, -66688.05, -579404.44, -2945.4902, 0.0025319636, 0.0019555998, -66671.125, -66671.125, 0.0, 2.5004745, 2.498777 
2.81303e+2, 3.6228684e+1, -66543.11, -579398.9, -2997.2356, 0.0024421667, 0.0022376704, -66525.59, -66525.59, 0.0, 2.500475, 2.498777 
2.81303e+2, 3.8727465e+1, -66402.05, -579397.7, -3048.5752, 0.002363391, 0.0025295473, -66383.93, -66383.93, 0.0, 2.5004752, 2.4987767 
2.81303e+2, 4.1226327e+1, -24682.21, -492547.56, -509.83807, 0.0020972316, 0.0034974155, -24681.654, -24681.654, 0.0, 2.500475, 2.4989257 
2.81303e+2, 4.372526e+1, -23799.186, -489618.16, -2988.5835, 0.0016201965, 0.003714182, -23780.014, -23780.014, 0.0, 2.5004737, 2.4989314 
2.8130296e+2, 4.6224195e+1, -24530.59, -490036.66, -3036.7214, 0.0011514554, 0.0039349673, -24510.781, -24510.781, 0.0, 2.5004725, 2.4989312 
2.8130296e+2, 4.8723128e+1, -25266.22, -490460.0, -3083.8748, 0.0006911762, 0.004166484, -25245.777, -25245.777, 0.0, 2.5004714, 2.498931 
2.8130296e+2, 5.122214e+1, 16515.885, -403379.13, -971.9753, 0.0009900611, 0.0050179507, 16518.135, 16518.135, 0.0, 2.500471, 2.4990807 
2.8130296e+2, 5.3721225e+1, 18845.475, -398963.84, -2906.5754, 0.002041968, 0.0046366523, 18865.695, 18865.695, 0.0, 2.5004716, 2.499088 
2.81303e+2, 5.622031e+1, 19071.895, -398911.34, -3385.9846, 0.0031025975, 0.004254574, 19099.322, 19099.322, 0.0, 2.500472, 2.4990878 
2.81303e+2, 5.871939e+1, 19294.809, -398860.72, -3864.959, 0.004172449, 0.0038819949, 19330.53, 19330.53, 0.0, 2.5004725, 2.4990878 
2.81303e+2, 6.1218554e+1, 58890.28, -315910.16, -2871.653, 0.0049019046, 0.0047490816, 58912.28, 58912.28, 0.0, 2.5004718, 2.4992304 
2.81303e+2, 6.3717794e+1, 60417.688, -311300.16, -2856.8875, 0.0047349553, 0.0046384446, 60439.64, 60439.64, 0.0, 2.5004702, 2.4992392 
2.81303e+2, 6.6217035e+1, 59487.125, -311793.28, -2788.6052, 0.0045735105, 0.0045202533, 59508.07, 59508.07, 0.0, 2.5004687, 2.499239 
2.81303e+2, 6.871627e+1, 58552.938, -312288.88, -2721.22, 0.004421309, 0.0044084797, 58572.902, 58572.902, 0.0, 2.500467, 2.499239 
2.81303e+2, 7.1215594e+1, 99027.54, -227693.38, -3798.5388, 0.0050107925, 0.0058322204, 99071.695, 99071.695, 0.0, 2.5004666, 2.4993844 
2.81303e+2, 7.3714983e+1, 102666.734, -221622.14, -2692.4495, 0.004980573, 0.005854757, 102689.086, 102689.086, 0.0, 2.5004683, 2.499394 
2.81303e+2, 7.6214373e+1, 103585.766, -221202.3, -2951.473, 0.00495455, 0.0058571193, 103612.586, 103612.586, 0.0, 2.5004697, 2.499394 
2.8130302e+2, 7.871377e+1, 104501.086, -220784.27, -3210.8464, 0.004942758, 0.005859817, 104532.77, 104532.77, 0.0, 2.5004714, 2.499394 
2.81303e+2, 8.1213236e+1, 145115.5, -135939.31, -4199.7646, 0.0052737347, 0.0065829474, 145178.25, 145178.25, 0.0, 2.5004709, 2.4995399 
2.8130302e+2, 8.3712775e+1, 147175.52, -130426.32, -1921.3376, 0.00579259, 0.0060162214, 147188.81, 147188.81, 0.0, 2.5004694, 2.4995499 
2.8130305e+2, 8.621232e+1, 146396.56, -130810.85, -2390.2974, 0.0063273604, 0.005436991, 146417.17, 146417.17, 0.0, 2.5004683, 2.4995499 
2.8130305e+2, 8.871186e+1, 145612.27, -131197.97, -2859.2932, 0.006879156, 0.00485998, 145641.8, 145641.8, 0.0, 2.5004668, 2.4995499 
2.8130308e+2, 9.1211504e+1, 183506.08, -52248.727, -5347.348, 0.009696088, 0.007654012, 183627.3, 183627.3, 0.0, 2.5004666, 2.4996855 
2.8130308e+2, 9.371119e+1, 188036.84, -45176.035, -2121.8557, 0.008218195, 0.0070075225, 188056.16, 188056.16, 0.0, 2.5004692, 2.4996965 
2.8130308e+2, 9.621088e+1, 189502.83, -44472.746, -1928.2069, 0.0067121107, 0.006298124, 189518.72, 189518.72, 0.0, 2.5004716, 2.4996965 
2.8130308e+2, 9.8710555e+1, 190964.61, -43771.48, -1732.6017, 0.005230209, 0.0055796327, 190977.39, 190977.39, 0.0, 2.5004742, 2.4996965 
2.8380343e+2, 1.24916196e+0, -190994.52, -843365.8, -594.4095, -0.0037588147, -0.0000037527636, -190993.98, -190993.98, 0.0, 2.5004807, 2.4983213 
2.8380346e+2, 3.7474862e+0, -192144.64, -844370.9, -893.4608, -0.0022246423, -0.000010264511, -192143.4, -192143.4, 0.0, 2.5004792, 2.4983203 
2.8380346e+2, 6.24581e+0, -193022.42, -844806.94, -1170.4531, -0.00068326504, -0.000015450345, -193020.33, -193020.33, 0.0, 2.5004778, 2.4983203 
2.838035e+2, 8.744134e+0, -193902.25, -845243.94, -1447.44, 0.0008653176, -0.000019310432, -193899.03, -193899.03, 0.0, 2.5004761, 2.49832 
2.838035e+2, 1.12425365e+1, -151672.34, -757450.4, -516.08545, 0.00091858517, 0.0003541556, -151671.9, -151671.9, 0.0, 2.5004761, 2.4984708 
2.8380346e+2, 1.3741015e+1, -150884.0, -756619.56, -1547.9913, -0.00031763577, 0.00070744933, -150880.05, -150880.05, 0.0, 2.500477, 2.4984717 
2.8380346e+2, 1.6239493e+1, -150403.88, -756425.94, -1263.4496, -0.0015438355, 0.0010673433, -150401.23, -150401.23, 0.0, 2.5004778, 2.4984717 
2.8380343e+2, 1.8737972e+1, -149927.66, -756238.0, -979.098, -0.0027603065, 0.0014343228, -149926.08, -149926.08, 0.0, 2.5004787, 2.4984715 
2.8380343e+2, 2.1236527e+1, -107143.61, -667388.2, 289.29172, -0.002669639, 0.0018481824, -107143.46, -107143.46, 0.0, 2.5004787, 2.498624 
2.8380343e+2, 2.3735154e+1, -107396.21, -666571.6, -2522.0742, -0.0010679109, 0.0016733492, -107384.836, -107384.836, 0.0, 2.5004773, 2.498626 
2.8380346e+2, 2.623378e+1, -108275.56, -667052.2, -3011.1006, 0.00053520524, 0.0015043824, -108259.336, -108259.336, 0.0, 2.500476, 2.498626 
2.8380346e+2, 2.8732407e+1, -109160.55, -667541.0, -3499.643, 0.0021392193, 0.0013428685, -109138.61, -109138.61, 0.0, 2.5004745, 2.4986258 
2.8380346e+2, 3.123111e+1, -67887.7, -581703.56, -94.70413, 0.002503349, 0.0018573797, -67887.69, -67887.69, 0.0, 2.5004745, 2.498773 
2.8380346e+2, 3.3729893e+1, -66655.4, -579453.8, -2904.659, 0.0020029692, 0.00204536, -66638.945, -66638.945, 0.0, 2.5004747, 2.498777 
2.8380343e+2, 3.6228672e+1, -66507.48, -579449.8, -2953.4006, 0.0015072027, 0.0022385605, -66490.47, -66490.47, 0.0, 2.500475, 2.4987767 
2.8380343e+2, 3.872745e+1, -66363.625, -579450.56, -3001.7212, 0.0010146329, 0.002440603, -66346.06, -66346.06, 0.0, 2.5004754, 2.4987764 
2.8380343e+2, 4.122631e+1, -24567.498, -492471.56, -675.5758, 0.0009086489, 0.0032506818, -24566.523, -24566.523, 0.0, 2.5004752, 2.4989257 
2.8380343e+2, 4.3725243e+1, -23699.39, -489581.78, -3173.539, 0.0012690291, 0.0032578248, -23677.773, -23677.773, 0.0, 2.500474, 2.4989314 
2.8380343e+2, 4.6224174e+1, -24426.77, -490000.3, -3218.4531, 0.001629887, 0.003268107, -24404.521, -24404.521, 0.0, 2.5004728, 2.4989312 
2.8380343e+2, 4.8723108e+1, -25158.096, -490423.1, -3262.6895, 0.0019909532, 0.0032881713, -25135.217, -25135.217, 0.0, 2.5004716, 2.498931 
2.8380343e+2, 5.1222116e+1, 15926.195, -404835.84, -918.48724, 0.0023239038, 0.0041949167, 15928.2, 15928.2, 0.0, 2.5004714, 2.499078 
2.8380343e+2, 5.37212e+1, 18213.707, -400516.47, -2841.8743, 0.002556709, 0.0041415864, 18232.994, 18232.994, 0.0, 2.5004718, 2.4990852 
2.8380343e+2, 5.622029e+1, 18442.75, -400466.6, -3317.4824, 0.0027885747, 0.0040865187, 18469.021, 18469.021, 0.0, 2.5004723, 2.499085 
2.8380343e+2, 5.871937e+1, 18667.844, -400419.53, -3793.0132, 0.0030202535, 0.004040004, 18702.17, 18702.17, 0.0, 2.5004728, 2.499085 
2.8380343e+2, 6.1218536e+1, 59354.5, -315237.8, -3154.7654, 0.0035146354, 0.00499233, 59381.066, 59381.066, 0.0, 2.500472, 2.4992316 
2.8380343e+2, 6.371777e+1, 60859.004, -310680.7, -3093.206, 0.0037948757, 0.0047109406, 60884.754, 60884.754, 0.0, 2.5004706, 2.49924 
2.8380343e+2, 6.621701e+1, 59931.574, -311172.22, -3021.4573, 0.004072546, 0.0044210176, 59956.17, 59956.17, 0.0, 2.500469, 2.49924 
2.8380346e+2, 6.8716246e+1, 59000.797, -311665.6, -2950.6726, 0.004350988, 0.004136612, 59024.285, 59024.285, 0.0, 2.5004675, 2.49924 
2.8380346e+2, 7.121556e+1, 98986.95, -228131.84, -3662.5957, 0.0051334575, 0.005423904, 99027.96, 99027.96, 0.0, 2.5004668, 2.4993834 
2.8380346e+2, 7.371496e+1, 102557.266, -222205.92, -2447.8806, 0.0050679967, 0.005337312, 102575.72, 102575.72, 0.0, 2.5004685, 2.4993927 
2.8380346e+2, 7.621435e+1, 103474.68, -221791.1, -2703.564, 0.004998014, 0.005230237, 103497.15, 103497.15, 0.0, 2.5004702, 2.4993927 
2.8380346e+2, 7.871374e+1, 104388.375, -221378.08, -2959.5972, 0.0049333693, 0.005123286, 104415.26, 104415.26, 0.0, 2.5004718, 2.4993927 
2.8380346e+2, 8.1213206e+1, 144720.63, -137163.27, -4514.3843, 0.0051530073, 0.005910881, 144792.9, 144792.9, 0.0, 2.5004714, 2.4995375 
2.8380346e+2, 8.3712745e+1, 146703.3, -131810.36, -2116.369, 0.0054697716, 0.0055813272, 146719.38, 146719.38, 0.0, 2.50047, 2.4995475 
2.838035e+2, 8.621229e+1, 145925.17, -132192.03, -2581.7375, 0.005792042, 0.005237045, 145949.14, 145949.14, 0.0, 2.5004687, 2.4995475 
2.838035e+2, 8.871183e+1, 145141.69, -132576.27, -3047.1423, 0.006121101, 0.004892802, 145175.13, 145175.13, 0.0, 2.5004673, 2.4995472 
2.8380352e+2, 9.1211474e+1, 184425.73, -50825.83, -5121.852, 0.009022793, 0.007852856, 184537.2, 184537.2, 0.0, 2.500467, 2.499688 
2.8380352e+2, 9.371116e+1, 188874.75, -43929.633, -1723.5171, 0.008147536, 0.007092684, 188887.5, 188887.5, 0.0, 2.5004697, 2.4996984 
2.8380355e+2, 9.6210843e+1, 190343.27, -43221.75, -1528.7003, 0.0072310697, 0.0062664943, 190353.27, 190353.27, 0.0, 2.5004723, 2.4996984 
2.8380355e+2, 9.871053e+1, 191803.88, -42517.676, -1332.4563, 0.006324035, 0.005429813, 191811.45, 191811.45, 0.0, 2.5004747, 2.4996984 
2.8630394e+2, 1.24916255e+0, -191509.1, -844435.3, -827.06384, -0.0029802124, 0.00013784181, -191508.05, -191508.05, 0.0, 2.5004807, 2.4983194 
2.8630397e+2, 3.7474877e+0, -192665.05, -845453.3, -1121.9363, -0.0020215581, 0.00041463596, -192663.13, -192663.13, 0.0, 2.5004792, 2.4983184 
2.8630397e+2, 6.245812e+0, -193544.81, -845894.25, -1395.7188, -0.0010651884, 0.0006929117, -193541.83, -193541.83, 0.0, 2.5004778, 2.4983184 
2.8630397e+2, 8.744138e+0, -194426.61, -846336.2, -1669.4958, -0.00011110281, 0.0009726689, -194422.34, -194422.34, 0.0, 2.5004761, 2.4983184 
2.8630397e+2, 1.1242539e+1, -151130.95, -756346.0, -368.4433, -0.000042056123, 0.0011945528, -151130.73, -151130.73, 0.0, 2.5004761, 2.4984727 
2.8630397e+2, 1.3741012e+1, -150335.03, -755503.6, -1422.6183, -0.00067578873, 0.00094958517, -150331.69, -150331.69, 0.0, 2.500477, 2.4984736 
2.8630394e+2, 1.6239487e+1, -149852.06, -755308.3, -1134.8383, -0.0013067892, 0.0007095095, -149849.94, -149849.94, 0.0, 2.500478, 2.4984736 
2.8630394e+2, 1.8737963e+1, -149372.8, -755118.1, -847.3502, -0.0019353062, 0.000474821, -149371.61, -149371.61, 0.0, 2.5004787, 2.4984734 
2.8630394e+2, 2.1236514e+1, -107985.766, -669185.5, 93.66415, -0.0016998625, 0.0007662786, -107985.75, -107985.75, 0.0, 2.5004787, 2.498621 
2.8630394e+2, 2.3735142e+1, -108248.234, -668396.44, -2745.925, -0.00035611854, 0.0009606302, -108234.77, -108234.77, 0.0, 2.5004773, 2.498623 
2.8630394e+2, 2.6233768e+1, -109126.21, -668881.06, -3231.8054, 0.0009812766, 0.001159732, -109107.55, -109107.55, 0.0, 2.500476, 2.498623 
2.8630394e+2, 2.8732398e+1, -110009.4, -669373.06, -3717.3962, 0.0023117156, 0.0013651531, -109984.695, -109984.695, 0.0, 2.5004745, 2.4986227 
2.8630397e+2, 3.12311e+1, -67856.76, -581748.5, -1.568956, 0.0023545949, 0.0020268138, -67856.76, -67856.76, 0.0, 2.5004745, 2.4987729 
2.8630394e+2, 3.372988e+1, -66623.81, -579505.4, -2862.7563, 0.0014563258, 0.0021243745, -66607.83, -66607.83, 0.0, 2.5004747, 2.4987767 
2.8630394e+2, 3.622866e+1, -66472.89, -579502.94, -2908.4944, 0.000554732, 0.0022261415, -66456.4, -66456.4, 0.0, 2.5004752, 2.4987764 
2.863039e+2, 3.8727438e+1, -66326.23, -579505.56, -2953.8284, -0.00035149007, 0.0023357868, -66309.23, -66309.23, 0.0, 2.5004754, 2.4987764 
2.863039e+2, 4.1226295e+1, -24465.625, -492422.28, -840.0511, -0.0002670939, 0.002999971, -24464.117, -24464.117, 0.0, 2.5004754, 2.4989257 
2.863039e+2, 4.3725228e+1, -23600.602, -489547.5, -3357.4392, 0.00092991814, 0.0027944641, -23576.41, -23576.41, 0.0, 2.5004742, 2.4989314 
2.863039e+2, 4.6224156e+1, -24323.955, -489966.03, -3399.1294, 0.0021193046, 0.0025910928, -24299.143, -24299.143, 0.0, 2.500473, 2.4989312 
2.8630394e+2, 4.8723087e+1, -25051.11, -490388.53, -3440.452, 0.0033006456, 0.0023965545, -25025.674, -25025.674, 0.0, 2.5004718, 2.498931 
2.8630394e+2, 5.12221e+1, 15326.974, -406312.34, -855.20245, 0.0036442801, 0.0033683581, 15328.708, 15328.708, 0.0, 2.5004716, 2.4990754 
2.8630394e+2, 5.3721184e+1, 17581.016, -402071.03, -2776.2307, 0.0030577504, 0.0036397106, 17599.38, 17599.38, 0.0, 2.500472, 2.4990823 
2.863039e+2, 5.622027e+1, 17812.684, -402023.78, -3248.0378, 0.0024608735, 0.003908237, 17837.81, 17837.81, 0.0, 2.5004725, 2.4990823 
2.863039e+2, 5.8719355e+1, 18039.908, -401980.38, -3720.1, 0.0018544021, 0.0041843704, 18072.854, 18072.854, 0.0, 2.500473, 2.499082 
2.863039e+2, 6.121852e+1, 59800.652, -314603.0, -3434.7822, 0.0021320395, 0.005232955, 59832.16, 59832.16, 0.0, 2.5004723, 2.4992323 
2.863039e+2, 6.371775e+1, 61299.41, -310063.1, -3328.9856, 0.002858621, 0.004777317, 61329.25, 61329.25, 0.0, 2.5004709, 2.4992409 
2.8630394e+2, 6.621699e+1, 60375.11, -310553.03, -3253.7698, 0.003574319, 0.004312008, 60403.65, 60403.65, 0.0, 2.5004692, 2.4992409 
2.8630394e+2, 6.871622e+1, 59447.61, -311044.47, -3179.5286, 0.0042823176, 0.003851317, 59474.895, 59474.895, 0.0, 2.5004678, 2.4992406 
2.8630394e+2, 7.121554e+1, 98932.45, -228599.22, -3517.3809, 0.00524593, 0.0050158575, 98970.23, 98970.23, 0.0, 2.5004673, 2.4993825 
2.8630394e+2, 7.371493e+1, 102446.98, -222791.42, -2202.8044, 0.005147761, 0.004817421, 102461.9, 102461.9, 0.0, 2.500469, 2.4993916 
2.8630394e+2, 7.621432e+1, 103362.766, -222381.63, -2455.1475, 0.005036499, 0.0045979763, 103381.27, 103381.27, 0.0, 2.5004706, 2.4993916 
2.8630394e+2, 7.871371e+1, 104274.836, -221973.61, -2707.8403, 0.0049216817, 0.004378445, 104297.31, 104297.31, 0.0, 2.500472, 2.4993916 
2.8630394e+2, 8.121317e+1, 144309.72, -138420.52, -4819.723, 0.0050215404, 0.0052377563, 144391.86, 144391.86, 0.0, 2.5004718, 2.499535 
2.8630394e+2, 8.3712715e+1, 146230.44, -133195.77, -2311.7747, 0.005137016, 0.0051430566, 146249.56, 146249.56, 0.0, 2.5004704, 2.4995449 
2.8630397e+2, 8.621226e+1, 145453.13, -133574.56, -2773.5527, 0.005247711, 0.0050312784, 145480.69, 145480.69, 0.0, 2.500469, 2.4995449 
2.8630397e+2, 8.87118e+1, 144670.45, -133955.92, -3235.3665, 0.0053549595, 0.004917358, 144708.03, 144708.03, 0.0, 2.5004678, 2.4995449 
2.86304e+2, 9.121144e+1, 185314.86, -49454.6, -4883.0137, 0.008335266, 0.008064442, 185416.38, 185416.38, 0.0, 2.5004678, 2.4996898 
2.8630403e+2, 9.3711126e+1, 189694.92, -42692.92, -1321.8171, 0.008064881, 0.007186397, 189702.45, 189702.45, 0.0, 2.5004702, 2.4997003 
2.8630403e+2, 9.6210814e+1, 191159.44, -41983.61, -1121.0967, 0.0077403365, 0.006238872, 191164.83, 191164.83, 0.0, 2.5004728, 2.4997003 
2.8630406e+2, 9.87105e+1, 192616.05, -41278.1, -918.949, 0.0074104727, 0.005279458, 192619.66, 192619.66, 0.0, 2.5004752, 2.4997003 
2.888044e+2, 1.249163e+0, -194738.97, -846823.9, -1116.2107, -0.0021887159, 0.00027840523, -194737.06, -194737.06, 0.0, 2.5004761, 2.4983175 
2.888044e+2, 3.747489e+0, -195696.27, -847757.7, -1517.8513, -0.0018043332, 0.0008364761, -195692.73, -195692.73, 0.0, 2.500475, 2.4983165 
2.888044e+2, 6.245815e+0, -196435.0, -848134.3, -1894.4286, -0.0014310796, 0.0013962284, -196429.48, -196429.48, 0.0, 2.5004737, 2.4983165 
2.888044e+2, 8.744141e+0, -197238.36, -848542.06, -2265.897, -0.0010689544, 0.001957662, -197230.47, -197230.47, 0.0, 2.5004723, 2.4983165 
2.888044e+2, 1.124254e+1, -152818.47, -756340.6, -694.5912, -0.0010023146, 0.002033513, -152817.67, -152817.67, 0.0, 2.5004723, 2.4984746 
2.888044e+2, 1.374101e+1, -151927.55, -755429.7, -1882.3079, -0.001033964, 0.001186396, -151921.67, -151921.67, 0.0, 2.5004735, 2.4984756 
2.888044e+2, 1.623948e+1, -151402.44, -755213.06, -1689.9526, -0.0010698929, 0.00034251655, -151397.7, -151397.7, 0.0, 2.5004745, 2.4984756 
2.888044e+2, 1.8737951e+1, -150919.94, -755019.9, -1490.0278, -0.0011103534, -0.00049760175, -150916.27, -150916.27, 0.0, 2.5004752, 2.4984753 
2.888044e+2, 2.1236502e+1, -110792.8, -671952.06, -920.51544, -0.00071114127, -0.00031545016, -110791.28, -110791.28, 0.0, 2.5004756, 2.4986176 
2.888044e+2, 2.373513e+1, -110778.38, -671032.3, -3778.2014, 0.000375756, 0.0002446437, -110752.91, -110752.91, 0.0, 2.5004747, 2.4986198 
2.888044e+2, 2.623376e+1, -111450.01, -671421.06, -4235.9795, 0.0014491526, 0.0008083906, -111417.96, -111417.96, 0.0, 2.5004735, 2.4986196 
2.888044e+2, 2.8732386e+1, -112196.38, -671850.06, -4677.379, 0.0025084284, 0.0013774195, -112157.29, -112157.29, 0.0, 2.5004723, 2.4986196 
2.888044e+2, 3.123109e+1, -69031.734, -582387.7, -590.4858, 0.0021956528, 0.0021899482, -69031.055, -69031.055, 0.0, 2.5004725, 2.4987729 
2.8880438e+2, 3.372987e+1, -67615.35, -580045.6, -3455.1848, 0.00089848595, 0.002194777, -67592.055, -67592.055, 0.0, 2.5004733, 2.4987764 
2.8880438e+2, 3.6228648e+1, -67347.46, -579988.44, -3424.0781, -0.00040922573, 0.0022028042, -67324.59, -67324.59, 0.0, 2.5004737, 2.4987764 
2.8880435e+2, 3.8727424e+1, -67142.65, -579965.0, -3376.501, -0.0017289297, 0.002217793, -67120.414, -67120.414, 0.0, 2.5004742, 2.4987762 
2.8880435e+2, 4.122628e+1, -25098.094, -492735.72, -1349.0709, -0.0014244197, 0.0027483671, -25094.203, -25094.203, 0.0, 2.5004742, 2.4989257 
2.8880438e+2, 4.3725207e+1, -24029.408, -489756.28, -3727.0989, 0.00060758844, 0.0023276692, -23999.584, -23999.584, 0.0, 2.5004735, 2.4989312 
2.8880438e+2, 4.6224135e+1, -24638.13, -490120.34, -3591.94, 0.0026242025, 0.001908001, -24610.414, -24610.414, 0.0, 2.5004725, 2.4989312 
2.8880438e+2, 4.8723066e+1, -25334.977, -490528.97, -3442.0774, 0.0046251393, 0.0014962374, -25309.51, -25309.51, 0.0, 2.5004714, 2.498931 
2.888044e+2, 5.1222074e+1, 14398.099, -407944.97, -392.27145, 0.004955878, 0.0025432063, 14398.463, 14398.463, 0.0, 2.5004714, 2.4990728 
2.8880438e+2, 5.372116e+1, 16749.543, -403703.8, -2079.6536, 0.0035489975, 0.0031361126, 16759.828, 16759.828, 0.0, 2.500472, 2.4990797 
2.8880438e+2, 5.6220245e+1, 17016.719, -403642.3, -2293.5752, 0.0021233505, 0.003724993, 17029.225, 17029.225, 0.0, 2.5004725, 2.4990795 
2.8880435e+2, 5.871933e+1, 17190.018, -403627.72, -2493.9707, 0.000679435, 0.004320555, 17204.797, 17204.797, 0.0, 2.500473, 2.4990792 
2.8880435e+2, 6.1218494e+1, 59975.152, -314109.0, -2290.6328, 0.0007588469, 0.0054766517, 59989.176, 59989.176, 0.0, 2.5004723, 2.4992332 
2.8880435e+2, 6.371773e+1, 61490.547, -309546.4, -1879.952, 0.0019305076, 0.0048435936, 61500.07, 61500.07, 0.0, 2.5004706, 2.4992418 
2.8880438e+2, 6.6216964e+1, 60481.24, -310076.44, -1530.0104, 0.0030833737, 0.004199608, 60487.555, 60487.555, 0.0, 2.500469, 2.4992418 
2.8880438e+2, 6.8716204e+1, 59375.97, -310652.72, -1172.8125, 0.00422071, 0.00355938, 59379.688, 59379.688, 0.0, 2.5004673, 2.4992416 
2.8880438e+2, 7.1215516e+1, 98176.516, -229406.7, -846.79346, 0.005353878, 0.004615121, 98178.7, 98178.7, 0.0, 2.5004666, 2.4993815 
2.8880438e+2, 7.3714906e+1, 101495.9, -223762.55, 841.1578, 0.0052251196, 0.004302271, 101498.08, 101498.08, 0.0, 2.5004678, 2.4993906 
2.888044e+2, 7.621429e+1, 102157.39, -223478.9, 883.6032, 0.0050754915, 0.003967735, 102159.79, 102159.79, 0.0, 2.500469, 2.4993904 
2.888044e+2, 7.871368e+1, 102714.98, -223245.31, 934.81805, 0.0049140663, 0.0036329655, 102717.66, 102717.66, 0.0, 2.50047, 2.4993904 
2.8880438e+2, 8.121314e+1, 142097.38, -140554.16, -1459.0105, 0.0048863553, 0.0045711766, 142104.9, 142104.9, 0.0, 2.500469, 2.4995327 
2.888044e+2, 8.3712685e+1, 143652.95, -135579.16, 1369.72, 0.0048018666, 0.0047086645, 143659.67, 143659.67, 0.0, 2.5004673, 2.4995422 
2.888044e+2, 8.621223e+1, 142443.03, -136163.81, 1130.5326, 0.004703374, 0.0048267213, 142447.63, 142447.63, 0.0, 2.5004652, 2.4995422 
2.888044e+2, 8.871177e+1, 141113.0, -136806.33, 889.7127, 0.00459214, 0.004940581, 141115.86, 141115.86, 0.0, 2.5004628, 2.4995422 
2.8880444e+2, 9.121141e+1, 182556.28, -49868.77, -124.050385, 0.007645817, 0.008295309, 182556.34, 182556.34, 0.0, 2.500462, 2.499692 
2.8880447e+2, 9.3711096e+1, 186283.05, -43487.785, 3754.1174, 0.007982631, 0.0072944527, 186344.38, 186344.38, 0.0, 2.5004635, 2.4997022 
2.888045e+2, 9.621079e+1, 186904.14, -43181.652, 4122.3525, 0.008254268, 0.006220271, 186977.98, 186977.98, 0.0, 2.5004644, 2.4997022 
2.8880453e+2, 9.871048e+1, 187285.83, -42990.816, 4486.9146, 0.008507702, 0.0051327664, 187373.22, 187373.22, 0.0, 2.5004652, 2.4997022 
2.913049e+2, 1.2491623e+0, -193350.66, -846754.6, -772.80707, -0.0009095831, 0.00026584516, -193349.73, -193349.73, 0.0, 2.500479, 2.4983163 
2.913049e+2, 3.7474868e+0, -192267.13, -846697.6, -699.1775, -0.0011557721, 0.0008003498, -192266.39, -192266.39, 0.0, 2.5004814, 2.498315 
2.913049e+2, 6.2458116e+0, -190898.53, -846046.5, -605.71234, -0.0013869288, 0.0013386079, -190897.97, -190897.97, 0.0, 2.5004838, 2.498315 
2.913049e+2, 8.744136e+0, -189531.08, -845395.94, -512.4668, -0.0016030528, 0.001880619, -189530.69, -189530.69, 0.0, 2.5004861, 2.498315 
2.913049e+2, 1.12425335e+1, -145431.63, -753533.25, 698.8722, -0.0015335128, 0.0019488384, -145430.83, -145430.83, 0.0, 2.500486, 2.498473 
2.913049e+2, 1.3741003e+1, -146910.48, -753742.5, -1287.1505, -0.0009836727, 0.0011120911, -146907.75, -146907.75, 0.0, 2.5004828, 2.498474 
2.913049e+2, 1.6239472e+1, -148714.19, -754624.94, -1883.425, -0.00042807095, 0.0002820209, -148708.33, -148708.33, 0.0, 2.5004797, 2.498474 
2.913049e+2, 1.873794e+1, -150520.05, -755510.5, -2480.1074, 0.00013303326, -0.00054085575, -150509.88, -150509.88, 0.0, 2.5004766, 2.498474 
2.913049e+2, 2.123649e+1, -110392.94, -672114.4, -1630.7131, 0.0005157194, -0.00035762074, -110388.2, -110388.2, 0.0, 2.5004766, 2.498617 
2.913049e+2, 2.3735116e+1, -108370.95, -670185.3, -3811.5122, 0.0009639176, 0.00017718342, -108345.09, -108345.09, 0.0, 2.500479, 2.498619 
2.913049e+2, 2.6233745e+1, -106964.01, -669529.75, -3584.91, 0.0014259163, 0.0007201855, -106941.164, -106941.164, 0.0, 2.5004816, 2.498619 
2.9130486e+2, 2.873237e+1, -105560.52, -668878.6, -3358.4521, 0.0019011213, 0.0012730372, -105540.5, -105540.5, 0.0, 2.500484, 2.4986188 
2.9130486e+2, 3.1231076e+1, -62601.676, -579465.1, 695.333, 0.0014804476, 0.0020604157, -62600.74, -62600.74, 0.0, 2.5004838, 2.4987724 
2.9130486e+2, 3.3729854e+1, -63327.15, -578122.4, -2484.3423, 0.000559889, 0.0020237244, -63315.16, -63315.16, 0.0, 2.5004807, 2.4987762 
2.9130483e+2, 3.622863e+1, -65131.74, -579018.56, -2749.748, -0.00035316005, 0.0019924948, -65117.027, -65117.027, 0.0, 2.5004776, 2.4987762 
2.9130483e+2, 3.872741e+1, -66939.49, -579919.2, -3014.981, -0.0012601723, 0.0019705219, -66921.77, -66921.77, 0.0, 2.5004745, 2.498776 
2.9130483e+2, 4.1226265e+1, -25562.367, -492986.7, -1156.5132, -0.00086584827, 0.0025239293, -25559.506, -25559.506, 0.0, 2.5004735, 2.4989257 
2.9130483e+2, 4.3725193e+1, -23645.93, -489588.72, -4048.7002, 0.00093204266, 0.0021773514, -23610.752, -23610.752, 0.0, 2.5004742, 2.4989312 
2.9130486e+2, 4.622412e+1, -23302.045, -489451.63, -4430.6167, 0.0027379983, 0.001832482, -23259.938, -23259.938, 0.0, 2.5004747, 2.4989312 
2.9130486e+2, 4.8723048e+1, -22962.338, -489319.0, -4812.776, 0.004551714, 0.0014962141, -22912.676, -22912.676, 0.0, 2.5004754, 2.4989312 
2.9130486e+2, 5.122206e+1, 16829.588, -406214.44, -1831.4054, 0.0047992235, 0.0025436229, 16837.516, 16837.516, 0.0, 2.500475, 2.499074 
2.9130486e+2, 5.372115e+1, 17920.736, -402593.2, -3072.81, 0.003456775, 0.0030412213, 17943.19, 17943.19, 0.0, 2.5004735, 2.499081 
2.9130483e+2, 5.6220233e+1, 17050.752, -403042.53, -2857.7148, 0.0021238932, 0.0035358595, 17070.191, 17070.191, 0.0, 2.500472, 2.499081 
2.9130483e+2, 5.871932e+1, 16177.719, -403494.3, -2643.3096, 0.0008008651, 0.0040383628, 16194.367, 16194.367, 0.0, 2.5004704, 2.4990807 
2.913048e+2, 6.121848e+1, 58670.883, -314439.47, -2675.0535, 0.0008835766, 0.0051651667, 58690.063, 58690.063, 0.0, 2.5004697, 2.499234 
2.9130483e+2, 6.371772e+1, 61208.266, -309433.6, -3128.1619, 0.0019395328, 0.004561914, 61234.664, 61234.664, 0.0, 2.50047, 2.4992425 
2.9130483e+2, 6.621696e+1, 61361.414, -309378.16, -3695.539, 0.0030013702, 0.0039491034, 61398.25, 61398.25, 0.0, 2.5004702, 2.4992423 
2.9130483e+2, 6.871619e+1, 61511.523, -309324.22, -4263.7314, 0.004072316, 0.0033414538, 61560.543, 61560.543, 0.0, 2.5004706, 2.4992423 
2.9130483e+2, 7.121551e+1, 100591.13, -227550.55, -4337.3076, 0.005207433, 0.0044549108, 100648.45, 100648.45, 0.0, 2.50047, 2.499383 
2.9130486e+2, 7.37149e+1, 102645.68, -222580.42, -2629.9453, 0.0052543236, 0.004175258, 102666.945, 102666.945, 0.0, 2.5004692, 2.499392 
2.9130486e+2, 7.621429e+1, 102195.836, -222811.27, -2651.874, 0.005305363, 0.003876505, 102217.48, 102217.48, 0.0, 2.5004685, 2.4993918 
2.9130486e+2, 7.871368e+1, 101742.19, -223043.92, -2674.0942, 0.005368868, 0.0035804578, 101764.2, 101764.2, 0.0, 2.5004675, 2.4993918 
2.9130486e+2, 8.121314e+1, 141132.19, -140655.34, -5127.6235, 0.0053902213, 0.0044907294, 141225.47, 141225.47, 0.0, 2.500467, 2.4995337 
2.9130486e+2, 8.3712685e+1, 144228.3, -135064.52, -1933.6129, 0.005105033, 0.004517234, 144241.67, 144241.67, 0.0, 2.500468, 2.4995427 
2.9130486e+2, 8.621223e+1, 144754.92, -134811.52, -1909.3108, 0.004841985, 0.004529641, 144767.95, 144767.95, 0.0, 2.5004687, 2.4995427 
2.913049e+2, 8.871177e+1, 145276.02, -134561.17, -1884.8069, 0.004602925, 0.004543295, 145288.7, 145288.7, 0.0, 2.5004697, 2.4995427 
2.913049e+2, 9.121141e+1, 187169.52, -47208.71, -3040.831, 0.0075311046, 0.00794997, 187208.95, 187208.95, 0.0, 2.5004694, 2.499693 
2.9130495e+2, 9.3711096e+1, 189338.47, -41751.844, 188.76976, 0.008272883, 0.006961122, 189338.61, 189338.61, 0.0, 2.5004683, 2.4997027 
2.9130498e+2, 9.621079e+1, 188724.27, -42051.344, -189.06616, 0.009021971, 0.005896858, 188724.42, 188724.42, 0.0, 2.5004673, 2.4997027 
2.91305e+2, 9.871048e+1, 188089.95, -42360.527, -564.85376, 0.009821232, 0.0048187096, 188091.34, 188091.34, 0.0, 2.5004663, 2.4997027 
2.938054e+2, 1.249161e+0, -193177.23, -846394.94, -420.2894, -0.00006974255, 0.000108441505, -193176.97, -193176.97, 0.0, 2.500479, 2.4983168 
2.938054e+2, 3.747483e+0, -192093.45, -846338.56, -346.32275, -0.0008896302, 0.0003275497, -192093.27, -192093.27, 0.0, 2.5004814, 2.4983158 
2.938054e+2, 6.245805e+0, -190723.4, -845685.7, -250.97874, -0.0016999948, 0.00054962566, -190723.31, -190723.31, 0.0, 2.5004838, 2.4983158 
2.9380536e+2, 8.744127e+0, -189354.53, -845033.3, -155.85439, -0.002500836, 0.00077466917, -189354.5, -189354.5, 0.0, 2.5004861, 2.4983158 
2.938054e+2, 1.1242524e+1, -146499.75, -755769.8, 231.79471, -0.0024064418, 0.0009507127, -146499.66, -146499.66, 0.0, 2.500486, 2.4984689 
2.938054e+2, 1.3740996e+1, -147992.78, -756013.25, -1756.1179, -0.0012449414, 0.0006791111, -147987.7, -147987.7, 0.0, 2.5004828, 2.49847 
2.938054e+2, 1.6239466e+1, -149795.47, -756898.3, -2350.4788, -0.000081378654, 0.00041320015, -149786.36, -149786.36, 0.0, 2.5004797, 2.49847 
2.938054e+2, 1.8737936e+1, -151599.36, -757784.44, -2945.4824, 0.0010840172, 0.00015346034, -151585.05, -151585.05, 0.0, 2.5004766, 2.49847 
2.938054e+2, 2.1236487e+1, -109910.19, -671156.06, -1252.0925, 0.0013027906, 0.0004234935, -109907.39, -109907.39, 0.0, 2.5004766, 2.4986186 
2.938054e+2, 2.3735112e+1, -107885.8, -669227.0, -3451.922, 0.00083047134, 0.0005724354, -107864.57, -107864.57, 0.0, 2.5004792, 2.4986207 
2.9380536e+2, 2.6233736e+1, -106477.35, -668573.3, -3222.8806, 0.00036666746, 0.0007290569, -106458.875, -106458.875, 0.0, 2.5004816, 2.4986205 
2.9380533e+2, 2.873236e+1, -105071.17, -667921.56, -2994.4937, -0.00008927612, 0.0008949833, -105055.234, -105055.234, 0.0, 2.500484, 2.4986205 
2.9380536e+2, 3.123106e+1, -62947.72, -580285.56, 227.74248, -0.00034773946, 0.0014802298, -62947.617, -62947.617, 0.0, 2.5004838, 2.498771 
2.9380533e+2, 3.372984e+1, -63694.34, -578993.25, -2955.415, -0.00007435323, 0.0014354368, -63677.39, -63677.39, 0.0, 2.500481, 2.4987745 
2.9380533e+2, 3.6228615e+1, -65496.87, -579891.4, -3218.9707, 0.00020176177, 0.0013955851, -65476.73, -65476.73, 0.0, 2.5004778, 2.4987745 
2.9380533e+2, 3.872739e+1, -67301.99, -580792.8, -3482.9631, 0.00047942315, 0.0013644726, -67278.375, -67278.375, 0.0, 2.5004747, 2.4987745 
2.9380533e+2, 4.1226247e+1, -26041.756, -494130.75, -1066.4897, 0.00084313046, 0.0020542673, -26039.324, -26039.324, 0.0, 2.5004737, 2.4989238 
2.9380533e+2, 4.3725175e+1, -24166.883, -490826.88, -3961.5837, 0.0014597636, 0.0020180221, -24133.254, -24133.254, 0.0, 2.5004742, 2.498929 
2.9380533e+2, 4.6224105e+1, -23820.283, -490691.72, -4340.6973, 0.0020781998, 0.0019832691, -23779.93, -23779.93, 0.0, 2.500475, 2.498929 
2.9380533e+2, 4.8723033e+1, -23477.527, -490560.28, -4720.3516, 0.002697695, 0.001956766, -23429.828, -23429.828, 0.0, 2.5004756, 2.4989288 
2.9380533e+2, 5.1222044e+1, 17511.713, -405017.16, -2078.7522, 0.0028311086, 0.002906655, 17521.94, 17521.94, 0.0, 2.5004752, 2.499076 
2.9380533e+2, 5.3721124e+1, 18576.064, -401457.72, -3301.3535, 0.0024698598, 0.0028998188, 18602.012, 18602.012, 0.0, 2.5004737, 2.4990828 
2.938053e+2, 5.622021e+1, 17708.2, -401908.3, -3083.3718, 0.0021116072, 0.0028900136, 17730.854, 17730.854, 0.0, 2.5004723, 2.4990826 
2.938053e+2, 5.871929e+1, 16837.781, -402360.34, -2866.3325, 0.0017567055, 0.00288804, 16857.379, 16857.379, 0.0, 2.5004709, 2.4990826 
2.938053e+2, 6.121846e+1, 58031.355, -316049.94, -2684.163, 0.0020020679, 0.0038416584, 58050.617, 58050.617, 0.0, 2.50047, 2.499231 
2.938053e+2, 6.371769e+1, 60474.176, -311246.1, -3088.1445, 0.002453571, 0.0034438304, 60499.832, 60499.832, 0.0, 2.5004704, 2.4992392 
2.938053e+2, 6.621693e+1, 60629.098, -311192.06, -3652.6958, 0.0029051104, 0.003036072, 60664.977, 60664.977, 0.0, 2.5004706, 2.4992392 
2.938053e+2, 6.8716156e+1, 60780.977, -311139.53, -4218.0615, 0.0033595457, 0.002632878, 60828.81, 60828.81, 0.0, 2.5004709, 2.499239 
2.938053e+2, 7.1215475e+1, 100987.91, -227078.08, -4517.949, 0.00432796, 0.0039435723, 101050.11, 101050.11, 0.0, 2.5004704, 2.4993837 
2.9380533e+2, 7.3714864e+1, 102983.516, -222232.0, -2746.5254, 0.0047940984, 0.0038315563, 103006.71, 103006.71, 0.0, 2.5004694, 2.4993923 
2.9380533e+2, 7.6214254e+1, 102533.86, -222463.38, -2765.6433, 0.005258134, 0.0036995283, 102557.4, 102557.4, 0.0, 2.5004687, 2.4993923 
2.9380536e+2, 7.8713644e+1, 102080.41, -222696.58, -2785.053, 0.0057274657, 0.0035694763, 102104.28, 102104.28, 0.0, 2.500468, 2.4993923 
2.9380533e+2, 8.121311e+1, 141698.75, -139893.16, -5094.8794, 0.0059223934, 0.0043612826, 141790.9, 141790.9, 0.0, 2.5004675, 2.4995346 
2.9380533e+2, 8.3712655e+1, 144690.19, -134518.17, -1792.0912, 0.005416082, 0.0039817975, 144701.69, 144701.69, 0.0, 2.5004685, 2.4995434 
2.9380536e+2, 8.6212194e+1, 145215.28, -134265.92, -1764.6293, 0.004921338, 0.0035868187, 145226.42, 145226.42, 0.0, 2.5004692, 2.4995434 
2.9380536e+2, 8.871173e+1, 145734.86, -134016.33, -1736.974, 0.0044411756, 0.0031916655, 145745.64, 145745.64, 0.0, 2.5004702, 2.4995434 
2.9380536e+2, 9.121138e+1, 187113.97, -47822.758, -3248.026, 0.006988299, 0.0065398933, 187158.88, 187158.88, 0.0, 2.50047, 2.4996917 
2.938054e+2, 9.3711066e+1, 189142.86, -42664.313, 48.289436, 0.007975073, 0.0057610557, 189142.88, 189142.88, 0.0, 2.500469, 2.499701 
2.9380545e+2, 9.6210754e+1, 188541.17, -42952.332, -325.53592, 0.008953674, 0.0049054534, 188541.64, 188541.64, 0.0, 2.5004678, 2.499701 
2.9380548e+2, 9.871044e+1, 187926.5, -43246.605, -697.66565, 0.009960709, 0.0040354664, 187928.6, 187928.6, 0.0, 2.5004668, 2.499701 
2.9630587e+2, 1.2491597e+0, -193004.22, -846036.1, -67.33852, 0.00076985365, -0.000049763334, -193004.2, -193004.2, 0.0, 2.500479, 2.4983175 
2.9630587e+2, 3.7474793e+0, -191921.08, -845982.25, 6.574003, -0.0006242214, -0.00014765403, -191921.08, -191921.08, 0.0, 2.5004814, 2.4983165 
2.9630587e+2, 6.2457985e+0, -190549.61, -845327.56, 103.79689, -0.0020142829, -0.00024336256, -190549.6, -190549.6, 0.0, 2.5004838, 2.4983165 
2.9630584e+2, 8.7441176e+0, -189179.3, -844673.4, 200.80011, -0.0034003302, -0.0003368891, -189179.25, -189179.25, 0.0, 2.5004861, 2.4983163 
2.9630584e+2, 1.1242515e+1, -147575.83, -758022.9, -233.68924, -0.0032774203, -0.000046786645, -147575.75, -147575.75, 0.0, 2.500486, 2.498465 
2.9630584e+2, 1.3740988e+1, -149076.45, -758286.9, -2224.316, -0.0015028053, 0.00024302832, -149068.33, -149068.33, 0.0, 2.5004828, 2.498466 
2.9630587e+2, 1.623946e+1, -150878.11, -759174.5, -2816.7632, 0.0002701604, 0.0005375271, -150865.06, -150865.06, 0.0, 2.5004797, 2.498466 
2.9630587e+2, 1.8737932e+1, -152680.67, -760062.6, -3409.9248, 0.00204129, 0.00083717454, -152661.53, -152661.53, 0.0, 2.5004766, 2.498466 
2.9630587e+2, 2.1236481e+1, -109441.7, -670227.4, -870.03284, 0.0020828475, 0.0012023145, -109440.35, -109440.35, 0.0, 2.5004766, 2.49862 
2.9630584e+2, 2.3735103e+1, -107401.79, -668271.06, -3091.4624, 0.00069097325, 0.00096213166, -107384.75, -107384.75, 0.0, 2.5004792, 2.4986222 
2.963058e+2, 2.6233727e+1, -105991.84, -667619.25, -2859.9817, -0.00069760456, 0.00072905835, -105977.27, -105977.27, 0.0, 2.5004816, 2.4986222 
2.963058e+2, 2.873235e+1, -104583.625, -666968.25, -2629.41, -0.002083668, 0.0005047453, -104571.33, -104571.33, 0.0, 2.500484, 2.4986222 
2.963058e+2, 3.1231052e+1, -63302.563, -581124.3, -233.9914, -0.0021728836, 0.0008964931, -63302.457, -63302.457, 0.0, 2.500484, 2.4987695 
2.963058e+2, 3.3729824e+1, -64062.457, -579866.06, -3425.4922, -0.00070516224, 0.0008410039, -64039.71, -64039.71, 0.0, 2.500481, 2.498773 
2.963058e+2, 3.62286e+1, -65862.94, -580766.2, -3687.1975, 0.000760457, 0.0007898616, -65836.53, -65836.53, 0.0, 2.5004778, 2.498773 
2.963058e+2, 3.8727376e+1, -67665.5, -581668.44, -3949.6387, 0.0022231324, 0.0007469407, -67635.15, -67635.15, 0.0, 2.5004747, 2.4987729 
2.963058e+2, 4.1226226e+1, -26531.014, -495295.28, -970.8743, 0.0025462878, 0.0015811659, -26529.002, -26529.002, 0.0, 2.5004737, 2.4989216 
2.963058e+2, 4.372516e+1, -24688.635, -492066.7, -3873.4507, 0.001981196, 0.001852512, -24656.535, -24656.535, 0.0, 2.5004745, 2.4989269 
2.9630578e+2, 4.622409e+1, -24339.32, -491933.44, -4249.761, 0.0014117389, 0.0021250376, -24300.7, -24300.7, 0.0, 2.5004752, 2.4989266 
2.9630578e+2, 4.8723018e+1, -23993.3, -491802.78, -4626.836, 0.00083664054, 0.0024054612, -23947.543, -23947.543, 0.0, 2.5004756, 2.4989266 
2.9630578e+2, 5.1222026e+1, 18179.322, -403850.03, -2319.022, 0.0008648465, 0.0032669764, 18192.064, 18192.064, 0.0, 2.5004754, 2.4990778 
2.9630578e+2, 5.3721106e+1, 19230.543, -400324.03, -3529.0542, 0.0014843757, 0.0027518463, 19260.227, 19260.227, 0.0, 2.500474, 2.4990845 
2.9630578e+2, 5.6220186e+1, 18364.795, -400775.88, -3308.186, 0.0021002248, 0.0022336226, 18390.904, 18390.904, 0.0, 2.5004725, 2.4990845 
2.9630578e+2, 5.871927e+1, 17496.629, -401228.88, -3088.3276, 0.0027129217, 0.0017231965, 17519.406, 17519.406, 0.0, 2.500471, 2.4990845 
2.9630578e+2, 6.121843e+1, 57376.293, -317692.7, -2685.2185, 0.003114977, 0.002519609, 57395.516, 57395.516, 0.0, 2.5004704, 2.499228 
2.9630578e+2, 6.3717663e+1, 59739.39, -313060.03, -3047.499, 0.0029619995, 0.0023238075, 59764.3, 59764.3, 0.0, 2.5004706, 2.4992359 
2.9630578e+2, 6.62169e+1, 59896.082, -313007.44, -3609.224, 0.002803281, 0.0021174732, 59931.01, 59931.01, 0.0, 2.5004709, 2.4992359 
2.9630578e+2, 6.8716127e+1, 60049.73, -312956.28, -4171.764, 0.002641246, 0.001915107, 60096.383, 60096.383, 0.0, 2.500471, 2.4992359 
2.9630578e+2, 7.1215445e+1, 101368.31, -226639.6, -4689.8833, 0.0034443531, 0.0034322874, 101435.35, 101435.35, 0.0, 2.5004706, 2.4993842 
2.9630578e+2, 7.3714846e+1, 103320.76, -221884.81, -2863.0303, 0.004330449, 0.0034851027, 103345.96, 103345.96, 0.0, 2.50047, 2.4993927 
2.963058e+2, 7.6214236e+1, 102871.29, -222116.72, -2879.3374, 0.0052081617, 0.0035168352, 102896.8, 102896.8, 0.0, 2.5004692, 2.4993927 
2.963058e+2, 7.8713626e+1, 102418.02, -222350.47, -2895.936, 0.0060840016, 0.0035498135, 102443.84, 102443.84, 0.0, 2.5004685, 2.4993927 
2.963058e+2, 8.1213087e+1, 142249.31, -139164.19, -5050.442, 0.006444067, 0.004231998, 142339.92, 142339.92, 0.0, 2.500468, 2.4995358 
2.963058e+2, 8.3712626e+1, 145151.5, -133973.05, -1650.8862, 0.0057187565, 0.003443646, 145161.27, 145161.27, 0.0, 2.5004687, 2.4995441 
2.963058e+2, 8.621216e+1, 145675.05, -133721.58, -1620.2645, 0.004994549, 0.0026382534, 145684.44, 145684.44, 0.0, 2.5004697, 2.4995441 
2.963058e+2, 8.87117e+1, 146193.08, -133472.75, -1589.4495, 0.0042755175, 0.0018312649, 146202.11, 146202.11, 0.0, 2.5004706, 2.4995441 
2.9630584e+2, 9.121134e+1, 187028.33, -48488.633, -3437.9424, 0.0064240503, 0.005145078, 187078.5, 187078.5, 0.0, 2.5004704, 2.4996903 
2.9630587e+2, 9.371103e+1, 188927.78, -43587.844, -86.48508, 0.007656778, 0.0045702797, 188927.81, 188927.81, 0.0, 2.5004694, 2.499699 
2.963059e+2, 9.6210724e+1, 188321.67, -43872.535, -450.65286, 0.008866114, 0.0039169583, 188322.55, 188322.55, 0.0, 2.5004685, 2.499699 
2.9630592e+2, 9.871041e+1, 187702.56, -44163.484, -813.12494, 0.010082143, 0.0032487523, 187705.42, 187705.42, 0.0, 2.5004673, 2.499699 
2.9880637e+2, 1.2491585e+0, -194198.66, -846347.6, 216.09978, 0.0016180822, -0.0002085684, -194198.58, -194198.58, 0.0, 2.5004768, 2.498318 
2.9880637e+2, 3.7474754e+0, -193107.4, -846293.4, 151.16768, -0.00035070902, -0.0006246415, -193107.38, -193107.38, 0.0, 2.5004792, 2.498317 
2.9880634e+2, 6.2457925e+0, -191761.42, -845649.6, 114.027725, -0.0023207164, -0.0010392953, -191761.39, -191761.39, 0.0, 2.5004814, 2.498317 
2.9880634e+2, 8.744109e+0, -190453.17, -845024.1, 78.80031, -0.004291939, -0.0014525302, -190453.16, -190453.16, 0.0, 2.5004838, 2.498317 
2.9880634e+2, 1.1242506e+1, -150068.89, -760978.4, -1277.1304, -0.0041371174, -0.001042046, -150066.22, -150066.22, 0.0, 2.5004835, 2.4984612 
2.9880634e+2, 1.374098e+1, -151421.08, -761176.25, -3333.0613, -0.001748935, -0.00019481409, -151402.86, -151402.86, 0.0, 2.5004807, 2.4984622 
2.9880634e+2, 1.6239454e+1, -153098.31, -762006.2, -3973.6643, 0.0006342001, 0.00065610954, -153072.38, -153072.38, 0.0, 2.5004778, 2.4984622 
2.9880637e+2, 1.8737929e+1, -154802.45, -762849.06, -4603.2793, 0.003012155, 0.0015111942, -154767.61, -154767.61, 0.0, 2.500475, 2.4984622 
2.9880637e+2, 2.1236476e+1, -109973.125, -669807.4, -1252.4366, 0.002862969, 0.0019798805, -109970.32, -109970.32, 0.0, 2.5004752, 2.4986217 
2.9880634e+2, 2.3735099e+1, -107894.516, -667789.44, -3535.1047, 0.0005523023, 0.0013477595, -107872.195, -107872.195, 0.0, 2.5004776, 2.4986238 
2.988063e+2, 2.6233718e+1, -106512.74, -667152.6, -3323.997, -0.0017599424, 0.0007221027, -106493.04, -106493.04, 0.0, 2.50048, 2.4986238 
2.9880628e+2, 2.873234e+1, -105171.68, -666535.5, -3099.7192, -0.0040747407, 0.00010463808, -105154.56, -105154.56, 0.0, 2.5004823, 2.4986238 
2.9880628e+2, 3.1231037e+1, -64683.5, -582466.5, -1482.5073, -0.0039881933, 0.00031175392, -64679.254, -64679.254, 0.0, 2.5004823, 2.4987679 
2.988063e+2, 3.372981e+1, -65259.65, -581132.44, -4590.7354, -0.0013270131, 0.00024314958, -65218.8, -65218.8, 0.0, 2.5004797, 2.4987717 
2.988063e+2, 3.6228585e+1, -66912.805, -581963.2, -4737.305, 0.0013275938, 0.00017828717, -66869.234, -66869.234, 0.0, 2.5004768, 2.4987714 
2.988063e+2, 3.8727355e+1, -68610.875, -582816.0, -4868.1885, 0.003975176, 0.00012119169, -68564.79, -68564.79, 0.0, 2.500474, 2.4987714 
2.988063e+2, 4.122621e+1, -27544.436, -496714.8, -1166.0729, 0.0042475183, 0.0011080841, -27541.537, -27541.537, 0.0, 2.500473, 2.4989195 
2.9880628e+2, 4.372514e+1, -25688.6, -493523.44, -3897.2454, 0.0025000041, 0.0016843408, -25656.137, -25656.137, 0.0, 2.5004737, 2.4989247 
2.9880628e+2, 4.6224073e+1, -25343.41, -493394.0, -4069.2463, 0.00074253866, 0.0022613825, -25308.035, -25308.035, 0.0, 2.5004745, 2.4989245 
2.9880625e+2, 4.8723003e+1, -25044.732, -493287.22, -4224.6255, -0.0010267808, 0.0028459865, -25006.62, -25006.62, 0.0, 2.500475, 2.4989245 
2.9880625e+2, 5.1222014e+1, 18309.852, -402946.1, -2014.7029, -0.0010949558, 0.003628663, 18319.486, 18319.486, 0.0, 2.5004747, 2.4990797 
2.9880625e+2, 5.372109e+1, 19436.662, -399387.78, -2981.033, 0.0005040603, 0.0026020568, 19457.879, 19457.879, 0.0, 2.5004735, 2.4990864 
2.9880625e+2, 5.622017e+1, 18584.389, -399834.16, -2502.6445, 0.0020931303, 0.0015720448, 18599.355, 18599.355, 0.0, 2.500472, 2.4990864 
2.9880628e+2, 5.871924e+1, 17665.883, -400312.47, -2007.9778, 0.003673062, 0.0005497262, 17675.53, 17675.53, 0.0, 2.5004704, 2.4990861 
2.9880628e+2, 6.12184e+1, 56177.227, -319599.9, -1080.4965, 0.0042259726, 0.0012052002, 56180.336, 56180.336, 0.0, 2.5004697, 2.4992251 
2.9880625e+2, 6.3717633e+1, 58463.9, -315111.63, -1091.6526, 0.0034684984, 0.0012081765, 58467.086, 58467.086, 0.0, 2.50047, 2.4992328 
2.9880625e+2, 6.621687e+1, 58555.59, -315091.66, -1320.4003, 0.0027000671, 0.0011998279, 58560.258, 58560.258, 0.0, 2.5004702, 2.4992325 
2.9880625e+2, 6.8716097e+1, 58589.37, -315099.6, -1536.859, 0.0019226021, 0.0011948905, 58595.695, 58595.695, 0.0, 2.5004702, 2.4992325 
2.9880625e+2, 7.1215415e+1, 100894.055, -226616.77, -1941.4844, 0.0025622766, 0.0029278188, 100905.56, 100905.56, 0.0, 2.5004697, 2.4993849 
2.9880625e+2, 7.371481e+1, 102729.08, -221963.5, 229.58444, 0.003868985, 0.0031424926, 102729.24, 102729.24, 0.0, 2.5004687, 2.4993932 
2.9880628e+2, 7.62142e+1, 102126.23, -222269.44, 521.237, 0.0051615643, 0.0033348761, 102127.06, 102127.06, 0.0, 2.5004675, 2.4993932 
2.9880628e+2, 7.87136e+1, 101455.875, -222607.89, 820.3406, 0.006445664, 0.003527798, 101457.95, 101457.95, 0.0, 2.5004666, 2.4993932 
2.9880628e+2, 8.121307e+1, 141300.06, -139165.6, -893.90076, 0.006963099, 0.0041091247, 141302.9, 141302.9, 0.0, 2.5004659, 2.4995368 
2.9880628e+2, 8.37126e+1, 143970.25, -134202.4, 2818.759, 0.006021226, 0.0029090778, 143998.81, 143998.81, 0.0, 2.5004663, 2.499545 
2.9880628e+2, 8.621213e+1, 144240.63, -134072.67, 3085.4573, 0.0050707893, 0.0016904139, 144274.83, 144274.83, 0.0, 2.5004668, 2.4995449 
2.9880628e+2, 8.871166e+1, 144412.72, -133990.27, 3356.4927, 0.00411681, 0.0004688531, 144453.17, 144453.17, 0.0, 2.5004673, 2.4995449 
2.988063e+2, 9.12113e+1, 184384.53, -50414.313, 1387.5636, 0.0058504795, 0.003772182, 184392.72, 184392.72, 0.0, 2.5004666, 2.4996889 
2.9880634e+2, 9.3711e+1, 185873.7, -45871.227, 4937.8086, 0.007331576, 0.0033950477, 185978.86, 185978.86, 0.0, 2.5004652, 2.4996974 
2.9880637e+2, 9.621069e+1, 184763.17, -46393.633, 4740.437, 0.008775999, 0.0029373013, 184860.34, 184860.34, 0.0, 2.5004632, 2.4996974 
2.988064e+2, 9.871038e+1, 183445.27, -47015.9, 4540.4624, 0.010207053, 0.0024642486, 183534.69, 183534.69, 0.0, 2.5004609, 2.4996974 
3.0130684e+2, 1.2491576e+0, -188372.75, -844363.56, 96.07988, 0.0015158678, -0.00020984554, -188372.73, -188372.73, 0.0, 2.5004876, 2.4983163 
3.0130684e+2, 3.7474725e+0, -189613.98, -845427.44, -317.81888, -0.00015216958, -0.0006277864, -189613.84, -189613.84, 0.0, 2.500486, 2.498315 
3.013068e+2, 6.245788e+0, -190563.63, -845883.4, -702.71387, -0.0018113895, -0.0010433926, -190562.88, -190562.88, 0.0, 2.5004845, 2.498315 
3.013068e+2, 8.744103e+0, -191514.53, -846340.0, -1087.8163, -0.0034617912, -0.0014566643, -191512.73, -191512.73, 0.0, 2.5004828, 2.498315 
3.013068e+2, 1.1242498e+1, -150753.0, -761816.9, -2202.809, -0.0033395058, -0.0010456521, -150745.05, -150745.05, 0.0, 2.5004828, 2.49846 
3.013068e+2, 1.374097e+1, -149334.84, -760651.1, -3234.6897, -0.0013507097, -0.00019172345, -149317.73, -149317.73, 0.0, 2.500485, 2.498461 
3.013068e+2, 1.6239445e+1, -148213.83, -760100.8, -2863.7964, 0.00064416864, 0.0006672912, -148200.42, -148200.42, 0.0, 2.5004869, 2.4984612 
3.013068e+2, 1.8737917e+1, -147093.95, -759551.06, -2493.4539, 0.0026450125, 0.0015318544, -147083.8, -147083.8, 0.0, 2.5004888, 2.4984612 
3.0130684e+2, 2.1236466e+1, -102853.42, -667047.5, 956.93134, 0.0024518473, 0.002016894, -102851.8, -102851.8, 0.0, 2.500488, 2.49862 
3.013068e+2, 2.3735085e+1, -104166.88, -666628.25, -2171.3833, 0.0004532771, 0.0014021107, -104158.5, -104158.5, 0.0, 2.5004847, 2.4986224 
3.0130678e+2, 2.6233703e+1, -106135.125, -667566.44, -2809.9968, -0.0015374735, 0.00079361565, -106121.06, -106121.06, 0.0, 2.5004811, 2.4986224 
3.0130675e+2, 2.8732324e+1, -108104.98, -668505.4, -3449.2573, -0.0035214233, 0.0001931533, -108083.75, -108083.75, 0.0, 2.5004778, 2.4986224 
3.0130675e+2, 3.123102e+1, -67908.31, -584069.4, -2185.176, -0.0033795326, 0.00035329786, -67899.06, -67899.06, 0.0, 2.5004768, 2.4987679 
3.0130675e+2, 3.3729795e+1, -65936.48, -581484.1, -5141.4526, -0.00095142185, 0.00018085477, -65885.21, -65885.21, 0.0, 2.5004785, 2.4987714 
3.0130678e+2, 3.6228564e+1, -64982.063, -581010.56, -5165.6904, 0.0014845768, 0.00001474035, -64930.355, -64930.355, 0.0, 2.5004802, 2.4987714 
3.0130678e+2, 3.8727337e+1, -64029.316, -580537.8, -5191.0244, 0.0039280616, -0.00014105371, -63977.15, -63977.15, 0.0, 2.5004816, 2.4987717 
3.0130678e+2, 4.1226187e+1, -22384.938, -494080.84, -1338.7283, 0.0040687807, 0.0008407089, -22381.139, -22381.139, 0.0, 2.5004818, 2.49892 
3.0130675e+2, 4.3725124e+1, -21940.055, -491584.22, -3905.8945, 0.002312453, 0.0015114498, -21907.572, -21907.572, 0.0, 2.5004802, 2.498925 
3.0130672e+2, 4.6224058e+1, -22920.94, -492044.94, -3926.9521, 0.0005628819, 0.0021843351, -22888.07, -22888.07, 0.0, 2.5004785, 2.498925 
3.013067e+2, 4.8722988e+1, -23904.215, -492506.8, -3949.0264, -0.0011820672, 0.0028661317, -23870.938, -23870.938, 0.0, 2.5004766, 2.498925 
3.013067e+2, 5.1221997e+1, 18770.37, -402364.38, -2281.3877, -0.0011735238, 0.0036353806, 18782.727, 18782.727, 0.0, 2.5004752, 2.4990804 
3.0130672e+2, 5.372107e+1, 20025.283, -398786.25, -4306.737, 0.00055137055, 0.0024961221, 20069.564, 20069.564, 0.0, 2.500474, 2.499087 
3.0130672e+2, 5.622015e+1, 19421.012, -399068.63, -4931.0513, 0.0022845303, 0.0013507847, 19479.105, 19479.105, 0.0, 2.500473, 2.499087 
3.0130672e+2, 5.8719224e+1, 18814.318, -399352.16, -5556.206, 0.0040267888, 0.00021035515, 18888.133, 18888.133, 0.0, 2.500472, 2.499087 
3.0130672e+2, 6.121838e+1, 57524.594, -318220.72, -4788.015, 0.0045850715, 0.00085835747, 57585.598, 57585.598, 0.0, 2.500471, 2.4992268 
3.0130672e+2, 6.371762e+1, 59479.754, -313961.0, -4304.8647, 0.0037400194, 0.0009653174, 59529.37, 59529.37, 0.0, 2.5004709, 2.4992342 
3.013067e+2, 6.6216856e+1, 59359.316, -314009.1, -4078.768, 0.002901086, 0.0010623509, 59403.867, 59403.867, 0.0, 2.5004709, 2.4992342 
3.013067e+2, 6.8716085e+1, 59235.71, -314058.7, -3853.658, 0.002069729, 0.0011642372, 59275.492, 59275.492, 0.0, 2.5004706, 2.4992342 
3.013067e+2, 7.1215415e+1, 101279.72, -225710.72, -4501.8613, 0.0026414804, 0.0029050994, 101341.69, 101341.69, 0.0, 2.5004694, 2.4993863 
3.0130672e+2, 7.3714805e+1, 102810.33, -221322.06, -2884.7415, 0.003962919, 0.0030268913, 102836.0, 102836.0, 0.0, 2.5004683, 2.4993947 
3.0130672e+2, 7.62142e+1, 102051.06, -221686.83, -3198.591, 0.0052896477, 0.0031270357, 102082.664, 102082.664, 0.0, 2.5004668, 2.4993947 
3.0130675e+2, 7.87136e+1, 101287.336, -222053.75, -3512.5796, 0.006626616, 0.0032283508, 101325.49, 101325.49, 0.0, 2.5004656, 2.4993947 
3.0130672e+2, 8.121307e+1, 141485.61, -138150.67, -5439.7803, 0.0072320057, 0.0037300105, 141591.39, 141591.39, 0.0, 2.5004652, 2.499539 
3.0130675e+2, 8.37126e+1, 144500.78, -133160.5, -2031.3038, 0.00633226, 0.0024439236, 144515.64, 144515.64, 0.0, 2.5004666, 2.4995468 
3.0130675e+2, 8.621213e+1, 145303.84, -132761.9, -2143.635, 0.0054467535, 0.0011433993, 145320.38, 145320.38, 0.0, 2.5004678, 2.4995468 
3.0130675e+2, 8.871166e+1, 146100.39, -132366.47, -2255.7039, 0.004581112, -0.00015569435, 146118.66, 146118.66, 0.0, 2.5004692, 2.4995468 
3.0130675e+2, 9.1211313e+1, 185973.95, -49194.887, -4621.438, 0.0060037337, 0.0031827942, 186064.73, 186064.73, 0.0, 2.500469, 2.4996898 
3.0130678e+2, 9.3711e+1, 187141.38, -45058.797, -751.6794, 0.0075758114, 0.0029120736, 187143.81, 187143.81, 0.0, 2.500467, 2.4996977 
3.013068e+2, 9.6210694e+1, 186056.97, -45574.176, -655.7482, 0.009170341, 0.0025626072, 186058.83, 186058.83, 0.0, 2.5004652, 2.4996977 
3.0130687e+2, 9.871039e+1, 184952.7, -46099.117, -556.54626, 0.010804242, 0.0022000514, 184954.05, 184954.05, 0.0, 2.5004632, 2.499698 
3.0380735e+2, 1.2491576e+0, -189081.84, -845837.7, -150.97208, -0.00014690793, -0.00007573365, -189081.81, -189081.81, 0.0, 2.5004876, 2.4983137 
3.0380735e+2, 3.7474728e+0, -190320.3, -846897.5, -567.10455, -0.0006628662, -0.00022563216, -190319.81, -190319.81, 0.0, 2.500486, 2.4983127 
3.0380732e+2, 6.2457883e+0, -191269.05, -847353.4, -950.1662, -0.0011758426, -0.00037343803, -191267.67, -191267.67, 0.0, 2.5004845, 2.4983127 
3.0380732e+2, 8.7441033e+0, -192219.06, -847809.9, -1333.4352, -0.0016858365, -0.00051915145, -192216.34, -192216.34, 0.0, 2.5004828, 2.4983127 
3.0380732e+2, 1.1242498e+1, -150033.52, -760338.2, -1928.2104, -0.0016416514, -0.0002309131, -150027.42, -150027.42, 0.0, 2.500483, 2.4984627 
3.0380732e+2, 1.3740967e+1, -148615.5, -759177.2, -2951.2822, -0.0009420799, 0.00012547865, -148601.23, -148601.23, 0.0, 2.500485, 2.4984636 
3.0380732e+2, 1.6239439e+1, -147492.52, -758627.2, -2578.3225, -0.00024025961, 0.00048681776, -147481.64, -147481.64, 0.0, 2.5004869, 2.4984636 
3.0380732e+2, 1.8737909e+1, -146370.66, -758077.7, -2205.9138, 0.000463672, 0.00085354457, -146362.7, -146362.7, 0.0, 2.5004888, 2.4984636 
3.0380732e+2, 2.1236455e+1, -103943.016, -669354.7, 428.56158, 0.0003926219, 0.0012642008, -103942.69, -103942.69, 0.0, 2.500488, 2.4986162 
3.038073e+2, 2.3735075e+1, -105284.07, -668998.1, -2691.2175, -0.00010789964, 0.0010244504, -105271.22, -105271.22, 0.0, 2.5004847, 2.4986184 
3.038073e+2, 2.623369e+1, -107249.83, -669936.44, -3327.5625, -0.0006061646, 0.0007911058, -107230.15, -107230.15, 0.0, 2.5004814, 2.4986184 
3.0380726e+2, 2.8732312e+1, -109217.19, -670875.5, -3964.5542, -0.0011030416, 0.00056588347, -109189.2, -109189.2, 0.0, 2.5004778, 2.4986184 
3.0380726e+2, 3.123101e+1, -67805.79, -583950.56, -1988.9667, -0.0009887861, 0.0007881677, -67798.125, -67798.125, 0.0, 2.5004768, 2.498768 
3.0380726e+2, 3.372978e+1, -65852.48, -581411.7, -4904.4185, -0.000053091495, 0.00040619003, -65805.83, -65805.83, 0.0, 2.5004785, 2.4987717 
3.0380726e+2, 3.6228547e+1, -64894.723, -580939.0, -4926.4814, 0.00088577793, 0.00003021137, -64847.695, -64847.695, 0.0, 2.5004802, 2.4987717 
3.0380726e+2, 3.872732e+1, -63938.637, -580467.06, -4949.64, 0.0018271531, -0.00033596915, -63891.21, -63891.21, 0.0, 2.5004818, 2.4987717 
3.0380726e+2, 4.122617e+1, -22200.738, -493829.5, -1615.0447, 0.0017893984, 0.0004695899, -22195.207, -22195.207, 0.0, 2.5004818, 2.4989202 
3.0380723e+2, 4.37251e+1, -21805.105, -491441.6, -4171.866, 0.0011599448, 0.0010270976, -21768.049, -21768.049, 0.0, 2.5004802, 2.4989252 
3.0380723e+2, 4.6224034e+1, -22783.818, -491904.16, -4190.315, 0.0005305314, 0.0015868334, -22746.393, -22746.393, 0.0, 2.5004785, 2.4989252 
3.038072e+2, 4.8722965e+1, -23764.924, -492367.84, -4209.7803, -0.00010078044, 0.0021554732, -23727.107, -23727.107, 0.0, 2.5004768, 2.4989252 
3.038072e+2, 5.122197e+1, 17970.545, -404241.75, -2493.9063, 0.00014164775, 0.0029425814, 17985.275, 17985.275, 0.0, 2.5004754, 2.499077 
3.038072e+2, 5.3721046e+1, 19127.375, -400872.63, -4474.393, 0.0012533227, 0.0020146489, 19175.037, 19175.037, 0.0, 2.5004742, 2.4990835 
3.038072e+2, 5.6220126e+1, 18524.203, -401157.28, -5095.943, 0.0023673766, 0.0010811894, 18586.07, 18586.07, 0.0, 2.5004733, 2.4990835 
3.038072e+2, 5.8719194e+1, 17918.611, -401443.1, -5718.3315, 0.0034843455, 0.0001528568, 17996.57, 17996.57, 0.0, 2.5004723, 2.4990835 
3.038072e+2, 6.121836e+1, 58323.17, -316836.1, -4851.857, 0.003901823, 0.0008926186, 58385.91, 58385.91, 0.0, 2.5004716, 2.499229 
3.038072e+2, 6.371759e+1, 60218.094, -312705.8, -4344.9604, 0.0034682949, 0.0010015185, 60268.71, 60268.71, 0.0, 2.5004714, 2.499236 
3.038072e+2, 6.6216826e+1, 60098.2, -312756.63, -4116.014, 0.003034917, 0.0011001261, 60143.63, 60143.63, 0.0, 2.500471, 2.499236 
3.038072e+2, 6.871607e+1, 59975.133, -312808.94, -3888.0544, 0.0026027488, 0.0012030463, 60015.68, 60015.68, 0.0, 2.5004709, 2.499236 
3.0380717e+2, 7.1215385e+1, 101211.13, -226207.6, -4746.8296, 0.0031552361, 0.0027581204, 101279.93, 101279.93, 0.0, 2.50047, 2.4993854 
3.038072e+2, 7.371478e+1, 102610.516, -222090.05, -3087.6033, 0.004124738, 0.0025577163, 102639.87, 102639.87, 0.0, 2.5004685, 2.499393 
3.038072e+2, 7.621417e+1, 101847.984, -222459.25, -3398.0032, 0.005091991, 0.0023363165, 101883.586, 101883.586, 0.0, 2.5004673, 2.499393 
3.0380723e+2, 7.871356e+1, 101080.99, -222830.61, -3708.542, 0.0060612597, 0.0021163633, 101123.445, 101123.445, 0.0, 2.5004659, 2.499393 
3.038072e+2, 8.121303e+1, 141827.48, -137873.86, -5290.542, 0.006638891, 0.002568801, 141927.52, 141927.52, 0.0, 2.5004656, 2.4995391 
3.0380723e+2, 8.371256e+1, 144732.4, -133109.42, -1825.222, 0.006019223, 0.0015076556, 144744.39, 144744.39, 0.0, 2.500467, 2.4995465 
3.0380723e+2, 8.62121e+1, 145532.1, -132713.28, -1934.2212, 0.005404263, 0.00043100902, 145545.53, 145545.53, 0.0, 2.5004683, 2.4995465 
3.0380723e+2, 8.871163e+1, 146325.83, -132320.0, -2043.227, 0.0047998372, -0.0006452021, 146340.8, 146340.8, 0.0, 2.5004697, 2.4995468 
3.0380723e+2, 9.1211283e+1, 186835.47, -47915.883, -4921.2446, 0.0059296093, 0.0027840477, 186938.58, 186938.58, 0.0, 2.5004694, 2.4996917 
3.0380726e+2, 9.3710977e+1, 187816.33, -44173.88, -1021.5265, 0.007376308, 0.0025738215, 187820.81, 187820.81, 0.0, 2.5004675, 2.499699 
3.038073e+2, 9.621067e+1, 186739.9, -44684.51, -924.2246, 0.008827671, 0.002286061, 186743.61, 186743.61, 0.0, 2.5004656, 2.499699 
3.0380735e+2, 9.8710364e+1, 185649.84, -45201.723, -825.403, 0.01029459, 0.0019856796, 185652.8, 185652.8, 0.0, 2.5004637, 2.499699 
3.063078e+2, 1.24915764e+0, -189791.3, -847312.5, -397.75195, -0.0018098233, 0.000057766392, -189791.05, -189791.05, 0.0, 2.5004876, 2.4983113 
3.063078e+2, 3.747473e+0, -191027.66, -848369.75, -816.1928, -0.0011739818, 0.0001746865, -191026.64, -191026.64, 0.0, 2.500486, 2.49831 
3.063078e+2, 6.2457883e+0, -191975.5, -848825.56, -1197.4211, -0.00054099393, 0.00029345727, -191973.31, -191973.31, 0.0, 2.5004845, 2.49831 
3.0630782e+2, 8.7441033e+0, -192924.63, -849281.94, -1578.8568, 0.00008914079, 0.0004140785, -192920.83, -192920.83, 0.0, 2.5004828, 2.49831 
3.0630782e+2, 1.1242496e+1, -149321.05, -758874.06, -1652.2761, 0.000057640453, 0.0005832382, -149316.56, -149316.56, 0.0, 2.500483, 2.498465 
3.063078e+2, 1.3740964e+1, -147897.39, -757705.75, -2667.322, -0.00053280796, 0.00043869085, -147885.72, -147885.72, 0.0, 2.500485, 2.4984663 
3.063078e+2, 1.6239433e+1, -146772.42, -757156.06, -2292.296, -0.0011248486, 0.00029893933, -146763.81, -146763.81, 0.0, 2.5004869, 2.4984663 
3.0630776e+2, 1.8737902e+1, -145648.61, -756606.94, -1917.8207, -0.001718632, 0.00016441463, -145642.58, -145642.58, 0.0, 2.5004888, 2.4984663 
3.0630776e+2, 2.1236446e+1, -105045.98, -671689.7, -98.161804, -0.0016642835, 0.0005114419, -105045.96, -105045.96, 0.0, 2.500488, 2.4986122 
3.0630776e+2, 2.3735064e+1, -106402.266, -671370.1, -3210.4368, -0.0006680057, 0.0006435801, -106384.02, -106384.02, 0.0, 2.5004847, 2.4986143 
3.0630776e+2, 2.6233682e+1, -108365.53, -672308.56, -3844.513, 0.0003249484, 0.0007821786, -108339.33, -108339.33, 0.0, 2.5004814, 2.4986143 
3.0630776e+2, 2.8732303e+1, -110330.41, -673247.8, -4479.236, 0.0013138775, 0.00092898903, -110294.766, -110294.766, 0.0, 2.500478, 2.4986143 
3.0630776e+2, 3.1230995e+1, -67714.04, -583854.06, -1787.5758, 0.0014043621, 0.0012210149, -67707.85, -67707.85, 0.0, 2.500477, 2.498768 
3.0630773e+2, 3.3729762e+1, -65769.33, -581341.06, -4666.385, 0.00084675255, 0.000626748, -65727.09, -65727.09, 0.0, 2.5004787, 2.4987717 
3.0630773e+2, 3.6228532e+1, -64808.227, -580869.1, -4686.2725, 0.00028756858, 0.000038079597, -64765.676, -64765.676, 0.0, 2.5004804, 2.4987717 
3.063077e+2, 3.8727298e+1, -63848.8, -580398.06, -4707.256, -0.00027408949, -0.0005413129, -63805.91, -63805.91, 0.0, 2.500482, 2.4987717 
3.063077e+2, 4.1226152e+1, -22027.59, -493601.1, -1889.8335, -0.00048794874, 0.00009425254, -22020.018, -22020.018, 0.0, 2.500482, 2.4989204 
3.063077e+2, 4.3725082e+1, -21670.807, -491300.34, -4436.8936, 0.000009109356, 0.0005360561, -21628.893, -21628.893, 0.0, 2.5004804, 2.4989252 
3.0630767e+2, 4.6224013e+1, -22647.35, -491764.72, -4452.7334, 0.00049947004, 0.0009801004, -22605.09, -22605.09, 0.0, 2.5004787, 2.4989252 
3.0630767e+2, 4.8722944e+1, -23626.285, -492230.25, -4469.5894, 0.0009814119, 0.0014330414, -23583.658, -23583.658, 0.0, 2.500477, 2.4989252 
3.0630767e+2, 5.122195e+1, 17155.273, -406151.22, -2695.1714, 0.001454558, 0.0022526504, 17172.432, 17172.432, 0.0, 2.5004756, 2.4990737 
3.0630767e+2, 5.372102e+1, 18228.68, -402960.63, -4641.303, 0.0019534186, 0.0015324254, 18279.818, 18279.818, 0.0, 2.5004745, 2.4990797 
3.0630767e+2, 5.622009e+1, 17626.61, -403247.56, -5260.087, 0.002448793, 0.000807038, 17692.34, 17692.34, 0.0, 2.5004735, 2.4990797 
3.0630767e+2, 5.8719164e+1, 17022.117, -403535.66, -5879.7104, 0.0029408992, 0.000086996326, 17104.305, 17104.305, 0.0, 2.5004725, 2.4990797 
3.0630767e+2, 6.121833e+1, 59106.62, -315482.9, -4908.0156, 0.003217222, 0.00092734915, 59170.918, 59170.918, 0.0, 2.5004718, 2.499231 
3.0630764e+2, 6.371757e+1, 60955.676, -311452.22, -4384.1943, 0.0031967147, 0.0010343536, 61007.28, 61007.28, 0.0, 2.5004716, 2.4992383 
3.0630764e+2, 6.62168e+1, 60836.32, -311505.75, -4152.3984, 0.0031703853, 0.0011305639, 60882.625, 60882.625, 0.0, 2.5004714, 2.4992383 
3.0630764e+2, 6.8716043e+1, 60713.797, -311560.78, -3921.5894, 0.0031388989, 0.0012305466, 60755.1, 60755.1, 0.0, 2.500471, 2.4992383 
3.0630764e+2, 7.121536e+1, 101121.82, -226747.5, -4978.848, 0.0036611229, 0.0026161706, 101197.41, 101197.41, 0.0, 2.5004702, 2.4993842 
3.0630764e+2, 7.371475e+1, 102409.875, -222859.75, -3290.2083, 0.00428217, 0.0020897412, 102443.15, 102443.15, 0.0, 2.500469, 2.4993916 
3.0630767e+2, 7.6214135e+1, 101644.08, -223233.39, -3597.1587, 0.0048935725, 0.0015427045, 101683.9, 101683.9, 0.0, 2.5004675, 2.4993916 
3.0630767e+2, 7.8713524e+1, 100873.81, -223609.19, -3904.248, 0.0054987688, 0.0009973907, 100920.78, 100920.78, 0.0, 2.5004663, 2.4993916 
3.0630764e+2, 8.121299e+1, 142151.56, -137634.0, -5123.946, 0.0060348287, 0.001409001, 142245.38, 142245.38, 0.0, 2.500466, 2.4995394 
3.0630767e+2, 8.3712524e+1, 144963.23, -133060.0, -1619.1565, 0.005699377, 0.00056920154, 144972.67, 144972.67, 0.0, 2.5004675, 2.4995465 
3.0630767e+2, 8.6212057e+1, 145759.55, -132666.28, -1724.8235, 0.0053593037, -0.00028732073, 145770.23, 145770.23, 0.0, 2.5004687, 2.4995465 
3.063077e+2, 8.87116e+1, 146549.9, -132275.44, -1830.4972, 0.0050204354, -0.001144403, 146561.92, 146561.92, 0.0, 2.5004702, 2.4995465 
3.063077e+2, 9.121125e+1, 187664.38, -46690.7, -5201.457, 0.00583923, 0.0023986038, 187779.77, 187779.77, 0.0, 2.50047, 2.4996936 
3.0630773e+2, 9.371095e+1, 188469.05, -43300.953, -1279.8876, 0.00716696, 0.0022437857, 188476.11, 188476.11, 0.0, 2.500468, 2.4997003 
3.0630776e+2, 9.621064e+1, 187383.75, -43814.984, -1172.8677, 0.008481842, 0.0020122507, 187389.69, 187389.69, 0.0, 2.500466, 2.4997003 
3.063078e+2, 9.8710334e+1, 186284.78, -44335.594, -1064.328, 0.009788465, 0.0017685619, 186289.69, 186289.69, 0.0, 2.5004644, 2.4997003 
3.088083e+2, 1.24915764e+0, -190875.66, -848978.44, -701.9835, -0.0034629165, 0.00019066026, -190874.9, -190874.9, 0.0, 2.500487, 2.4983087 
3.088083e+2, 3.7474734e+0, -192007.81, -849984.8, -1237.7278, -0.0016770632, 0.0005732055, -192005.48, -192005.48, 0.0, 2.5004857, 2.4983077 
3.0880833e+2, 6.2457883e+0, -192911.81, -850419.56, -1730.118, 0.00010067669, 0.0009573847, -192907.27, -192907.27, 0.0, 2.500484, 2.4983077 
3.0880833e+2, 8.7441045e+0, -193876.95, -850883.8, -2220.8782, 0.0018703035, 0.0013431977, -193869.45, -193869.45, 0.0, 2.5004823, 2.4983077 
3.0880833e+2, 1.12424955e+1, -148887.11, -757563.94, -1883.9381, 0.0017654586, 0.0013973146, -148881.28, -148881.28, 0.0, 2.5004826, 2.4984674 
3.088083e+2, 1.3740961e+1, -147477.02, -756387.75, -3000.6316, -0.00011567403, 0.00074902567, -147462.23, -147462.23, 0.0, 2.5004845, 2.4984686 
3.0880827e+2, 1.6239427e+1, -146426.25, -755874.4, -2724.4292, -0.002001773, 0.00010537699, -146414.06, -146414.06, 0.0, 2.5004861, 2.4984686 
3.0880824e+2, 1.8737893e+1, -145427.81, -755386.3, -2440.7708, -0.003892994, -0.00053319597, -145418.05, -145418.05, 0.0, 2.5004878, 2.4984686 
3.0880827e+2, 2.1236435e+1, -106662.3, -674294.0, -1475.4326, -0.0037105058, -0.00023890461, -106658.46, -106658.46, 0.0, 2.5004873, 2.498608 
3.0880827e+2, 2.3735054e+1, -107890.125, -673921.44, -4568.245, -0.0012207635, 0.0002617107, -107853.26, -107853.26, 0.0, 2.5004842, 2.4986103 
3.0880827e+2, 2.623367e+1, -109776.29, -674823.0, -5175.709, 0.0012606484, 0.0007688223, -109728.88, -109728.88, 0.0, 2.500481, 2.4986103 
3.0880827e+2, 2.873229e+1, -111720.8, -675752.6, -5772.4424, 0.0037332133, 0.0012842802, -111661.73, -111661.73, 0.0, 2.5004776, 2.4986103 
3.0880827e+2, 3.1230983e+1, -67940.42, -583923.2, -2303.6318, 0.0038035342, 0.0016537906, -67930.13, -67930.13, 0.0, 2.5004766, 2.498768 
3.0880824e+2, 3.3729747e+1, -66067.77, -581449.4, -5068.651, 0.0017520147, 0.0008448981, -66017.93, -66017.93, 0.0, 2.500478, 2.4987717 
3.088082e+2, 3.6228517e+1, -65227.918, -581037.0, -4988.648, -0.00030539738, 0.000041112675, -65179.67, -65179.67, 0.0, 2.5004797, 2.4987717 
3.0880818e+2, 3.872728e+1, -64440.945, -580650.06, -4893.3433, -0.0023697966, -0.0007539382, -64394.566, -64394.566, 0.0, 2.500481, 2.4987717 
3.0880818e+2, 4.122613e+1, -22592.352, -493732.63, -2450.7217, -0.002757799, -0.00028187878, -22579.605, -22579.605, 0.0, 2.500481, 2.498921 
3.0880818e+2, 4.3725058e+1, -22185.693, -491458.28, -4820.3423, -0.001136311, 0.00004198254, -22136.186, -22136.186, 0.0, 2.5004795, 2.4989254 
3.0880818e+2, 4.6223992e+1, -23166.352, -491926.16, -4647.613, 0.00047269565, 0.0003680167, -23120.275, -23120.275, 0.0, 2.5004778, 2.4989254 
3.0880818e+2, 4.872292e+1, -24234.104, -492436.0, -4458.159, 0.002067737, 0.0007029311, -24191.656, -24191.656, 0.0, 2.500476, 2.4989254 
3.0880818e+2, 5.1221925e+1, 15541.813, -408449.47, -2367.7375, 0.0027684157, 0.0015698407, 15555.036, 15555.036, 0.0, 2.5004745, 2.4990704 
3.0880818e+2, 5.3721e+1, 16593.662, -405383.0, -4000.8572, 0.0026542244, 0.0010538754, 16631.592, 16631.592, 0.0, 2.5004735, 2.4990761 
3.0880815e+2, 5.6220067e+1, 15986.661, -405673.9, -4312.0723, 0.0025312295, 0.0005329707, 16030.753, 16030.753, 0.0, 2.5004725, 2.4990761 
3.0880815e+2, 5.871914e+1, 15323.986, -405991.63, -4608.481, 0.0023993093, 0.000017677467, 15374.39, 15374.39, 0.0, 2.5004714, 2.4990761 
3.0880815e+2, 6.12183e+1, 59029.313, -314545.4, -3220.452, 0.0025344219, 0.00096757105, 59057.07, 59057.07, 0.0, 2.5004706, 2.4992332 
3.0880815e+2, 6.371754e+1, 60816.793, -310598.0, -2401.0862, 0.0029287138, 0.0010687703, 60832.313, 60832.313, 0.0, 2.5004704, 2.4992402 
3.0880815e+2, 6.621678e+1, 60594.543, -310703.03, -1864.4259, 0.0033119605, 0.001158453, 60603.906, 60603.906, 0.0, 2.50047, 2.4992402 
3.0880815e+2, 6.8716025e+1, 60295.652, -310844.97, -1312.1488, 0.0036844362, 0.0012512828, 60300.293, 60300.293, 0.0, 2.5004694, 2.4992402 
3.0880815e+2, 7.121534e+1, 99828.94, -227877.16, -2236.8555, 0.004165884, 0.0024838513, 99844.2, 99844.2, 0.0, 2.5004685, 2.4993832 
3.0880815e+2, 7.371472e+1, 101156.875, -224114.05, -219.71266, 0.0044412105, 0.0016280254, 101157.02, 101157.02, 0.0, 2.5004675, 2.4993901 
3.0880815e+2, 7.6214105e+1, 100429.01, -224471.64, -200.76935, 0.0047006323, 0.0007516682, 100429.13, 100429.13, 0.0, 2.500466, 2.4993901 
3.0880815e+2, 7.871349e+1, 99606.45, -224874.86, -171.28316, 0.0049466165, -0.0001227413, 99606.54, 99606.54, 0.0, 2.500465, 2.4993901 
3.0880812e+2, 8.121295e+1, 141361.89, -137940.31, -724.78534, 0.0054283687, 0.00025646677, 141363.78, 141363.78, 0.0, 2.5004647, 2.4995394 
3.0880815e+2, 8.371249e+1, 144081.55, -133529.03, 3033.9934, 0.0053818887, -0.00036578608, 144114.7, 144114.7, 0.0, 2.5004659, 2.4995463 
3.0880818e+2, 8.621203e+1, 144759.55, -133192.95, 3168.9343, 0.005322411, -0.001006128, 144795.67, 144795.67, 0.0, 2.500467, 2.4995463 
3.0880818e+2, 8.871157e+1, 145332.31, -132907.58, 3309.2683, 0.0052555604, -0.0016480113, 145371.66, 145371.66, 0.0, 2.500468, 2.4995463 
3.0880818e+2, 9.121122e+1, 187029.23, -46199.004, -348.27383, 0.0057462165, 0.0020314418, 187029.75, 187029.75, 0.0, 2.500468, 2.4996953 
3.088082e+2, 9.3710923e+1, 187804.61, -43054.24, 3712.99, 0.0069623594, 0.0019266715, 187864.31, 187864.31, 0.0, 2.5004663, 2.4997015 
3.0880824e+2, 9.6210617e+1, 186547.44, -43650.27, 3961.7886, 0.008150915, 0.0017457169, 186615.61, 186615.61, 0.0, 2.5004642, 2.4997015 
3.0880827e+2, 9.871031e+1, 184985.61, -44393.02, 4213.2773, 0.009309898, 0.0015531832, 185062.97, 185062.97, 0.0, 2.5004616, 2.4997015 
3.1130877e+2, 1.24915704e+0, -188854.31, -848848.0, -584.0665, -0.003620997, 0.00022474832, -188853.8, -188853.8, 0.0, 2.5004914, 2.4983068 
3.1130877e+2, 3.7474713e+0, -189430.55, -849572.56, -604.4531, -0.0015695512, 0.00067580154, -189430.0, -189430.0, 0.0, 2.500491, 2.4983058 
3.113088e+2, 6.245786e+0, -189722.44, -849703.75, -579.3646, 0.000494097, 0.001128931, -189721.94, -189721.94, 0.0, 2.5004904, 2.4983058 
3.113088e+2, 8.7441e+0, -190015.98, -849835.7, -554.5393, 0.002569948, 0.0015841365, -190015.53, -190015.53, 0.0, 2.50049, 2.4983058 
3.113088e+2, 1.12424895e+1, -145487.56, -756694.56, -197.21315, 0.0024728864, 0.0016654903, -145487.5, -145487.5, 0.0, 2.5004892, 2.4984658 
3.1130877e+2, 1.3740954e+1, -145654.2, -756262.94, -2266.4207, 0.00031787305, 0.0010068765, -145645.8, -145645.8, 0.0, 2.5004883, 2.498467 
3.1130874e+2, 1.6239418e+1, -146125.0, -756460.5, -2957.8738, -0.0018244891, 0.0003532102, -146110.67, -146110.67, 0.0, 2.5004876, 2.498467 
3.113087e+2, 1.8737881e+1, -146597.53, -756658.9, -3649.606, -0.0039543803, -0.00029507832, -146575.7, -146575.7, 0.0, 2.5004866, 2.4984672 
3.113087e+2, 2.1236424e+1, -107433.07, -675097.3, -2984.5996, -0.0037869145, -0.000055243247, -107417.375, -107417.375, 0.0, 2.5004864, 2.4986072 
3.1130874e+2, 2.3735039e+1, -106284.125, -673557.7, -5159.8574, -0.0011242249, 0.00036177397, -106237.195, -106237.195, 0.0, 2.5004873, 2.4986093 
3.1130874e+2, 2.6233655e+1, -105726.15, -673244.0, -4894.4634, 0.0015509758, 0.0007871311, -105683.94, -105683.94, 0.0, 2.5004883, 2.4986093 
3.1130874e+2, 2.873227e+1, -105170.06, -672931.25, -4630.015, 0.004238272, 0.001222642, -105132.305, -105132.305, 0.0, 2.5004892, 2.4986095 
3.1130874e+2, 3.1230965e+1, -61233.32, -581060.8, -874.3089, 0.004274539, 0.0016435239, -61231.85, -61231.85, 0.0, 2.5004885, 2.4987674 
3.113087e+2, 3.3729732e+1, -61464.41, -579607.6, -4136.3276, 0.0019861686, 0.0010419317, -61431.395, -61431.395, 0.0, 2.5004864, 2.498771 
3.1130868e+2, 3.6228502e+1, -62643.438, -580120.7, -4597.7666, -0.00029202935, 0.00044591542, -62602.59, -62602.59, 0.0, 2.5004845, 2.498771 
3.1130865e+2, 3.8727266e+1, -63824.766, -580634.8, -5059.9927, -0.0025613424, -0.00014097744, -63775.227, -63775.227, 0.0, 2.5004823, 2.4987712 
3.1130865e+2, 4.1226116e+1, -22892.48, -493701.8, -3323.5076, -0.0029210672, 0.00027553664, -22869.021, -22869.021, 0.0, 2.5004802, 2.4989212 
3.1130865e+2, 4.3725044e+1, -22313.766, -491369.97, -6148.374, -0.0010686307, 0.0003018445, -22233.188, -22233.188, 0.0, 2.500479, 2.498926 
3.1130865e+2, 4.6223968e+1, -22989.021, -491642.47, -6498.6787, 0.0008078896, 0.0003303113, -22898.924, -22898.924, 0.0, 2.5004778, 2.498926 
3.1130865e+2, 4.8722896e+1, -23666.912, -491916.22, -6849.8184, 0.002707256, 0.000367505, -23566.73, -23566.73, 0.0, 2.5004766, 2.4989262 
3.1130865e+2, 5.12219e+1, 16578.504, -407558.44, -4675.3936, 0.003334899, 0.0012195566, 16630.035, 16630.035, 0.0, 2.500476, 2.4990711 
3.1130862e+2, 5.3720975e+1, 17994.416, -404381.47, -5823.755, 0.002839088, 0.0009955493, 18074.7, 18074.7, 0.0, 2.5004756, 2.4990768 
3.1130862e+2, 5.622005e+1, 17871.955, -404395.75, -5681.6563, 0.0023521003, 0.0007689872, 17948.389, 17948.389, 0.0, 2.5004752, 2.4990768 
3.113086e+2, 5.871913e+1, 17746.377, -404411.53, -5540.67, 0.0018732813, 0.0005503395, 17819.084, 17819.084, 0.0, 2.500475, 2.499077 
3.113086e+2, 6.1218286e+1, 61164.688, -312735.13, -4534.717, 0.0020284767, 0.0015201257, 61219.68, 61219.68, 0.0, 2.5004735, 2.4992352 
3.113086e+2, 6.371753e+1, 61540.668, -309573.38, -4734.795, 0.0028418922, 0.0013960735, 61601.066, 61601.066, 0.0, 2.5004709, 2.4992418 
3.113086e+2, 6.621677e+1, 60070.504, -310242.8, -5251.491, 0.0036713704, 0.0012576975, 60144.96, 60144.96, 0.0, 2.5004683, 2.4992418 
3.113086e+2, 6.8716013e+1, 58596.61, -310914.03, -5768.5693, 0.0045170765, 0.0011193866, 58686.64, 58686.64, 0.0, 2.5004656, 2.4992418 
3.113086e+2, 7.121533e+1, 98170.16, -227869.92, -7001.671, 0.00493487, 0.0022768225, 98320.45, 98320.45, 0.0, 2.500465, 2.4993849 
3.113086e+2, 7.3714715e+1, 100696.92, -223662.45, -4983.0244, 0.0047654863, 0.0015402295, 100773.45, 100773.45, 0.0, 2.5004659, 2.4993916 
3.113086e+2, 7.62141e+1, 101357.586, -223325.27, -4988.008, 0.0046172277, 0.00078125985, 101434.195, 101434.195, 0.0, 2.500467, 2.4993916 
3.113086e+2, 7.8713477e+1, 102013.36, -222990.44, -4993.5493, 0.004491398, 0.000022152279, 102090.06, 102090.06, 0.0, 2.5004683, 2.4993918 
3.113086e+2, 8.121295e+1, 143387.69, -136206.2, -5768.904, 0.005074376, 0.00046237794, 143506.67, 143506.67, 0.0, 2.5004673, 2.499541 
3.113086e+2, 8.371249e+1, 143478.47, -133243.88, -2288.3171, 0.0055746394, -0.00014282558, 143497.39, 143497.39, 0.0, 2.5004642, 2.4995477 
3.1130862e+2, 8.621203e+1, 141743.69, -134061.95, -2432.3513, 0.0060870526, -0.0007650721, 141765.14, 141765.14, 0.0, 2.5004613, 2.4995477 
3.1130865e+2, 8.871157e+1, 140001.77, -134883.47, -2576.0405, 0.006617474, -0.0013878879, 140025.9, 140025.9, 0.0, 2.5004582, 2.4995477 
3.1130862e+2, 9.121123e+1, 181990.38, -47796.492, -6190.337, 0.006662403, 0.002241837, 182157.03, 182157.03, 0.0, 2.5004585, 2.4996972 
3.1130865e+2, 9.3710923e+1, 185906.25, -43409.543, -2467.9744, 0.007188026, 0.0020970264, 185932.81, 185932.81, 0.0, 2.5004625, 2.4997027 
3.1130868e+2, 9.621062e+1, 188237.25, -42274.844, -2588.5364, 0.0077782944, 0.0018823162, 188266.31, 188266.31, 0.0, 2.5004666, 2.499703 
3.113087e+2, 9.871032e+1, 190543.47, -41152.08, -2706.855, 0.008424926, 0.0016616851, 190575.1, 190575.1, 0.0, 2.5004704, 2.499703 
3.1380928e+2, 1.2491566e+0, -188792.73, -848720.8, -661.9353, -0.0030613604, 0.00016414383, -188792.06, -188792.06, 0.0, 2.5004914, 2.498307 
3.1380928e+2, 3.7474698e+0, -189361.66, -849431.8, -683.94836, -0.0014618946, 0.000493904, -189360.95, -189360.95, 0.0, 2.500491, 2.498306 
3.138093e+2, 6.245783e+0, -189651.81, -849560.94, -656.18585, 0.00014200804, 0.00082562846, -189651.16, -189651.16, 0.0, 2.5004904, 2.498306 
3.138093e+2, 8.7440956e+0, -189943.63, -849690.9, -628.68646, 0.001750348, 0.0011593169, -189943.02, -189943.02, 0.0, 2.50049, 2.498306 
3.138093e+2, 1.1242485e+1, -146717.58, -759262.44, -342.84454, 0.0017468472, 0.0013819487, -146717.39, -146717.39, 0.0, 2.5004892, 2.4984615 
3.1380928e+2, 1.374095e+1, -146897.7, -758862.94, -2398.8186, 0.0002760178, 0.0011383158, -146888.31, -146888.31, 0.0, 2.5004883, 2.4984624 
3.1380928e+2, 1.6239412e+1, -147367.11, -759061.75, -3087.5144, -0.001188739, 0.0008999432, -147351.53, -147351.53, 0.0, 2.5004876, 2.4984624 
3.1380925e+2, 1.8737875e+1, -147838.23, -759261.4, -3776.4895, -0.00264763, 0.000667256, -147814.92, -147814.92, 0.0, 2.5004866, 2.4984627 
3.1380925e+2, 2.1236415e+1, -106844.5, -673926.06, -2912.9255, -0.0026015, 0.00083654735, -106829.54, -106829.54, 0.0, 2.5004866, 2.498609 
3.1380925e+2, 2.3735027e+1, -105705.61, -672415.56, -5028.8984, -0.00085692806, 0.00075556175, -105660.99, -105660.99, 0.0, 2.5004873, 2.4986112 
3.1380925e+2, 2.623364e+1, -105142.34, -672099.06, -4760.3813, 0.00089290226, 0.0006822292, -105102.38, -105102.38, 0.0, 2.5004883, 2.4986112 
3.1380925e+2, 2.8732255e+1, -104580.98, -671783.44, -4492.8096, 0.0026475645, 0.0006181954, -104545.39, -104545.39, 0.0, 2.5004892, 2.4986115 
3.1380925e+2, 3.1230947e+1, -61917.727, -582551.7, -1235.5734, 0.0026694385, 0.0010568108, -61914.793, -61914.793, 0.0, 2.5004885, 2.4987648 
3.1380922e+2, 3.3729717e+1, -62204.14, -581220.4, -4460.9087, 0.0013140553, 0.0010329683, -62165.8, -62165.8, 0.0, 2.5004866, 2.498768 
3.138092e+2, 3.622849e+1, -63380.15, -581734.1, -4919.3574, -0.000039087827, 0.0010146947, -63333.47, -63333.47, 0.0, 2.5004845, 2.498768 
3.1380916e+2, 3.8727257e+1, -64558.465, -582249.0, -5378.5938, -0.001391328, 0.0010054498, -64502.59, -64502.59, 0.0, 2.5004823, 2.4987683 
3.1380916e+2, 4.1226104e+1, -23282.908, -494671.22, -3599.7983, -0.0015233048, 0.0014418705, -23255.42, -23255.42, 0.0, 2.5004804, 2.4989195 
3.1380916e+2, 4.3725026e+1, -22763.69, -492469.22, -6342.5107, -0.00014996706, 0.0009750025, -22678.063, -22678.063, 0.0, 2.5004792, 2.4989238 
3.1380916e+2, 4.6223944e+1, -23437.17, -492743.63, -6689.6553, 0.0012386491, 0.000511107, -23341.832, -23341.832, 0.0, 2.500478, 2.498924 
3.1380913e+2, 4.8722866e+1, -24113.285, -493019.3, -7037.6353, 0.0026413547, 0.000056468867, -24007.684, -24007.684, 0.0, 2.5004768, 2.498924 
3.1380913e+2, 5.122187e+1, 17152.645, -406559.34, -4747.376, 0.0029294326, 0.0008094803, 17205.83, 17205.83, 0.0, 2.500476, 2.4990728 
3.1380913e+2, 5.372095e+1, 18504.852, -403520.4, -5874.4644, 0.002326942, 0.00094237045, 18586.607, 18586.607, 0.0, 2.5004756, 2.4990783 
3.138091e+2, 5.622003e+1, 18384.701, -403535.44, -5729.108, 0.0017247692, 0.0010731822, 18462.48, 18462.48, 0.0, 2.5004754, 2.4990783 
3.138091e+2, 5.871911e+1, 18261.434, -403551.97, -5584.8643, 0.001121808, 0.0012121137, 18335.365, 18335.365, 0.0, 2.5004752, 2.4990783 
3.1380904e+2, 6.121827e+1, 60672.38, -314043.94, -4958.542, 0.0014080228, 0.0021074684, 60737.984, 60737.984, 0.0, 2.5004737, 2.4992328 
3.1380904e+2, 6.37175e+1, 60911.03, -311169.06, -5135.33, 0.0026294447, 0.0015501785, 60981.895, 60981.895, 0.0, 2.500471, 2.499239 
3.138091e+2, 6.621674e+1, 59437.58, -311846.03, -5648.177, 0.0038583528, 0.0009804256, 59523.48, 59523.48, 0.0, 2.5004685, 2.499239 
3.138091e+2, 6.871597e+1, 57960.39, -312524.8, -6161.406, 0.005094816, 0.0004120806, 58062.832, 58062.832, 0.0, 2.500466, 2.499239 
3.1380904e+2, 7.1215296e+1, 98657.49, -227216.58, -6858.277, 0.0054026153, 0.0015558361, 98801.766, 98801.766, 0.0, 2.5004652, 2.4993858 
3.1380904e+2, 7.3714674e+1, 101075.76, -223235.67, -4822.595, 0.004769781, 0.0013289945, 101147.46, 101147.46, 0.0, 2.5004663, 2.4993923 
3.1380904e+2, 7.6214063e+1, 101737.08, -222897.38, -4824.117, 0.0041491673, 0.0010795916, 101808.75, 101808.75, 0.0, 2.5004675, 2.4993923 
3.1380904e+2, 7.871345e+1, 102393.5, -222561.44, -4826.1973, 0.0035408398, 0.00082923385, 102465.164, 102465.164, 0.0, 2.5004685, 2.4993923 
3.1380904e+2, 8.1212926e+1, 143724.17, -135938.8, -6205.559, 0.004302333, 0.0014175485, 143861.8, 143861.8, 0.0, 2.5004678, 2.4995413 
3.1380904e+2, 8.3712465e+1, 143654.39, -133306.13, -2745.6572, 0.005565943, 0.000654781, 143681.61, 143681.61, 0.0, 2.5004647, 2.4995472 
3.138091e+2, 8.6212003e+1, 141914.02, -134130.84, -2885.1533, 0.0068288934, -0.00012470373, 141944.17, 141944.17, 0.0, 2.5004618, 2.4995472 
3.1380913e+2, 8.871154e+1, 140166.48, -134959.02, -3024.304, 0.008097731, -0.0009048969, 140199.72, 140199.72, 0.0, 2.5004587, 2.4995475 
3.1380913e+2, 9.12112e+1, 182456.38, -47348.066, -5636.3525, 0.0075203185, 0.002524706, 182594.53, 182594.53, 0.0, 2.500459, 2.4996977 
3.1380913e+2, 9.3710893e+1, 186189.13, -43338.938, -1855.3151, 0.006772312, 0.002286233, 186204.13, 186204.13, 0.0, 2.500463, 2.4997027 
3.1380916e+2, 9.6210593e+1, 188534.02, -42193.12, -1976.6766, 0.0060703126, 0.0019778335, 188550.95, 188550.95, 0.0, 2.500467, 2.4997027 
3.1380916e+2, 9.8710287e+1, 190864.78, -41054.105, -2096.584, 0.005399799, 0.0016623472, 190883.73, 190883.73, 0.0, 2.500471, 2.4997027 
3.1630975e+2, 1.249156e+0, -188731.47, -848594.3, -739.0441, -0.0025023157, 0.00010267919, -188730.64, -188730.64, 0.0, 2.5004914, 2.4983072 
3.1630975e+2, 3.747468e+0, -189294.05, -849293.7, -763.33356, -0.0013560137, 0.00030942605, -189293.17, -189293.17, 0.0, 2.500491, 2.4983063 
3.1630978e+2, 6.2457806e+0, -189582.47, -849420.75, -732.89703, -0.00021304029, 0.00051802513, -189581.66, -189581.66, 0.0, 2.5004904, 2.4983063 
3.1630978e+2, 8.744092e+0, -189872.53, -849548.6, -702.72363, 0.000926605, 0.00072847627, -189871.78, -189871.78, 0.0, 2.50049, 2.4983063 
3.1630978e+2, 1.1242481e+1, -147956.94, -761849.6, -489.01984, 0.0010275826, 0.0010993539, -147956.55, -147956.55, 0.0, 2.5004892, 2.498457 
3.1630975e+2, 1.3740943e+1, -148142.44, -761465.56, -2530.7383, 0.0002400691, 0.0012675207, -148132.0, -148132.0, 0.0, 2.5004883, 2.498458 
3.1630975e+2, 1.6239406e+1, -148610.45, -761665.56, -3216.6768, -0.0005479792, 0.0014412389, -148593.58, -148593.58, 0.0, 2.5004876, 2.4984581 
3.1630972e+2, 1.8737869e+1, -149080.17, -761866.44, -3902.8943, -0.0013367672, 0.0016209502, -149055.31, -149055.31, 0.0, 2.5004866, 2.4984581 
3.1630972e+2, 2.1236408e+1, -106266.67, -672777.06, -2836.1023, -0.001418941, 0.0017252219, -106252.48, -106252.48, 0.0, 2.5004866, 2.498611 
3.1630972e+2, 2.3735018e+1, -105128.266, -671275.8, -4897.242, -0.00059574755, 0.001142617, -105085.91, -105085.91, 0.0, 2.5004876, 2.498613 
3.163097e+2, 2.6233628e+1, -104559.71, -670956.5, -4625.602, 0.00022548495, 0.00056693936, -104521.94, -104521.94, 0.0, 2.5004885, 2.498613 
3.163097e+2, 2.8732237e+1, -103993.05, -670638.06, -4354.907, 0.0010442857, -0.0000002944611, -103959.58, -103959.58, 0.0, 2.5004892, 2.4986134 
3.163097e+2, 3.123093e+1, -62618.62, -584076.8, -1602.4839, 0.0010806667, 0.0004680267, -62613.695, -62613.695, 0.0, 2.5004888, 2.4987621 
3.163097e+2, 3.3729702e+1, -62944.58, -582834.56, -4784.6953, 0.00065717835, 0.0010198953, -62900.547, -62900.547, 0.0, 2.5004866, 2.4987652 
3.1630966e+2, 3.6228478e+1, -64117.57, -583349.0, -5240.155, 0.00022777439, 0.0015772285, -64064.69, -64064.69, 0.0, 2.5004845, 2.4987655 
3.1630963e+2, 3.8727248e+1, -65292.87, -583864.6, -5696.4014, -0.0002087089, 0.002143496, -65230.305, -65230.305, 0.0, 2.5004826, 2.4987655 
3.1630963e+2, 4.1226092e+1, -23682.506, -495659.7, -3861.7385, -0.0001375705, 0.002607443, -23650.912, -23650.912, 0.0, 2.5004807, 2.4989178 
3.1630963e+2, 4.3725005e+1, -23214.225, -493569.72, -6535.754, 0.00075583986, 0.0016453306, -23123.426, -23123.426, 0.0, 2.5004795, 2.4989219 
3.163096e+2, 4.6223924e+1, -23885.93, -493846.06, -6879.739, 0.0016559591, 0.00068691454, -23785.238, -23785.238, 0.0, 2.5004783, 2.498922 
3.163096e+2, 4.8722836e+1, -24560.27, -494123.66, -7224.5586, 0.0025614114, -0.0002617137, -24449.14, -24449.14, 0.0, 2.500477, 2.498922 
3.163096e+2, 5.1221836e+1, 17713.664, -405587.53, -4819.96, 0.002538625, 0.000397097, 17768.54, 17768.54, 0.0, 2.5004761, 2.4990745 
3.1630957e+2, 5.372093e+1, 19014.67, -402660.6, -5924.185, 0.0018293179, 0.0008844053, 19097.883, 19097.883, 0.0, 2.500476, 2.4990795 
3.1630954e+2, 5.6220007e+1, 18896.828, -402676.4, -5775.5713, 0.0011114809, 0.0013700413, 18975.94, 18975.94, 0.0, 2.5004756, 2.4990797 
3.1630954e+2, 5.871909e+1, 18775.873, -402693.72, -5628.07, 0.00038389806, 0.0018640021, 18851.014, 18851.014, 0.0, 2.5004754, 2.4990797 
3.1630954e+2, 6.1218256e+1, 60159.168, -315396.16, -5366.953, 0.00077641074, 0.0027015002, 60235.848, 60235.848, 0.0, 2.500474, 2.4992301 
3.1630954e+2, 6.371748e+1, 60280.28, -312767.06, -5535.0317, 0.0024089874, 0.0017069593, 60362.39, 60362.39, 0.0, 2.5004716, 2.4992359 
3.1630954e+2, 6.621671e+1, 58803.54, -313451.6, -6044.029, 0.004040789, 0.0007015777, 58901.65, 58901.65, 0.0, 2.500469, 2.499236 
3.1630954e+2, 6.871593e+1, 57323.07, -314137.94, -6553.4087, 0.0056714737, -0.0003010537, 57438.65, 57438.65, 0.0, 2.5004663, 2.499236 
3.1630954e+2, 7.121525e+1, 99130.95, -226592.06, -6703.109, 0.0058719683, 0.00083712244, 99268.836, 99268.836, 0.0, 2.5004656, 2.4993868 
3.163095e+2, 7.3714644e+1, 101453.92, -222810.3, -4661.955, 0.0047767516, 0.0011174759, 101520.93, 101520.93, 0.0, 2.5004668, 2.4993927 
3.163095e+2, 7.6214033e+1, 102115.89, -222470.9, -4660.0156, 0.0036848066, 0.0013749393, 102182.78, 102182.78, 0.0, 2.5004678, 2.4993927 
3.163095e+2, 7.8713435e+1, 102772.96, -222133.86, -4658.6343, 0.0025950058, 0.001630631, 102839.75, 102839.75, 0.0, 2.500469, 2.4993927 
3.163095e+2, 8.121291e+1, 144043.31, -135707.45, -6629.645, 0.0035282606, 0.0023762311, 144200.34, 144200.34, 0.0, 2.5004683, 2.4995415 
3.1630954e+2, 8.371244e+1, 143829.38, -133370.33, -3202.9016, 0.005560353, 0.0014515197, 143866.38, 143866.38, 0.0, 2.5004652, 2.499547 
3.1630957e+2, 8.6211973e+1, 142083.39, -134201.7, -3337.8594, 0.0075790626, 0.0005102492, 142123.72, 142123.72, 0.0, 2.5004623, 2.499547 
3.163096e+2, 8.871152e+1, 140330.27, -135036.53, -3472.4717, 0.009591537, -0.00043186898, 140374.05, 140374.05, 0.0, 2.5004592, 2.499547 
3.1630957e+2, 9.1211164e+1, 182898.13, -46952.543, -5056.8965, 0.00836061, 0.0028187493, 183009.33, 183009.33, 0.0, 2.5004597, 2.4996982 
3.1630957e+2, 9.3710864e+1, 186468.6, -43271.063, -1232.0424, 0.0063412054, 0.0024825912, 186475.2, 186475.2, 0.0, 2.5004635, 2.4997025 
3.1630957e+2, 9.6210563e+1, 188809.11, -42122.938, -1343.7081, 0.004349669, 0.0020761162, 188816.92, 188816.92, 0.0, 2.5004675, 2.4997025 
3.1630957e+2, 9.8710257e+1, 191135.5, -40981.605, -1453.9196, 0.0023647374, 0.0016613894, 191144.61, 191144.61, 0.0, 2.5004716, 2.4997027 
3.1881028e+2, 1.24915555e+0, -188005.44, -848158.2, -881.01764, -0.0019360395, 0.000040537438, -188004.27, -188004.27, 0.0, 2.5004926, 2.4983075 
3.1881028e+2, 3.7474665e+0, -188512.72, -848823.6, -1035.3094, -0.0012446314, 0.00012291987, -188511.1, -188511.1, 0.0, 2.500492, 2.4983065 
3.1881028e+2, 6.2457776e+0, -188803.31, -848950.25, -1127.4243, -0.00056370907, 0.00020704659, -188801.39, -188801.39, 0.0, 2.5004916, 2.4983065 
3.1881028e+2, 8.7440884e+0, -189149.4, -849103.7, -1217.1726, 0.00010672799, 0.00029291748, -189147.16, -189147.16, 0.0, 2.500491, 2.4983065 
3.1881028e+2, 1.1242476e+1, -148583.73, -764163.0, -1168.8065, 0.00032285994, 0.0008191021, -148581.52, -148581.52, 0.0, 2.5004902, 2.4984524 
3.1881025e+2, 1.3740939e+1, -148766.31, -763776.56, -3253.1199, 0.00021650612, 0.0013957145, -148749.11, -148749.11, 0.0, 2.5004895, 2.4984536 
3.1881025e+2, 1.62394e+1, -149283.61, -764001.5, -3985.5144, 0.00010342761, 0.0019781357, -149257.77, -149257.77, 0.0, 2.5004885, 2.4984536 
3.1881025e+2, 1.8737863e+1, -149853.52, -764251.8, -4709.517, -0.00001654939, 0.0025668447, -149817.4, -149817.4, 0.0, 2.5004876, 2.4984536 
3.1881022e+2, 2.1236399e+1, -105340.86, -671480.25, -3471.9705, -0.0002341921, 0.0026118685, -105319.57, -105319.57, 0.0, 2.5004873, 2.4986129 
3.1881022e+2, 2.3735006e+1, -104305.23, -670021.4, -5515.9106, -0.00033558867, 0.0015247533, -104251.45, -104251.45, 0.0, 2.500488, 2.498615 
3.188102e+2, 2.6233613e+1, -103888.03, -669773.7, -5263.6357, -0.0004456005, 0.00044382768, -103839.08, -103839.08, 0.0, 2.5004885, 2.4986153 
3.188102e+2, 2.873222e+1, -103517.52, -669548.56, -5001.5986, -0.0005647772, -0.0006294818, -103473.336, -103473.336, 0.0, 2.5004892, 2.4986153 
3.188102e+2, 3.1230915e+1, -63556.234, -585736.9, -2718.2378, -0.00048559104, -0.00011945552, -63542.086, -63542.086, 0.0, 2.5004883, 2.4987595 
3.1881016e+2, 3.372969e+1, -63923.582, -584558.2, -5752.5063, 0.000019606494, 0.0010054302, -63860.03, -63860.03, 0.0, 2.5004864, 2.4987624 
3.1881016e+2, 3.6228466e+1, -65171.832, -585109.9, -6092.4976, 0.0005113321, 0.002135642, -65100.45, -65100.45, 0.0, 2.500484, 2.4987626 
3.188101e+2, 3.8727242e+1, -66483.06, -585692.0, -6419.155, 0.000988818, 0.0032747565, -66403.71, -66403.71, 0.0, 2.5004818, 2.4987626 
3.188101e+2, 4.1226086e+1, -24658.762, -496928.38, -4367.8057, 0.0012383087, 0.003773906, -24618.37, -24618.37, 0.0, 2.5004797, 2.498916 
3.188101e+2, 4.372499e+1, -24298.56, -494962.97, -6816.7397, 0.0016507526, 0.0023150146, -24199.854, -24199.854, 0.0, 2.5004785, 2.49892 
3.1881008e+2, 4.6223897e+1, -25076.348, -495291.84, -6970.1563, 0.002061879, 0.0008603345, -24973.049, -24973.049, 0.0, 2.500477, 2.49892 
3.1881008e+2, 4.8722804e+1, -25898.963, -495642.3, -7106.8247, 0.002469889, -0.00058414665, -25791.469, -25791.469, 0.0, 2.5004756, 2.4989202 
3.1881005e+2, 5.1221806e+1, 17275.35, -405100.06, -4366.4243, 0.0021647841, -0.0000146647, 17320.484, 17320.484, 0.0, 2.5004747, 2.499076 
3.1881005e+2, 5.372089e+1, 18493.154, -402279.47, -5208.3613, 0.0013483299, 0.00082436163, 18557.613, 18557.613, 0.0, 2.5004745, 2.499081 
3.1881002e+2, 5.6219983e+1, 18267.475, -402347.9, -4802.6367, 0.00051516877, 0.0016618844, 18322.305, 18322.305, 0.0, 2.500474, 2.4990811 
3.1881e+2, 5.8719075e+1, 17972.95, -402449.5, -4381.9775, -0.00033568378, 0.0025077707, 18018.615, 18018.615, 0.0, 2.5004735, 2.4990811 
3.1881e+2, 6.121824e+1, 58258.07, -317427.6, -4185.8774, 0.00013896741, 0.003303991, 58304.703, 58304.703, 0.0, 2.500472, 2.4992278 
3.1881e+2, 6.3717455e+1, 58389.574, -314950.06, -4061.0032, 0.0021846895, 0.0018688987, 58433.746, 58433.746, 0.0, 2.5004697, 2.4992332 
3.1881e+2, 6.621668e+1, 56975.363, -315609.5, -4252.701, 0.0042222836, 0.00042429278, 57023.9, 57023.9, 0.0, 2.500467, 2.4992332 
3.1881002e+2, 6.871589e+1, 55515.043, -316291.16, -4430.1323, 0.006250681, -0.0010162768, 55567.82, 55567.82, 0.0, 2.5004647, 2.4992332 
3.1881e+2, 7.121521e+1, 98476.9, -226509.94, -3711.3904, 0.006347115, 0.00012438081, 98519.28, 98519.28, 0.0, 2.500464, 2.4993877 
3.1881e+2, 7.371461e+1, 100811.46, -222854.48, -1393.9967, 0.0047916295, 0.0009088683, 100817.47, 100817.47, 0.0, 2.5004654, 2.4993932 
3.1880996e+2, 7.621401e+1, 101515.23, -222493.78, -1101.7288, 0.0032310057, 0.0016701546, 101518.97, 101518.97, 0.0, 2.5004666, 2.4993932 
3.1880996e+2, 7.871341e+1, 102161.44, -222160.8, -805.4622, 0.0016629647, 0.0024290148, 102163.44, 102163.44, 0.0, 2.5004675, 2.4993935 
3.1880996e+2, 8.1212884e+1, 143492.67, -135903.94, -3090.3591, 0.0027620462, 0.003341127, 143526.84, 143526.84, 0.0, 2.5004673, 2.4995418 
3.1881e+2, 8.3712417e+1, 143454.3, -133682.14, 525.9734, 0.005567335, 0.0022502947, 143455.3, 143455.3, 0.0, 2.5004647, 2.4995468 
3.1881002e+2, 8.621195e+1, 141943.27, -134404.14, 634.3017, 0.008347542, 0.0011429549, 141944.72, 141944.72, 0.0, 2.500462, 2.4995468 
3.1881005e+2, 8.871149e+1, 140362.11, -135159.92, 746.52814, 0.011110329, 0.000034688568, 140364.13, 140364.13, 0.0, 2.5004594, 2.4995468 
3.1881002e+2, 9.1211134e+1, 183385.3, -46564.375, 400.91992, 0.009196663, 0.0031276124, 183385.98, 183385.98, 0.0, 2.5004601, 2.4996984 
3.1881002e+2, 9.371083e+1, 186986.08, -43078.363, 4368.053, 0.005910675, 0.0026897173, 187068.97, 187068.97, 0.0, 2.5004644, 2.4997025 
3.1881002e+2, 9.621053e+1, 189322.52, -41928.316, 4375.5054, 0.0026361556, 0.0021805994, 189405.28, 189405.28, 0.0, 2.5004685, 2.4997025 
3.1881002e+2, 9.8710227e+1, 191476.88, -40865.96, 4377.3794, -0.00065539515, 0.0016619142, 191559.31, 191559.31, 0.0, 2.5004723, 2.4997025 
3.2131076e+2, 1.24915436e+0, -188014.47, -849060.94, -911.6789, -0.00084530277, 0.000034409455, -188013.2, -188013.2, 0.0, 2.5004935, 2.4983053 
3.2131076e+2, 3.7474632e+0, -187140.83, -849042.06, -1377.5905, -0.0008545418, 0.000104191444, -187137.97, -187137.97, 0.0, 2.5004954, 2.4983044 
3.2131076e+2, 6.2457716e+0, -186003.19, -848472.56, -1779.0542, -0.0008522679, 0.00017525836, -185998.42, -185998.42, 0.0, 2.5004973, 2.4983046 
3.2131076e+2, 8.7440807e+0, -184866.9, -847903.7, -2180.7346, -0.0008384808, 0.00024761003, -184859.72, -184859.72, 0.0, 2.5004992, 2.4983046 
3.2131076e+2, 1.1242467e+1, -143971.7, -762949.75, -2189.9797, -0.00060156285, 0.000794131, -143963.95, -143963.95, 0.0, 2.5004992, 2.4984503 
3.2131073e+2, 1.3740927e+1, -144595.97, -762758.9, -3416.792, -0.000042946667, 0.0014297072, -144577.1, -144577.1, 0.0, 2.5004976, 2.4984512 
3.2131073e+2, 1.6239387e+1, -145498.25, -763144.25, -3326.8398, 0.0005248707, 0.0020707026, -145480.33, -145480.33, 0.0, 2.5004961, 2.4984515 
3.2131073e+2, 1.8737848e+1, -146401.56, -763530.2, -3237.3499, 0.0011017586, 0.0027175914, -146384.58, -146384.58, 0.0, 2.5004945, 2.4984515 
3.2131073e+2, 2.1236384e+1, -102207.0, -670486.75, -1834.8717, 0.0009212497, 0.002807784, -102201.07, -102201.07, 0.0, 2.500493, 2.4986117 
3.213107e+2, 2.373499e+1, -101915.58, -669391.8, -4689.618, 0.00023153568, 0.0017829959, -101876.82, -101876.82, 0.0, 2.5004926, 2.4986138 
3.2131067e+2, 2.6233596e+1, -102172.92, -669436.25, -5308.7173, -0.00044708222, 0.00076624757, -102123.24, -102123.24, 0.0, 2.500492, 2.498614 
3.2131067e+2, 2.87322e+1, -102431.52, -669481.3, -5928.498, -0.0011152556, -0.00024110667, -102369.55, -102369.55, 0.0, 2.5004916, 2.4986143 
3.2131067e+2, 3.1230894e+1, -62695.547, -585606.94, -4250.858, -0.0010832797, 0.00021144774, -62660.992, -62660.992, 0.0, 2.5004902, 2.4987588 
3.2131064e+2, 3.3729666e+1, -62649.14, -584230.5, -6853.378, -0.00018734403, 0.0011711483, -62559.105, -62559.105, 0.0, 2.5004888, 2.498762 
3.2131064e+2, 3.622844e+1, -63394.242, -584498.6, -6852.004, 0.0007253089, 0.0021392393, -63304.16, -63304.16, 0.0, 2.5004873, 2.4987621 
3.213106e+2, 3.8727215e+1, -64141.348, -584767.7, -6851.551, 0.0016542051, 0.0031192377, -64051.195, -64051.195, 0.0, 2.5004861, 2.4987621 
3.213106e+2, 4.122606e+1, -21870.277, -495651.78, -4566.3105, 0.0019336155, 0.0036309487, -21826.271, -21826.271, 0.0, 2.5004847, 2.498916 
3.2131058e+2, 4.372497e+1, -21231.629, -493601.16, -6973.033, 0.0020083534, 0.0023964539, -21128.717, -21128.717, 0.0, 2.5004838, 2.4989197 
3.2131058e+2, 4.6223873e+1, -21627.021, -493698.7, -7156.497, 0.0020915677, 0.0011632845, -21518.555, -21518.555, 0.0, 2.500483, 2.49892 
3.2131055e+2, 4.8722783e+1, -22024.227, -493797.1, -7340.9175, 0.002181094, -0.00006276261, -21910.027, -21910.027, 0.0, 2.5004823, 2.4989202 
3.2131055e+2, 5.122179e+1, 20766.773, -402913.25, -5142.0996, 0.0018376695, 0.0004957309, 20829.172, 20829.172, 0.0, 2.5004802, 2.499077 
3.2131052e+2, 5.3720874e+1, 20339.436, -400962.94, -6781.3696, 0.0012733823, 0.0011478586, 20448.563, 20448.563, 0.0, 2.500477, 2.4990819 
3.213105e+2, 5.6219965e+1, 18609.863, -401715.25, -7228.7363, 0.00072958984, 0.0017930116, 18734.145, 18734.145, 0.0, 2.500474, 2.499082 
3.213105e+2, 5.871905e+1, 16877.123, -402469.1, -7676.6514, 0.00020539507, 0.0024407262, 17017.607, 17017.607, 0.0, 2.5004709, 2.4990823 
3.2131046e+2, 6.1218214e+1, 57059.0, -317534.16, -7699.921, 0.00067954854, 0.0031766682, 57217.207, 57217.207, 0.0, 2.5004694, 2.4992287 
3.2131046e+2, 6.3717437e+1, 58602.16, -314485.75, -7357.8765, 0.0024700838, 0.0018709231, 58747.215, 58747.215, 0.0, 2.5004697, 2.499234 
3.213105e+2, 6.6216654e+1, 58734.023, -314365.8, -7348.6123, 0.004273233, 0.00055407896, 58878.703, 58878.703, 0.0, 2.5004697, 2.499234 
3.213105e+2, 6.8715876e+1, 58863.12, -314247.25, -7339.9233, 0.006087335, -0.0007605968, 59007.46, 59007.46, 0.0, 2.50047, 2.4992342 
3.2131046e+2, 7.1215194e+1, 101822.06, -224017.34, -6670.6377, 0.0060869707, 0.00039780673, 101958.56, 101958.56, 0.0, 2.500469, 2.4993896 
3.2131046e+2, 7.37146e+1, 101857.945, -221636.63, -4902.715, 0.0047005853, 0.0011729922, 101932.234, 101932.234, 0.0, 2.5004663, 2.499395 
3.2131046e+2, 7.6214e+1, 100430.64, -222287.72, -5146.438, 0.0033288181, 0.0019308263, 100512.69, 100512.69, 0.0, 2.500464, 2.499395 
3.2131043e+2, 7.87134e+1, 98999.24, -222940.8, -5390.775, 0.001968329, 0.0026915416, 99089.484, 99089.484, 0.0, 2.5004613, 2.4993951 
3.2131043e+2, 8.121288e+1, 140080.55, -136849.25, -8048.559, 0.003157265, 0.0036609708, 140314.27, 140314.27, 0.0, 2.5004606, 2.4995432 
3.2131046e+2, 8.371241e+1, 141697.55, -134047.75, -4744.1514, 0.005860649, 0.0027283786, 141779.14, 141779.14, 0.0, 2.500461, 2.4995477 
3.213105e+2, 8.621195e+1, 142048.81, -133862.39, -4906.4927, 0.008571066, 0.0017819584, 142136.03, 142136.03, 0.0, 2.5004618, 2.4995477 
3.2131052e+2, 8.871149e+1, 142393.16, -133680.34, -5068.695, 0.0112968255, 0.0008369564, 142486.19, 142486.19, 0.0, 2.5004623, 2.499548 
3.213105e+2, 9.1211134e+1, 184850.7, -45587.523, -5263.372, 0.0090041915, 0.0038805478, 184970.86, 184970.86, 0.0, 2.5004625, 2.499699 
3.213105e+2, 9.371084e+1, 185214.97, -43945.69, -1670.4869, 0.005922973, 0.003381983, 185227.14, 185227.14, 0.0, 2.5004616, 2.4997025 
3.213105e+2, 9.6210533e+1, 184651.47, -44205.758, -1996.1875, 0.0028940663, 0.0028106968, 184668.88, 184668.88, 0.0, 2.5004606, 2.4997025 
3.213105e+2, 9.871022e+1, 184075.69, -44471.734, -2319.01, -0.00011841584, 0.0022266195, 184099.22, 184099.22, 0.0, 2.5004594, 2.4997025 
3.238113e+2, 1.2491534e+0, -188740.2, -850569.7, -620.40845, 0.00021955384, 0.00006892949, -188739.63, -188739.63, 0.0, 2.5004935, 2.4983027 
3.2381126e+2, 3.7474602e+0, -187857.1, -850533.1, -1088.5519, -0.0006732124, 0.0002077038, -187855.3, -187855.3, 0.0, 2.5004954, 2.498302 
3.2381126e+2, 6.245767e+0, -186719.48, -849965.7, -1487.9257, -0.001560523, 0.00034769933, -186716.16, -186716.16, 0.0, 2.5004973, 2.498302 
3.2381123e+2, 8.744074e+0, -185583.23, -849398.9, -1887.516, -0.0024423774, 0.00048891595, -185577.86, -185577.86, 0.0, 2.5004992, 2.498302 
3.2381126e+2, 1.12424575e+1, -143749.1, -762499.25, -2475.912, -0.002270477, 0.00092189066, -143739.19, -143739.19, 0.0, 2.5004992, 2.498451 
3.2381123e+2, 1.3740917e+1, -144381.75, -762329.4, -3663.121, -0.00095915573, 0.0012958867, -144360.03, -144360.03, 0.0, 2.5004978, 2.498452 
3.2381123e+2, 1.6239375e+1, -145281.5, -762713.2, -3570.9297, 0.0003569316, 0.0016751763, -145260.84, -145260.84, 0.0, 2.5004961, 2.4984522 
3.2381123e+2, 1.8737835e+1, -146182.31, -763097.5, -3479.2004, 0.001677679, 0.002060187, -146162.69, -146162.69, 0.0, 2.5004945, 2.4984522 
3.2381123e+2, 2.1236368e+1, -103231.836, -672660.06, -1977.4537, 0.0017263609, 0.002281924, -103224.97, -103224.97, 0.0, 2.5004933, 2.498608 
3.2381117e+2, 2.3734976e+1, -102983.34, -671660.3, -4775.5645, 0.0007660399, 0.0018052818, -102943.24, -102943.24, 0.0, 2.5004926, 2.49861 
3.2381117e+2, 2.6233584e+1, -103238.59, -671706.25, -5392.676, -0.00018788941, 0.0013369013, -103187.44, -103187.44, 0.0, 2.500492, 2.49861 
3.2381114e+2, 2.8732193e+1, -103495.1, -671752.9, -6010.4688, -0.0011361191, 0.0008781039, -103431.53, -103431.53, 0.0, 2.5004916, 2.4986103 
3.2381114e+2, 3.1230882e+1, -62529.727, -585355.06, -4563.6294, -0.0012270448, 0.0011666635, -62489.895, -62489.895, 0.0, 2.5004902, 2.4987593 
3.238111e+2, 3.3729646e+1, -62512.5, -584046.44, -7069.9155, -0.00028421794, 0.0013043057, -62416.68, -62416.68, 0.0, 2.500489, 2.4987621 
3.238111e+2, 3.622841e+1, -63254.1, -584314.3, -7066.038, 0.0006693159, 0.0014507142, -63158.297, -63158.297, 0.0, 2.5004876, 2.4987624 
3.2381108e+2, 3.8727176e+1, -63997.703, -584583.1, -7063.0806, 0.0016330465, 0.0016091604, -63901.89, -63901.89, 0.0, 2.5004861, 2.4987624 
3.2381108e+2, 4.122602e+1, -21956.576, -495975.6, -4761.571, 0.0018420778, 0.0021052118, -21908.75, -21908.75, 0.0, 2.5004847, 2.4989152 
3.2381105e+2, 4.3724933e+1, -21383.781, -494068.4, -7101.6494, 0.0017330177, 0.0017350175, -21277.111, -21277.111, 0.0, 2.500484, 2.4989188 
3.2381102e+2, 4.622385e+1, -21776.74, -494167.22, -7282.9517, 0.0016267532, 0.0013673455, -21664.484, -21664.484, 0.0, 2.5004833, 2.498919 
3.2381102e+2, 4.8722768e+1, -22171.512, -494266.9, -7465.2104, 0.001521152, 0.0010077432, -22053.494, -22053.494, 0.0, 2.5004826, 2.4989192 
3.23811e+2, 5.122177e+1, 20296.59, -404109.97, -5666.591, 0.0013471283, 0.0016227575, 20372.236, 20372.236, 0.0, 2.5004804, 2.499075 
3.23811e+2, 5.372085e+1, 19765.762, -402377.34, -7255.687, 0.0013993627, 0.0015849285, 19890.436, 19890.436, 0.0, 2.5004773, 2.4990795 
3.2381096e+2, 5.621993e+1, 18034.787, -403134.72, -7699.983, 0.0014649922, 0.0015431632, 18175.514, 18175.514, 0.0, 2.5004742, 2.4990795 
3.2381096e+2, 5.8719003e+1, 16300.645, -403893.6, -8144.8276, 0.0015426913, 0.0015065513, 16458.46, 16458.46, 0.0, 2.500471, 2.4990797 
3.2381094e+2, 6.1218166e+1, 57480.203, -316950.03, -7702.98, 0.0019184455, 0.0021487956, 57638.605, 57638.605, 0.0, 2.5004697, 2.4992297 
3.2381094e+2, 6.371739e+1, 58936.94, -314083.78, -7345.523, 0.0029153517, 0.0014496832, 59081.53, 59081.53, 0.0, 2.50047, 2.4992344 
3.2381094e+2, 6.6216624e+1, 59068.86, -313965.66, -7334.1445, 0.003919296, 0.0007415312, 59212.996, 59212.996, 0.0, 2.5004702, 2.4992347 
3.2381094e+2, 6.871585e+1, 59198.016, -313848.88, -7323.342, 0.004928456, 0.000037032165, 59341.727, 59341.727, 0.0, 2.5004702, 2.4992347 
3.238109e+2, 7.1215165e+1, 101883.79, -224247.33, -7032.665, 0.0047912793, 0.0012269618, 102035.375, 102035.375, 0.0, 2.5004692, 2.499389 
3.238109e+2, 7.371456e+1, 101784.5, -222152.0, -5289.458, 0.004103958, 0.0015338602, 101870.84, 101870.84, 0.0, 2.5004668, 2.4993937 
3.238109e+2, 7.6213956e+1, 100357.84, -222805.45, -5530.3286, 0.0034249567, 0.0018230465, 100452.46, 100452.46, 0.0, 2.5004642, 2.499394 
3.238109e+2, 7.871336e+1, 98927.11, -223460.88, -5771.8135, 0.0027498438, 0.002114087, 99030.414, 99030.414, 0.0, 2.5004618, 2.499394 
3.2381088e+2, 8.121283e+1, 140362.63, -136692.8, -7929.044, 0.0039051063, 0.0030292452, 140589.36, 140589.36, 0.0, 2.500461, 2.4995432 
3.238109e+2, 8.371237e+1, 141825.23, -134214.16, -4661.204, 0.0057209437, 0.0025482357, 141903.92, 141903.92, 0.0, 2.5004616, 2.4995472 
3.2381094e+2, 8.6211914e+1, 142178.61, -134025.58, -4820.0967, 0.007533125, 0.0020518622, 142262.7, 142262.7, 0.0, 2.5004623, 2.4995472 
3.2381096e+2, 8.871146e+1, 142525.08, -133840.33, -4978.8496, 0.009350771, 0.0015548528, 142614.75, 142614.75, 0.0, 2.5004628, 2.4995472 
3.2381094e+2, 9.1211104e+1, 184929.75, -45948.875, -5352.335, 0.006869813, 0.0046450356, 185053.75, 185053.75, 0.0, 2.500463, 2.4996982 
3.2381094e+2, 9.37108e+1, 185095.7, -44716.75, -1808.794, 0.005238034, 0.00414076, 185109.94, 185109.94, 0.0, 2.500462, 2.4997008 
3.2381096e+2, 9.62105e+1, 184535.97, -44967.42, -2138.8472, 0.0036462035, 0.0035667894, 184555.9, 184555.9, 0.0, 2.500461, 2.4997008 
3.2381096e+2, 9.871018e+1, 183964.55, -45223.727, -2466.9597, 0.0020513402, 0.0029802173, 183991.1, 183991.1, 0.0, 2.5004601, 2.4997008 
3.2631177e+2, 1.2491524e+0, -189466.33, -852079.3, -329.05844, 0.0012847356, 0.000102705446, -189466.17, -189466.17, 0.0, 2.5004935, 2.4983 
3.2631177e+2, 3.7474573e+0, -188574.58, -852026.75, -799.11615, -0.00049090746, 0.00030898393, -188573.63, -188573.63, 0.0, 2.5004954, 2.4982994 
3.2631174e+2, 6.245762e+0, -187437.02, -851461.4, -1196.3998, -0.0022671518, 0.00051641994, -187434.86, -187434.86, 0.0, 2.5004973, 2.4982994 
3.263117e+2, 8.744067e+0, -186300.8, -850896.7, -1593.9001, -0.0040439973, 0.0007250134, -186296.97, -186296.97, 0.0, 2.5004992, 2.4982994 
3.263117e+2, 1.12424485e+1, -143534.6, -762065.56, -2760.63, -0.0039415434, 0.0010493104, -143522.28, -143522.28, 0.0, 2.5004992, 2.4984517 
3.2631174e+2, 1.3740905e+1, -144168.9, -761902.75, -3909.0798, -0.0018789666, 0.001157954, -144144.17, -144144.17, 0.0, 2.5004978, 2.4984527 
3.2631174e+2, 1.6239363e+1, -145066.14, -762285.0, -3814.6492, 0.00018395405, 0.0012717491, -145042.58, -145042.58, 0.0, 2.5004961, 2.498453 
3.2631174e+2, 1.873782e+1, -145964.44, -762667.7, -3720.6807, 0.0022471242, 0.0013910928, -145941.98, -145941.98, 0.0, 2.5004945, 2.498453 
3.2631174e+2, 2.1236353e+1, -104271.766, -674864.75, -2118.572, 0.0025410147, 0.0017557245, -104263.9, -104263.9, 0.0, 2.5004933, 2.4986043 
3.263117e+2, 2.3734963e+1, -104052.12, -673930.9, -4860.7095, 0.0013092875, 0.0018245667, -104010.664, -104010.664, 0.0, 2.5004928, 2.498606 
3.2631168e+2, 2.6233572e+1, -104305.27, -673978.4, -5475.833, 0.000079163154, 0.0019018246, -104252.64, -104252.64, 0.0, 2.5004923, 2.4986062 
3.2631165e+2, 2.873218e+1, -104559.69, -674026.44, -6091.638, -0.0011500064, 0.001988855, -104494.53, -104494.53, 0.0, 2.5004916, 2.4986064 
3.2631165e+2, 3.1230867e+1, -62371.94, -585119.8, -4869.713, -0.0013776472, 0.0021165416, -62326.582, -62326.582, 0.0, 2.5004904, 2.4987595 
3.2631162e+2, 3.3729622e+1, -62376.684, -583864.06, -7285.6177, -0.00038986438, 0.0014297436, -62274.918, -62274.918, 0.0, 2.500489, 2.4987624 
3.2631162e+2, 3.622838e+1, -63114.78, -584131.7, -7279.236, 0.0006027168, 0.00075204985, -63013.1, -63013.1, 0.0, 2.5004876, 2.4987626 
3.263116e+2, 3.8727137e+1, -63854.88, -584400.3, -7273.7744, 0.0015994484, 0.00008652455, -63753.26, -63753.26, 0.0, 2.5004864, 2.4987628 
3.263116e+2, 4.122598e+1, -22059.828, -496334.66, -4954.9688, 0.0017640542, 0.0005775924, -22008.066, -22008.066, 0.0, 2.500485, 2.4989145 
3.2631156e+2, 4.3724903e+1, -21536.62, -494537.06, -7229.2603, 0.0014700806, 0.0010691879, -21426.154, -21426.154, 0.0, 2.5004842, 2.4989178 
3.2631153e+2, 4.6223828e+1, -21927.143, -494637.16, -7408.401, 0.0011729707, 0.0015643917, -21811.066, -21811.066, 0.0, 2.5004835, 2.498918 
3.263115e+2, 4.8722753e+1, -22319.48, -494738.16, -7588.498, 0.0008708758, 0.002068613, -22197.617, -22197.617, 0.0, 2.5004826, 2.4989183 
3.263115e+2, 5.122175e+1, 19812.342, -405335.9, -6179.626, 0.00084962643, 0.002750813, 19902.145, 19902.145, 0.0, 2.5004807, 2.4990728 
3.2631147e+2, 5.372082e+1, 19191.385, -403793.2, -7729.034, 0.0015187069, 0.0020203213, 19332.568, 19332.568, 0.0, 2.5004776, 2.4990768 
3.2631147e+2, 5.621989e+1, 17459.006, -404555.63, -8170.26, 0.0021942747, 0.0012887954, 17617.125, 17617.125, 0.0, 2.5004745, 2.499077 
3.2631144e+2, 5.871896e+1, 15723.462, -405319.56, -8612.034, 0.0028743837, 0.00056501443, 15899.539, 15899.539, 0.0, 2.5004714, 2.499077 
3.2631144e+2, 6.121812e+1, 57885.875, -316398.16, -7696.316, 0.0031645147, 0.0011200423, 58044.066, 58044.066, 0.0, 2.50047, 2.4992304 
3.2631144e+2, 6.3717353e+1, 59271.13, -313683.06, -7332.5146, 0.0033683018, 0.0010250614, 59415.234, 59415.234, 0.0, 2.5004702, 2.499235 
3.263114e+2, 6.621658e+1, 59403.1, -313566.75, -7319.0225, 0.003573389, 0.000923001, 59546.67, 59546.67, 0.0, 2.5004704, 2.4992352 
3.263114e+2, 6.871582e+1, 59532.316, -313451.75, -7306.106, 0.0037779554, 0.00082607835, 59675.375, 59675.375, 0.0, 2.5004706, 2.4992352 
3.2631138e+2, 7.121514e+1, 101928.1, -224513.52, -7383.7393, 0.0034957547, 0.0020599712, 102095.03, 102095.03, 0.0, 2.5004697, 2.4993885 
3.2631138e+2, 7.371453e+1, 101710.29, -222668.94, -5675.548, 0.0035086013, 0.0018956668, 101809.56, 101809.56, 0.0, 2.500467, 2.4993927 
3.2631138e+2, 7.621392e+1, 100284.305, -223324.73, -5913.5664, 0.0035235705, 0.0017130933, 100392.33, 100392.33, 0.0, 2.5004647, 2.4993927 
3.2631138e+2, 7.871331e+1, 98854.23, -223982.52, -6152.199, 0.003535039, 0.0015313472, 98971.43, 98971.43, 0.0, 2.5004623, 2.499393 
3.2631138e+2, 8.121278e+1, 140629.75, -136567.4, -7801.3975, 0.004655913, 0.0023986308, 140849.14, 140849.14, 0.0, 2.5004616, 2.4995432 
3.2631138e+2, 8.3712333e+1, 141952.34, -134381.78, -4578.6543, 0.0055834968, 0.0023665112, 142028.19, 142028.19, 0.0, 2.500462, 2.4995468 
3.263114e+2, 8.621188e+1, 142307.83, -134190.0, -4734.0977, 0.0064967554, 0.002317371, 142388.86, 142388.86, 0.0, 2.5004628, 2.4995468 
3.263114e+2, 8.871143e+1, 142656.42, -134001.55, -4889.4014, 0.0074056, 0.0022655413, 142742.8, 142742.8, 0.0, 2.5004632, 2.4995468 
3.2631138e+2, 9.1211075e+1, 184989.13, -46350.395, -5429.405, 0.0047497493, 0.005422431, 185116.48, 185116.48, 0.0, 2.5004635, 2.4996972 
3.263114e+2, 9.371076e+1, 184972.0, -45491.17, -1941.9176, 0.004563609, 0.004908341, 184988.36, 184988.36, 0.0, 2.5004625, 2.499699 
3.2631144e+2, 9.6210456e+1, 184411.31, -45734.734, -2264.4175, 0.004404836, 0.0043272367, 184433.6, 184433.6, 0.0, 2.5004616, 2.499699 
3.2631147e+2, 9.871015e+1, 183838.94, -45983.93, -2584.9768, 0.004223571, 0.003733719, 183868.02, 183868.02, 0.0, 2.5004606, 2.4996994 
3.288123e+2, 1.2491514e+0, -188574.77, -852818.44, -88.57133, 0.0023570757, 0.00013581812, -188574.75, -188574.75, 0.0, 2.5004964, 2.4982975 
3.2881224e+2, 3.7474543e+0, -187724.05, -852775.0, -658.3878, -0.0003009475, 0.00040829965, -187723.39, -187723.39, 0.0, 2.500498, 2.4982967 
3.288122e+2, 6.2457573e+0, -186686.55, -852259.6, -1148.1985, -0.0029650673, 0.000681909, -186684.58, -186684.58, 0.0, 2.5005, 2.4982967 
3.2881218e+2, 8.74406e+0, -185701.66, -851769.6, -1634.5956, -0.0056352834, 0.00095664593, -185697.64, -185697.64, 0.0, 2.5005016, 2.4982967 
3.2881218e+2, 1.12424396e+1, -142113.27, -761070.25, -3467.532, -0.0056067547, 0.0011773827, -142093.84, -142093.84, 0.0, 2.5005014, 2.4984524 
3.288122e+2, 1.3740893e+1, -142774.25, -760915.3, -4662.193, -0.0027956637, 0.0010171449, -142739.1, -142739.1, 0.0, 2.5004997, 2.4984534 
3.288122e+2, 1.623935e+1, -143724.8, -761322.1, -4642.06, 0.00001164281, 0.0008619248, -143689.9, -143689.9, 0.0, 2.500498, 2.4984536 
3.288122e+2, 1.8737805e+1, -144700.5, -761741.1, -4614.7954, 0.0028150699, 0.0007121058, -144666.0, -144666.0, 0.0, 2.5004964, 2.4984536 
3.288122e+2, 2.1236338e+1, -104409.4, -676660.1, -2943.2744, 0.0033695886, 0.0012309715, -104394.266, -104394.266, 0.0, 2.500495, 2.4986002 
3.2881218e+2, 2.3734947e+1, -104382.79, -675847.8, -5619.9053, 0.0018652556, 0.0018422792, -104327.53, -104327.53, 0.0, 2.500494, 2.4986022 
3.2881215e+2, 2.623356e+1, -104840.18, -675995.3, -6210.587, 0.00035800575, 0.0024620008, -104772.66, -104772.66, 0.0, 2.5004933, 2.4986024 
3.2881212e+2, 2.873217e+1, -105326.9, -676156.94, -6789.6787, -0.0011526805, 0.003091596, -105246.15, -105246.15, 0.0, 2.5004923, 2.4986024 
3.2881212e+2, 3.123085e+1, -62121.563, -584849.44, -5745.7305, -0.0015309796, 0.003061662, -62058.414, -62058.414, 0.0, 2.5004907, 2.49876 
3.288121e+2, 3.3729598e+1, -62296.945, -583705.7, -8030.9766, -0.00050080434, 0.0015487868, -62173.28, -62173.28, 0.0, 2.500489, 2.4987626 
3.288121e+2, 3.6228347e+1, -63213.22, -584059.6, -7963.066, 0.0005286938, 0.000045142733, -63091.504, -63091.504, 0.0, 2.5004873, 2.4987628 
3.2881206e+2, 3.8727102e+1, -64157.31, -584426.94, -7883.162, 0.0015566264, -0.0014463756, -64037.89, -64037.89, 0.0, 2.5004857, 2.498763 
3.2881206e+2, 4.122594e+1, -22811.598, -497023.25, -5434.38, 0.0017023341, -0.00094973284, -22749.328, -22749.328, 0.0, 2.500484, 2.4989138 
3.2881203e+2, 4.3724874e+1, -22477.129, -495375.22, -7491.6143, 0.0012216829, 0.00040063, -22358.479, -22358.479, 0.0, 2.500483, 2.498917 
3.28812e+2, 4.6223804e+1, -23044.4, -495561.84, -7502.587, 0.00073232845, 0.0017554959, -22925.305, -22925.305, 0.0, 2.5004818, 2.4989173 
3.2881197e+2, 4.8722735e+1, -23637.309, -495760.8, -7500.6123, 0.00023295573, 0.0031202468, -23518.176, -23518.176, 0.0, 2.500481, 2.4989173 
3.2881194e+2, 5.1221734e+1, 18016.768, -407200.0, -6274.9556, 0.00034792215, 0.0038801718, 18109.346, 18109.346, 0.0, 2.5004785, 2.4990704 
3.2881194e+2, 5.3720796e+1, 17278.248, -405837.94, -7581.2925, 0.0016334777, 0.0024546604, 17414.043, 17414.043, 0.0, 2.5004754, 2.4990742 
3.2881194e+2, 5.621986e+1, 15483.581, -406633.56, -7788.827, 0.002919221, 0.0010306482, 15627.25, 15627.25, 0.0, 2.5004723, 2.4990745 
3.288119e+2, 5.871892e+1, 13665.612, -407440.44, -7980.1426, 0.004202394, -0.00038325912, 13816.785, 13816.785, 0.0, 2.5004692, 2.4990747 
3.288119e+2, 6.121807e+1, 56769.195, -316584.6, -6329.1934, 0.0044198777, 0.000090852256, 56876.457, 56876.457, 0.0, 2.5004678, 2.4992313 
3.2881188e+2, 6.371731e+1, 58139.57, -313968.8, -5716.939, 0.0038313894, 0.00059735036, 58227.38, 58227.38, 0.0, 2.500468, 2.4992356 
3.2881185e+2, 6.621655e+1, 58294.902, -313842.25, -5438.643, 0.0032388158, 0.0010984449, 58374.37, 58374.37, 0.0, 2.5004683, 2.4992356 
3.2881185e+2, 6.8715787e+1, 58429.016, -313725.94, -5149.3735, 0.0026405002, 0.0016059774, 58500.25, 58500.25, 0.0, 2.5004685, 2.4992359 
3.2881182e+2, 7.1215117e+1, 100639.01, -225428.89, -5317.853, 0.0022058939, 0.002896134, 100725.72, 100725.72, 0.0, 2.5004678, 2.4993877 
3.2881182e+2, 7.37145e+1, 100557.67, -223685.27, -3401.862, 0.0029203487, 0.0022581941, 100593.36, 100593.36, 0.0, 2.5004656, 2.4993918 
3.2881182e+2, 7.6213884e+1, 99335.305, -224245.25, -3378.301, 0.0036315222, 0.00160123, 99370.57, 99370.57, 0.0, 2.5004635, 2.4993918 
3.2881182e+2, 7.871326e+1, 98073.41, -224824.28, -3349.7097, 0.0043324977, 0.0009440645, 98108.15, 98108.15, 0.0, 2.5004613, 2.4993918 
3.2881182e+2, 8.1212735e+1, 140483.55, -136646.27, -4237.7793, 0.0054190564, 0.0017698961, 140548.34, 140548.34, 0.0, 2.5004613, 2.4995432 
3.2881182e+2, 8.3712286e+1, 142100.92, -134521.53, -851.3911, 0.005457945, 0.0021837025, 142103.55, 142103.55, 0.0, 2.5004625, 2.4995463 
3.2881185e+2, 8.6211836e+1, 142782.4, -134170.72, -789.9572, 0.0054731723, 0.0025789207, 142784.66, 142784.66, 0.0, 2.5004637, 2.4995463 
3.2881185e+2, 8.8711387e+1, 143360.31, -133869.78, -732.20526, 0.005475424, 0.0029696021, 143362.23, 143362.23, 0.0, 2.5004647, 2.4995463 
3.2881182e+2, 9.1211045e+1, 185996.9, -46312.176, -1249.0472, 0.0026599052, 0.006213536, 186003.63, 186003.63, 0.0, 2.5004659, 2.4996963 
3.2881185e+2, 9.371073e+1, 186319.39, -45545.43, 2306.8433, 0.0039166086, 0.0056858733, 186342.34, 186342.34, 0.0, 2.5004656, 2.4996977 
3.2881188e+2, 9.621042e+1, 186043.47, -45645.0, 2114.8994, 0.005189965, 0.0050936686, 186062.77, 186062.77, 0.0, 2.5004652, 2.4996977 
3.2881194e+2, 9.8710114e+1, 185538.13, -45855.043, 1914.0602, 0.006423463, 0.0044893785, 185553.95, 185553.95, 0.0, 2.5004642, 2.4996977 
3.3131278e+2, 1.2491502e+0, -181826.48, -850711.56, -49.808746, 0.0017300822, 0.0001527039, -181826.48, -181826.48, 0.0, 2.500509, 2.498295 
3.3131275e+2, 3.7474507e+0, -183857.2, -852031.8, -330.69772, -0.00048473876, 0.0004600549, -183857.05, -183857.05, 0.0, 2.500506, 2.4982944 
3.3131275e+2, 6.2457514e+0, -185659.44, -852874.9, -532.92065, -0.0026856586, 0.00076999754, -185659.02, -185659.02, 0.0, 2.5005028, 2.4982944 
3.3131272e+2, 8.744052e+0, -187463.2, -853718.7, -735.3812, -0.0048726765, 0.0010825318, -187462.39, -187462.39, 0.0, 2.5004997, 2.4982944 
3.3131272e+2, 1.12424284e+1, -143934.95, -762619.6, -2522.5632, -0.0048652273, 0.0012769992, -143924.67, -143924.67, 0.0, 2.500499, 2.498451 
3.3131272e+2, 1.3740881e+1, -142405.95, -761401.44, -4114.427, -0.0025743505, 0.001035964, -142378.61, -142378.61, 0.0, 2.5005012, 2.498452 
3.3131272e+2, 1.6239335e+1, -141133.97, -760715.75, -4537.945, -0.00027856897, 0.0008006946, -141100.73, -141100.73, 0.0, 2.5005033, 2.4984522 
3.3131272e+2, 1.8737786e+1, -139863.27, -760030.7, -4961.876, 0.0020219982, 0.00057156134, -139823.56, -139823.56, 0.0, 2.5005054, 2.4984524 
3.3131272e+2, 2.1236318e+1, -99263.61, -675121.8, -3624.9321, 0.0025662682, 0.001075783, -99240.79, -99240.79, 0.0, 2.5005047, 2.4985983 
3.313127e+2, 2.3734926e+1, -100166.93, -674751.8, -5713.678, 0.0014899614, 0.001735578, -100110.12, -100110.12, 0.0, 2.5005023, 2.4986 
3.3131266e+2, 2.6233536e+1, -101508.91, -675293.7, -5800.0127, 0.0004221003, 0.0024016974, -101450.29, -101450.29, 0.0, 2.5005, 2.4986002 
3.3131263e+2, 2.8732145e+1, -102851.97, -675836.1, -5887.056, -0.0006376745, 0.0030756048, -102791.49, -102791.49, 0.0, 2.5004976, 2.4986005 
3.3131263e+2, 3.1230825e+1, -59625.492, -583970.3, -4857.5405, -0.00093866955, 0.003026352, -59580.496, -59580.496, 0.0, 2.5004952, 2.498759 
3.313126e+2, 3.372957e+1, -59541.94, -582740.6, -7542.92, -0.00015320511, 0.0014768459, -59433.22, -59433.22, 0.0, 2.5004942, 2.498762 
3.313126e+2, 3.622832e+1, -60126.91, -582900.7, -7973.4688, 0.0006417018, -0.0000679694, -60005.324, -60005.324, 0.0, 2.500493, 2.4987621 
3.3131257e+2, 3.872707e+1, -60713.266, -583061.4, -8404.909, 0.0014449434, -0.0016053758, -60578.06, -60578.06, 0.0, 2.5004919, 2.4987624 
3.3131257e+2, 4.122591e+1, -19596.861, -495478.06, -6442.705, 0.0015136439, -0.001110863, -19509.654, -19509.654, 0.0, 2.5004895, 2.4989138 
3.3131254e+2, 4.372484e+1, -20150.646, -494305.2, -8618.526, 0.0010514037, 0.0003349157, -19994.043, -19994.043, 0.0, 2.500487, 2.4989169 
3.313125e+2, 4.6223778e+1, -21528.47, -494845.2, -8844.286, 0.0006014009, 0.0017833954, -21363.266, -21363.266, 0.0, 2.5004845, 2.4989173 
3.3131248e+2, 4.8722708e+1, -22908.629, -495386.3, -9070.81, 0.00016263199, 0.003239722, -22734.547, -22734.547, 0.0, 2.500482, 2.4989176 
3.3131245e+2, 5.122171e+1, 18688.707, -406781.88, -8027.193, 0.00033940942, 0.0039827256, 18840.1, 18840.1, 0.0, 2.5004797, 2.4990706 
3.3131245e+2, 5.3720766e+1, 18739.129, -405117.56, -9164.375, 0.001767615, 0.0024769239, 18937.184, 18937.184, 0.0, 2.500478, 2.4990745 
3.3131242e+2, 5.621983e+1, 17829.695, -405446.75, -9259.648, 0.0032085448, 0.0009646232, 18032.162, 18032.162, 0.0, 2.5004764, 2.4990747 
3.3131242e+2, 5.871889e+1, 16918.15, -405776.94, -9355.778, 0.0046589263, -0.0005458573, 17125.127, 17125.127, 0.0, 2.5004747, 2.499075 
3.313124e+2, 6.121805e+1, 60067.035, -314179.28, -7657.018, 0.004838857, -0.00008888534, 60223.63, 60223.63, 0.0, 2.5004725, 2.499233 
3.3131236e+2, 6.371729e+1, 59820.1, -312464.66, -7478.123, 0.003994077, 0.0005773032, 59970.254, 59970.254, 0.0, 2.5004702, 2.499237 
3.3131236e+2, 6.621653e+1, 58471.15, -313036.0, -7652.126, 0.0031607514, 0.0012321365, 58628.695, 58628.695, 0.0, 2.5004678, 2.4992373 
3.3131233e+2, 6.8715775e+1, 57119.523, -313608.63, -7826.6934, 0.0023372828, 0.0018868771, 57284.684, 57284.684, 0.0, 2.5004654, 2.4992375 
3.313123e+2, 7.1215093e+1, 98578.56, -225933.44, -8381.715, 0.0018973217, 0.0031484351, 98794.91, 98794.91, 0.0, 2.5004637, 2.4993887 
3.313123e+2, 7.3714477e+1, 98801.305, -224218.31, -6733.126, 0.002982077, 0.0024158445, 98941.59, 98941.59, 0.0, 2.5004623, 2.4993925 
3.313123e+2, 7.6213866e+1, 98036.84, -224544.56, -6944.1978, 0.0040859645, 0.0016650656, 98186.266, 98186.266, 0.0, 2.5004609, 2.4993925 
3.3131233e+2, 7.871325e+1, 97268.2, -224872.84, -7155.909, 0.0052010585, 0.00091415306, 97427.086, 97427.086, 0.0, 2.5004597, 2.4993925 
3.313123e+2, 8.1212723e+1, 139792.64, -136228.58, -7820.806, 0.006235798, 0.0016902651, 140014.05, 140014.05, 0.0, 2.5004592, 2.4995449 
3.313123e+2, 8.3712274e+1, 140427.89, -134792.27, -4642.04, 0.005714848, 0.0021636619, 140506.16, 140506.16, 0.0, 2.5004592, 2.4995475 
3.3131233e+2, 8.6211824e+1, 140354.72, -134808.38, -4721.1245, 0.005214117, 0.0026271124, 140435.7, 140435.7, 0.0, 2.500459, 2.4995475 
3.3131233e+2, 8.871138e+1, 140273.39, -134828.42, -4800.117, 0.0047445684, 0.003094263, 140357.11, 140357.11, 0.0, 2.500459, 2.4995475 
3.313123e+2, 9.1211027e+1, 182171.64, -47275.79, -5293.782, 0.0018157833, 0.0062029595, 182293.72, 182293.72, 0.0, 2.5004582, 2.4996982 
3.3131233e+2, 9.3710715e+1, 181096.92, -47456.88, -1406.1978, 0.003987585, 0.0056655724, 181105.56, 181105.56, 0.0, 2.500456, 2.4996989 
3.313124e+2, 9.621041e+1, 179808.55, -48062.453, -1164.3237, 0.006245374, 0.005069709, 179814.48, 179814.48, 0.0, 2.500454, 2.4996989 
3.3131245e+2, 9.8710096e+1, 178513.55, -48671.215, -920.755, 0.008527646, 0.0044650743, 178517.28, 178517.28, 0.0, 2.5004516, 2.4996989 
3.3381325e+2, 1.24914944e+0, -182179.78, -851446.3, -522.89606, -0.0009656512, 0.00015076496, -182179.36, -182179.36, 0.0, 2.500509, 2.4982936 
3.3381325e+2, 3.7474483e+0, -184198.95, -852744.0, -803.37823, -0.0014537756, 0.0004539925, -184197.98, -184197.98, 0.0, 2.500506, 2.498293 
3.3381322e+2, 6.245748e+0, -186000.14, -853586.4, -1003.28735, -0.0019350409, 0.00075948425, -185998.64, -185998.64, 0.0, 2.5005028, 2.4982932 
3.3381322e+2, 8.744047e+0, -187802.88, -854429.5, -1203.4341, -0.0024094468, 0.00106724, -187800.7, -187800.7, 0.0, 2.5004997, 2.4982932 
3.3381322e+2, 1.12424225e+1, -144655.3, -764128.3, -2254.1416, -0.0023673207, 0.0012920334, -144647.1, -144647.1, 0.0, 2.500499, 2.4984484 
3.3381322e+2, 1.3740872e+1, -143143.47, -762948.9, -3801.623, -0.0017028736, 0.0011330043, -143120.16, -143120.16, 0.0, 2.5005012, 2.4984493 
3.338132e+2, 1.6239323e+1, -141870.5, -762264.25, -4222.932, -0.001038137, 0.0009800994, -141841.77, -141841.77, 0.0, 2.5005033, 2.4984496 
3.338132e+2, 1.8737774e+1, -140598.83, -761580.2, -4644.654, -0.0003732632, 0.0008336749, -140564.08, -140564.08, 0.0, 2.5005054, 2.4984496 
3.338132e+2, 2.1236302e+1, -99322.27, -675290.8, -4081.9429, -0.00006713674, 0.0011628105, -99293.35, -99293.35, 0.0, 2.5005047, 2.4985979 
3.3381316e+2, 2.3734905e+1, -100242.25, -674960.4, -6083.7334, -0.000020543332, 0.001425205, -100177.86, -100177.86, 0.0, 2.5005023, 2.4985995 
3.3381316e+2, 2.6233512e+1, -101582.37, -675503.2, -6168.3135, 0.00003048401, 0.0016948123, -101516.086, -101516.086, 0.0, 2.5005, 2.4985998 
3.3381313e+2, 2.8732115e+1, -102923.57, -676046.6, -6253.603, 0.000085718435, 0.0019730043, -102855.34, -102855.34, 0.0, 2.5004976, 2.4986 
3.338131e+2, 3.1230795e+1, -60226.8, -585317.75, -5127.178, 0.0000973954, 0.002025885, -60176.742, -60176.742, 0.0, 2.5004954, 2.498757 
3.338131e+2, 3.3729544e+1, -60207.402, -584227.06, -7722.4126, 0.0004107421, 0.0011334912, -60093.62, -60093.62, 0.0, 2.5004942, 2.4987593 
3.3381307e+2, 3.62283e+1, -60790.54, -584388.75, -8151.157, 0.000729327, 0.00024728183, -60663.676, -60663.676, 0.0, 2.500493, 2.4987595 
3.3381304e+2, 3.872705e+1, -61375.066, -584551.1, -8580.792, 0.0010519383, -0.0006301913, -61234.367, -61234.367, 0.0, 2.5004919, 2.4987597 
3.33813e+2, 4.1225892e+1, -19759.316, -495975.66, -6929.4033, 0.0010022377, -0.00014324824, -19658.51, -19658.51, 0.0, 2.5004897, 2.4989128 
3.3381298e+2, 4.3724814e+1, -20380.69, -494948.47, -9007.237, 0.00080329314, 0.00070742564, -20209.795, -20209.795, 0.0, 2.500487, 2.4989157 
3.3381295e+2, 4.622374e+1, -21757.17, -495490.6, -9230.606, 0.0006109512, 0.0015631117, -21577.38, -21577.38, 0.0, 2.5004847, 2.4989161 
3.3381292e+2, 4.8722667e+1, -23135.984, -496033.8, -9454.739, 0.0004241772, 0.0024285333, -22947.03, -22947.03, 0.0, 2.5004823, 2.4989164 
3.3381292e+2, 5.122166e+1, 18830.836, -406713.88, -8346.54, 0.0005969543, 0.0030645076, 18994.48, 18994.48, 0.0, 2.50048, 2.4990706 
3.338129e+2, 5.372073e+1, 18810.459, -405200.75, -9428.672, 0.0017728416, 0.0020211798, 19020.02, 19020.02, 0.0, 2.5004783, 2.499074 
3.338129e+2, 5.621979e+1, 17900.76, -405534.06, -9521.868, 0.0029566493, 0.00097453577, 18114.771, 18114.771, 0.0, 2.5004766, 2.4990742 
3.3381286e+2, 5.8718854e+1, 16988.953, -405868.38, -9615.922, 0.004145012, -0.00006749558, 17207.51, 17207.51, 0.0, 2.500475, 2.4990745 
3.3381283e+2, 6.121801e+1, 60173.84, -314251.78, -8051.73, 0.004294421, 0.00043984532, 60346.906, 60346.906, 0.0, 2.5004728, 2.4992328 
3.3381283e+2, 6.371725e+1, 59806.176, -312790.16, -7854.364, 0.0036796993, 0.0008402153, 59971.67, 59971.67, 0.0, 2.5004704, 2.4992363 
3.338128e+2, 6.621649e+1, 58455.875, -313365.8, -8025.7393, 0.0030709251, 0.001232131, 58629.03, 58629.03, 0.0, 2.500468, 2.4992366 
3.3381277e+2, 6.871574e+1, 57102.906, -313942.78, -8197.68, 0.0024663426, 0.0016261685, 57283.934, 57283.934, 0.0, 2.5004656, 2.4992368 
3.3381274e+2, 7.121506e+1, 98682.69, -226085.86, -8567.193, 0.0021046791, 0.0027815567, 98908.53, 98908.53, 0.0, 2.500464, 2.4993885 
3.3381274e+2, 7.371444e+1, 98779.555, -224635.45, -6948.2324, 0.0032272784, 0.0022708266, 98928.766, 98928.766, 0.0, 2.5004628, 2.4993916 
3.3381277e+2, 7.621382e+1, 98014.836, -224964.53, -7155.9946, 0.00436092, 0.0017430545, 98173.305, 98173.305, 0.0, 2.5004613, 2.4993916 
3.3381277e+2, 7.871321e+1, 97245.92, -225295.63, -7364.397, 0.0054969415, 0.0012151283, 97413.984, 97413.984, 0.0, 2.50046, 2.4993916 
3.3381274e+2, 8.121269e+1, 140202.3, -135813.73, -7786.4414, 0.0064071296, 0.0019269511, 140421.78, 140421.78, 0.0, 2.5004597, 2.4995453 
3.3381274e+2, 8.371223e+1, 140706.95, -134649.53, -4673.336, 0.0056321593, 0.0021103423, 140786.23, 140786.23, 0.0, 2.5004597, 2.4995475 
3.3381274e+2, 8.621178e+1, 140634.02, -134665.05, -4746.8047, 0.004860875, 0.0022829517, 140715.84, 140715.84, 0.0, 2.5004594, 2.4995475 
3.3381277e+2, 8.871133e+1, 140552.92, -134684.5, -4820.1826, 0.0041040075, 0.0024579258, 140637.31, 140637.31, 0.0, 2.5004592, 2.4995475 
3.338127e+2, 9.1210973e+1, 183273.2, -45512.29, -5534.3477, 0.0009866386, 0.0052028624, 183407.0, 183407.0, 0.0, 2.500459, 2.499701 
3.3381277e+2, 9.371067e+1, 182048.83, -46003.195, -1732.6466, 0.0035386966, 0.00464443, 182062.0, 182062.0, 0.0, 2.5004566, 2.4997013 
3.3381283e+2, 9.6210366e+1, 180756.89, -46603.918, -1483.9587, 0.0061534275, 0.0040289443, 180766.58, 180766.58, 0.0, 2.5004544, 2.4997013 
3.3381286e+2, 9.871006e+1, 179452.2, -47210.79, -1234.1385, 0.008765764, 0.0034029142, 179458.92, 179458.92, 0.0, 2.500452, 2.4997013 
3.3631375e+2, 1.2491487e+0, -182533.55, -852182.06, -995.7104, -0.0036615878, 0.00014808866, -182532.06, -182532.06, 0.0, 2.500509, 2.4982924 
3.3631375e+2, 3.7474462e+0, -184542.0, -853458.94, -1275.8887, -0.0024234222, 0.00044571803, -184539.56, -184539.56, 0.0, 2.500506, 2.4982917 
3.3631375e+2, 6.245744e+0, -186342.16, -854300.7, -1473.4839, -0.0011854395, 0.0007452842, -186338.9, -186338.9, 0.0, 2.5005028, 2.498292 
3.3631375e+2, 8.7440413e+0, -188143.84, -855143.1, -1671.3169, 0.000052360203, 0.0010467869, -188139.66, -188139.66, 0.0, 2.5004997, 2.498292 
3.3631375e+2, 1.1242416e+1, -145383.66, -765653.7, -1985.0458, 0.00013217103, 0.0013056569, -145377.31, -145377.31, 0.0, 2.500499, 2.4984457 
3.3631375e+2, 1.3740864e+1, -143882.39, -764499.3, -3488.3442, -0.00083007687, 0.0012255321, -143862.8, -143862.8, 0.0, 2.5005012, 2.4984467 
3.3631372e+2, 1.6239311e+1, -142608.45, -763815.6, -3907.4443, -0.001796659, 0.0011518771, -142583.88, -142583.88, 0.0, 2.5005033, 2.4984467 
3.363137e+2, 1.873776e+1, -141335.8, -763132.56, -4326.9565, -0.0027677522, 0.0010850468, -141305.69, -141305.69, 0.0, 2.5005054, 2.498447 
3.363137e+2, 2.1236286e+1, -99391.28, -675481.3, -4534.6445, -0.002699843, 0.0012472463, -99355.59, -99355.59, 0.0, 2.5005047, 2.4985976 
3.3631366e+2, 2.3734885e+1, -100318.734, -675171.3, -6453.0405, -0.001531445, 0.0011094293, -100246.305, -100246.305, 0.0, 2.5005023, 2.4985993 
3.3631366e+2, 2.6233485e+1, -101656.99, -675715.1, -6535.866, -0.00036262322, 0.0009796618, -101582.59, -101582.59, 0.0, 2.5005, 2.4985995 
3.3631364e+2, 2.8732085e+1, -102996.336, -676259.5, -6619.4014, 0.00080652634, 0.0008592755, -102919.914, -102919.914, 0.0, 2.5004976, 2.4985998 
3.3631364e+2, 3.1230766e+1, -60841.59, -586693.1, -5391.311, 0.001136946, 0.0010205115, -60786.324, -60786.324, 0.0, 2.5004954, 2.4987543 
3.363136e+2, 3.3729517e+1, -60873.832, -585715.44, -7900.916, 0.0009768431, 0.0007825406, -60754.918, -60754.918, 0.0, 2.5004942, 2.4987566 
3.3631358e+2, 3.6228275e+1, -61455.14, -585878.9, -8327.855, 0.0008177282, 0.0005521933, -61322.926, -61322.926, 0.0, 2.5004933, 2.498757 
3.3631355e+2, 3.8727033e+1, -62037.836, -586042.94, -8755.686, 0.0006583317, 0.00033190957, -61891.58, -61891.58, 0.0, 2.500492, 2.4987571 
3.3631352e+2, 4.122587e+1, -19936.197, -496503.2, -7409.316, 0.0004954298, 0.00081954035, -19821.031, -19821.031, 0.0, 2.50049, 2.4989119 
3.363135e+2, 4.3724787e+1, -20611.492, -495593.34, -9395.047, 0.0005584255, 0.0010725526, -20425.734, -20425.734, 0.0, 2.5004873, 2.4989145 
3.3631346e+2, 4.6223706e+1, -21986.629, -496137.56, -9616.025, 0.00062234665, 0.0013327939, -21791.691, -21791.691, 0.0, 2.500485, 2.4989147 
3.3631343e+2, 4.8722625e+1, -23364.102, -496682.9, -9837.768, 0.0006861698, 0.0016046595, -23159.715, -23159.715, 0.0, 2.5004823, 2.4989152 
3.363134e+2, 5.122162e+1, 18958.008, -406676.97, -8657.061, 0.00085819204, 0.0021431928, 19134.014, 19134.014, 0.0, 2.5004802, 2.4990706 
3.363134e+2, 5.372069e+1, 18881.078, -405285.4, -9691.854, 0.0017817781, 0.0015594899, 19102.414, 19102.414, 0.0, 2.5004785, 2.4990737 
3.3631337e+2, 5.6219757e+1, 17971.115, -405622.84, -9782.974, 0.0027084406, 0.00097553787, 18196.934, 18196.934, 0.0, 2.5004768, 2.499074 
3.3631334e+2, 5.8718824e+1, 17059.045, -405961.3, -9874.951, 0.0036347609, 0.000398991, 17289.44, 17289.44, 0.0, 2.5004752, 2.4990742 
3.3631334e+2, 6.121798e+1, 60259.453, -314368.3, -8436.432, 0.0037532195, 0.00096867484, 60449.34, 60449.34, 0.0, 2.5004733, 2.4992325 
3.363133e+2, 6.371722e+1, 59791.496, -313117.2, -8229.752, 0.003369514, 0.0010996095, 59973.03, 59973.03, 0.0, 2.5004709, 2.4992356 
3.3631328e+2, 6.621645e+1, 58439.85, -313697.2, -8398.5, 0.002986264, 0.0012248158, 58629.293, 58629.293, 0.0, 2.5004683, 2.4992359 
3.3631322e+2, 6.871569e+1, 57085.54, -314278.47, -8567.8125, 0.0026015406, 0.0013543583, 57283.1, 57283.1, 0.0, 2.5004659, 2.499236 
3.363132e+2, 7.121501e+1, 98766.766, -226279.94, -8740.174, 0.0023152172, 0.0024167695, 99001.61, 99001.61, 0.0, 2.5004644, 2.4993877 
3.3631322e+2, 7.37144e+1, 98757.25, -225053.75, -7162.5537, 0.0034773806, 0.0021252674, 98915.6, 98915.6, 0.0, 2.500463, 2.4993906 
3.3631322e+2, 7.6213783e+1, 97992.26, -225385.66, -7367.0063, 0.00464254, 0.0018176626, 98160.0, 98160.0, 0.0, 2.5004618, 2.4993906 
3.3631322e+2, 7.871317e+1, 97223.086, -225719.58, -7572.099, 0.005801254, 0.0015098834, 97400.53, 97400.53, 0.0, 2.5004604, 2.4993908 
3.363132e+2, 8.1212646e+1, 140594.89, -135434.33, -7743.356, 0.006581317, 0.0021647585, 140811.94, 140811.94, 0.0, 2.5004601, 2.4995458 
3.363132e+2, 8.371219e+1, 140985.48, -134507.89, -4704.748, 0.0055527925, 0.002055594, 141065.8, 141065.8, 0.0, 2.5004601, 2.4995475 
3.363132e+2, 8.621174e+1, 140912.8, -134522.8, -4772.6016, 0.0045115002, 0.0019346816, 140995.47, 140995.47, 0.0, 2.50046, 2.4995475 
3.363132e+2, 8.871128e+1, 140831.92, -134541.66, -4840.364, 0.0034678571, 0.0018147988, 140916.98, 140916.98, 0.0, 2.5004597, 2.4995475 
3.3631316e+2, 9.121093e+1, 184355.58, -43788.65, -5764.137, 0.0001762498, 0.0042175073, 184501.13, 184501.13, 0.0, 2.5004594, 2.4997036 
3.3631322e+2, 9.3710625e+1, 183000.08, -44551.207, -2060.6936, 0.0031053375, 0.0036333462, 183018.73, 183018.73, 0.0, 2.5004573, 2.4997034 
3.363133e+2, 9.621032e+1, 181710.8, -45144.09, -1801.6937, 0.00607359, 0.0029931876, 181725.1, 181725.1, 0.0, 2.500455, 2.4997034 
3.3631334e+2, 9.871001e+1, 180408.75, -45743.125, -1541.5614, 0.00901257, 0.0023407096, 180419.25, 180419.25, 0.0, 2.5004528, 2.4997034 
3.3881423e+2, 1.249148e+0, -180953.81, -851994.3, -1514.2706, -0.0063492586, 0.00014474173, -180950.4, -180950.4, 0.0, 2.5005124, 2.4982913 
3.3881423e+2, 3.7474442e+0, -182889.25, -853221.44, -1882.5256, -0.003386455, 0.00043540148, -182883.97, -182883.97, 0.0, 2.5005095, 2.4982905 
3.3881426e+2, 6.2457407e+0, -184696.0, -854065.94, -2162.757, -0.00043021896, 0.00072763034, -184689.02, -184689.02, 0.0, 2.5005064, 2.4982905 
3.388143e+2, 8.7440366e+0, -186575.0, -854945.25, -2439.5408, 0.0025194495, 0.0010214283, -186566.11, -186566.11, 0.0, 2.500503, 2.4982908 
3.3881426e+2, 1.1242409e+1, -144327.75, -766337.2, -2085.2336, 0.0026397898, 0.0013182064, -144320.77, -144320.77, 0.0, 2.500502, 2.4984431 
3.3881423e+2, 1.3740855e+1, -142973.9, -765262.75, -3600.451, 0.00005020282, 0.0013140254, -142953.08, -142953.08, 0.0, 2.500504, 2.498444 
3.388142e+2, 1.6239302e+1, -141894.8, -764674.06, -4068.7373, -0.0025476215, 0.0013165977, -141868.2, -141868.2, 0.0, 2.5005057, 2.498444 
3.3881417e+2, 1.8737747e+1, -140869.28, -764111.25, -4532.9214, -0.0051538767, 0.0013262897, -140836.31, -140836.31, 0.0, 2.5005076, 2.4984443 
3.3881414e+2, 2.1236269e+1, -98479.06, -675218.0, -5537.974, -0.0053243963, 0.0013297717, -98425.89, -98425.89, 0.0, 2.5005066, 2.4985971 
3.3881414e+2, 2.3734865e+1, -99564.85, -674985.9, -7388.8496, -0.003036883, 0.00078902923, -99469.984, -99469.984, 0.0, 2.500504, 2.4985988 
3.3881414e+2, 2.6233461e+1, -101092.625, -675622.1, -7473.156, -0.0007525531, 0.00025702428, -100995.43, -100995.43, 0.0, 2.5005012, 2.498599 
3.3881414e+2, 2.8732055e+1, -102652.836, -676274.06, -7549.086, 0.0015286255, -0.00026490013, -102553.5, -102553.5, 0.0, 2.5004983, 2.4985993 
3.3881414e+2, 3.1230736e+1, -61278.43, -588001.5, -6186.9365, 0.0021832811, 0.000010751214, -61205.766, -61205.766, 0.0, 2.500496, 2.4987519 
3.3881408e+2, 3.3729497e+1, -61570.332, -587216.3, -8564.328, 0.0015480436, 0.0004243077, -61430.832, -61430.832, 0.0, 2.5004945, 2.498754 
3.3881405e+2, 3.622825e+1, -62400.414, -587501.3, -8927.973, 0.00090997154, 0.0008467685, -62248.66, -62248.66, 0.0, 2.5004928, 2.4987543 
3.3881402e+2, 3.8727012e+1, -63261.98, -587801.5, -9282.097, 0.00026778143, 0.0012805166, -63097.777, -63097.777, 0.0, 2.5004911, 2.4987545 
3.38814e+2, 4.122585e+1, -20907.725, -497429.16, -8143.325, -0.0000033521178, 0.0017769617, -20768.604, -20768.604, 0.0, 2.5004888, 2.498911 
3.3881396e+2, 4.3724763e+1, -21778.938, -496682.47, -9931.952, 0.00031928407, 0.0014298226, -21571.314, -21571.314, 0.0, 2.500486, 2.4989133 
3.3881393e+2, 4.622367e+1, -23339.059, -497317.78, -10028.6455, 0.00063774287, 0.0010918031, -23126.963, -23126.963, 0.0, 2.500483, 2.4989138 
3.388139e+2, 4.8722583e+1, -24932.209, -497969.03, -10115.083, 0.0009510536, 0.00076706544, -24716.014, -24716.014, 0.0, 2.5004802, 2.498914 
3.3881387e+2, 5.122158e+1, 17569.936, -407381.72, -8707.103, 0.0011255291, 0.0012175207, 17748.266, 17748.266, 0.0, 2.5004778, 2.4990706 
3.3881384e+2, 5.372065e+1, 17368.729, -406120.75, -9542.132, 0.0017963467, 0.0010906482, 17583.625, 17583.625, 0.0, 2.5004761, 2.4990735 
3.3881384e+2, 5.621972e+1, 16359.826, -406508.94, -9457.949, 0.0024658865, 0.0009662659, 16571.258, 16571.258, 0.0, 2.5004742, 2.4990737 
3.388138e+2, 5.8718795e+1, 15332.023, -406906.22, -9361.497, 0.0031307144, 0.0008518692, 15539.477, 15539.477, 0.0, 2.5004723, 2.499074 
3.3881378e+2, 6.121795e+1, 58519.617, -315382.53, -7840.658, 0.0032181013, 0.0014954999, 58683.96, 58683.96, 0.0, 2.5004704, 2.499232 
3.3881375e+2, 6.3717186e+1, 58087.0, -314243.4, -7427.225, 0.0030664334, 0.0013531466, 58235.098, 58235.098, 0.0, 2.5004683, 2.4992352 
3.3881372e+2, 6.6216415e+1, 56837.152, -314777.4, -7378.245, 0.002910329, 0.0012075247, 56983.586, 56983.586, 0.0, 2.5004659, 2.4992352 
3.3881372e+2, 6.871565e+1, 55572.527, -315318.53, -7321.2993, 0.0027476717, 0.0010683619, 55716.992, 55716.992, 0.0, 2.5004637, 2.4992354 
3.388137e+2, 7.1214974e+1, 97533.266, -227123.05, -7067.5513, 0.0025341744, 0.0020507586, 97687.05, 97687.05, 0.0, 2.5004625, 2.4993873 
3.388137e+2, 7.371436e+1, 97735.2, -225936.34, -5333.696, 0.0037374534, 0.001975906, 97823.07, 97823.07, 0.0, 2.5004618, 2.4993896 
3.388137e+2, 7.621375e+1, 97229.8, -226145.34, -5315.681, 0.004936736, 0.001885644, 97317.16, 97317.16, 0.0, 2.5004609, 2.49939 
3.388137e+2, 7.8713137e+1, 96681.63, -226374.95, -5288.3965, 0.0061217574, 0.0017951481, 96768.18, 96768.18, 0.0, 2.50046, 2.49939 
3.3881366e+2, 8.121261e+1, 140856.69, -135128.67, -4986.255, 0.0067672012, 0.002400471, 140946.73, 140946.73, 0.0, 2.5004604, 2.4995463 
3.3881366e+2, 8.371215e+1, 141701.42, -134140.0, -1842.0101, 0.005485908, 0.001996471, 141713.72, 141713.72, 0.0, 2.5004613, 2.4995475 
3.3881366e+2, 8.6211693e+1, 142069.16, -133942.33, -1715.1581, 0.004176715, 0.001579688, 142079.81, 142079.81, 0.0, 2.5004618, 2.4995477 
3.3881366e+2, 8.871124e+1, 142317.13, -133802.34, -1588.0591, 0.0028496447, 0.0011626612, 142326.27, 142326.27, 0.0, 2.5004623, 2.4995477 
3.3881363e+2, 9.1210884e+1, 187165.02, -41250.9, -2571.294, -0.0005998969, 0.0032452478, 187193.95, 187193.95, 0.0, 2.500463, 2.4997063 
3.388137e+2, 9.371058e+1, 186392.53, -41912.41, 1099.6003, 0.0027047277, 0.0026315087, 186397.83, 186397.83, 0.0, 2.500462, 2.4997056 
3.3881372e+2, 9.621027e+1, 185568.25, -42275.223, 1442.3297, 0.006027102, 0.0019624752, 185577.38, 185577.38, 0.0, 2.5004604, 2.4997058 
3.3881378e+2, 9.870997e+1, 184495.03, -42757.91, 1780.5125, 0.009295619, 0.0012793614, 184508.98, 184508.98, 0.0, 2.5004587, 2.4997058 
3.4131473e+2, 1.2491466e+0, -182454.27, -853733.6, -1663.6993, -0.0065505584, 0.00011268108, -182450.14, -182450.14, 0.0, 2.500511, 2.4982889 
3.4131476e+2, 3.7474397e+0, -181858.28, -853718.8, -2085.1184, -0.0034035314, 0.00033816966, -181851.8, -181851.8, 0.0, 2.5005124, 2.4982884 
3.413148e+2, 6.245733e+0, -181073.27, -853308.06, -2421.609, -0.00024132725, 0.0005638274, -181064.53, -181064.53, 0.0, 2.5005136, 2.4982884 
3.413148e+2, 8.7440264e+0, -180290.22, -852898.25, -2757.8975, 0.0029360538, 0.0007896541, -180278.92, -180278.92, 0.0, 2.500515, 2.4982884 
3.413148e+2, 1.1242396e+1, -138020.3, -764443.94, -2291.0186, 0.003102598, 0.0010813756, -138011.92, -138011.92, 0.0, 2.5005143, 2.4984405 
3.4131476e+2, 1.374084e+1, -139021.88, -764499.75, -3577.6328, 0.00035795316, 0.0011339616, -139001.4, -139001.4, 0.0, 2.5005121, 2.4984415 
3.4131473e+2, 1.6239284e+1, -140240.34, -765003.94, -3869.208, -0.0023690409, 0.0011925552, -140216.38, -140216.38, 0.0, 2.5005097, 2.4984417 
3.4131467e+2, 1.8737727e+1, -141460.66, -765509.06, -4161.4404, -0.005078545, 0.0012575273, -141432.9, -141432.9, 0.0, 2.5005076, 2.4984417 
3.4131467e+2, 2.1236248e+1, -99211.9, -676082.8, -5434.7485, -0.00530676, 0.0012158473, -99160.7, -99160.7, 0.0, 2.500506, 2.498596 
3.4131467e+2, 2.3734841e+1, -99000.805, -675238.8, -7400.2188, -0.0030224521, 0.00055054587, -98905.78, -98905.78, 0.0, 2.5005054, 2.4985976 
3.4131467e+2, 2.6233432e+1, -99178.5, -675202.4, -7689.225, -0.0007291979, -0.00010948675, -99075.875, -99075.875, 0.0, 2.500505, 2.4985979 
3.4131464e+2, 2.8732026e+1, -99357.78, -675166.7, -7978.851, 0.0015729867, -0.0007629664, -99247.234, -99247.234, 0.0, 2.5005045, 2.4985983 
3.4131464e+2, 3.1230706e+1, -57802.777, -586958.75, -6801.3525, 0.002255861, -0.00045749347, -57715.375, -57715.375, 0.0, 2.5005026, 2.4987504 
3.413146e+2, 3.3729467e+1, -58680.508, -586485.6, -8901.387, 0.0016030188, 0.0001773812, -58530.43, -58530.43, 0.0, 2.5005002, 2.4987526 
3.4131455e+2, 3.6228225e+1, -60029.926, -586994.0, -9095.375, 0.00096185313, 0.0008179011, -59872.99, -59872.99, 0.0, 2.5004976, 2.4987528 
3.4131452e+2, 3.8726985e+1, -61380.953, -587503.1, -9290.377, 0.00033128125, 0.0014663495, -61216.953, -61216.953, 0.0, 2.5004952, 2.498753 
3.413145e+2, 4.1225824e+1, -18920.254, -496658.75, -8286.143, 0.00009250924, 0.0019091635, -18776.578, -18776.578, 0.0, 2.5004923, 2.4989104 
3.4131446e+2, 4.3724728e+1, -19587.42, -495867.88, -10113.669, 0.0005016852, 0.0012764295, -19372.758, -19372.758, 0.0, 2.50049, 2.4989128 
3.4131444e+2, 4.6223637e+1, -20862.252, -496339.88, -10345.959, 0.0009251168, 0.00064505904, -20637.24, -20637.24, 0.0, 2.5004876, 2.4989133 
3.413144e+2, 4.872254e+1, -22139.215, -496812.88, -10579.342, 0.0013616942, 0.000019012214, -21903.543, -21903.543, 0.0, 2.5004852, 2.4989135 
3.4131438e+2, 5.122154e+1, 20367.273, -405711.66, -9366.453, 0.0014841561, 0.00043242724, 20573.076, 20573.076, 0.0, 2.5004823, 2.4990714 
3.4131435e+2, 5.372062e+1, 19446.574, -404876.4, -10378.707, 0.0018923373, 0.00062926026, 19700.28, 19700.28, 0.0, 2.5004792, 2.4990742 
3.413143e+2, 5.621969e+1, 17804.777, -405539.84, -10541.979, 0.0023157327, 0.0008220611, 18067.127, 18067.127, 0.0, 2.5004764, 2.4990745 
3.4131426e+2, 5.8718765e+1, 16160.908, -406204.28, -10706.074, 0.0027510484, 0.0010178335, 16432.111, 16432.111, 0.0, 2.5004735, 2.4990747 
3.4131423e+2, 6.121793e+1, 58936.586, -314900.88, -9416.311, 0.0028423138, 0.0016525757, 59173.617, 59173.617, 0.0, 2.5004709, 2.4992328 
3.413142e+2, 6.3717157e+1, 58408.66, -313925.78, -9260.149, 0.0029897084, 0.001258202, 58638.824, 58638.824, 0.0, 2.5004685, 2.4992354 
3.413142e+2, 6.6216385e+1, 57163.293, -314437.63, -9483.938, 0.003152085, 0.00085791777, 57405.184, 57405.184, 0.0, 2.5004663, 2.4992356 
3.4131417e+2, 6.8715614e+1, 55915.44, -314950.66, -9708.786, 0.003326962, 0.00046095345, 56169.434, 56169.434, 0.0, 2.500464, 2.4992359 
3.4131414e+2, 7.121494e+1, 97960.19, -225966.98, -9322.064, 0.0030823008, 0.0013351812, 98228.24, 98228.24, 0.0, 2.5004623, 2.4993894 
3.4131414e+2, 7.371433e+1, 97474.79, -225248.47, -7453.3955, 0.0039119925, 0.00145135, 97646.836, 97646.836, 0.0, 2.5004604, 2.4993916 
3.4131414e+2, 7.6213723e+1, 96419.164, -225704.66, -7267.893, 0.004771205, 0.001551765, 96583.055, 96583.055, 0.0, 2.5004585, 2.4993916 
3.4131414e+2, 7.8713113e+1, 95359.58, -226162.75, -7083.0693, 0.0056494493, 0.0016506135, 95515.55, 95515.55, 0.0, 2.5004568, 2.4993918 
3.413141e+2, 8.1212586e+1, 138379.2, -135508.89, -6572.619, 0.0063209604, 0.0022623274, 138536.84, 138536.84, 0.0, 2.5004554, 2.499548 
3.413141e+2, 8.3712125e+1, 137268.61, -135642.14, -3672.5208, 0.005444728, 0.0017621217, 137318.02, 137318.02, 0.0, 2.500453, 2.499549 
3.413141e+2, 8.621167e+1, 135908.92, -136274.5, -3697.9875, 0.004583069, 0.0012524192, 135959.16, 135959.16, 0.0, 2.5004506, 2.499549 
3.413141e+2, 8.8711214e+1, 134543.98, -136909.39, -3723.5247, 0.0037457899, 0.00074514264, 134595.06, 134595.06, 0.0, 2.5004482, 2.4995492 
3.4131408e+2, 9.121086e+1, 178849.22, -44334.387, -4820.496, 0.00026741574, 0.0026251918, 178953.28, 178953.28, 0.0, 2.5004478, 2.4997084 
3.4131414e+2, 9.3710554e+1, 178605.31, -44952.082, -1791.8047, 0.0033032154, 0.0020840885, 178619.67, 178619.67, 0.0, 2.5004478, 2.4997072 
3.4131417e+2, 9.621026e+1, 178674.23, -44893.363, -2003.0664, 0.006428899, 0.0014924257, 178692.17, 178692.17, 0.0, 2.500448, 2.4997072 
3.4131423e+2, 9.870995e+1, 178732.45, -44839.797, -2212.1829, 0.009570741, 0.0008883554, 178754.34, 178754.34, 0.0, 2.500448, 2.4997072 
3.4381527e+2, 1.2491448e+0, -183050.4, -854972.1, -1473.3114, -0.0049519273, 0.000050086033, -183047.17, -183047.17, 0.0, 2.500511, 2.4982867 
3.4381527e+2, 3.7474343e+0, -182445.72, -854939.0, -1890.3395, -0.0029842006, 0.00015110507, -182440.4, -182440.4, 0.0, 2.5005124, 2.4982862 
3.4381527e+2, 6.245724e+0, -181662.4, -854531.6, -2223.755, -0.0010104991, 0.000253254, -181655.06, -181655.06, 0.0, 2.5005136, 2.4982862 
3.438153e+2, 8.744014e+0, -180881.08, -854125.25, -2556.9683, 0.0009691779, 0.00035653263, -180871.38, -180871.38, 0.0, 2.500515, 2.4982865 
3.438153e+2, 1.1242381e+1, -138503.72, -765468.06, -2674.0208, 0.001189016, 0.0006016124, -138492.33, -138492.33, 0.0, 2.5005143, 2.4984386 
3.4381527e+2, 1.3740823e+1, -139509.53, -765536.56, -3909.1956, -0.0002778658, 0.0006841835, -139485.13, -139485.13, 0.0, 2.5005121, 2.4984396 
3.4381524e+2, 1.6239266e+1, -140724.9, -766038.25, -4197.8174, -0.0017343096, 0.0007727795, -140696.73, -140696.73, 0.0, 2.50051, 2.4984398 
3.438152e+2, 1.873771e+1, -141942.13, -766540.8, -4487.097, -0.003180423, 0.00086777343, -141909.89, -141909.89, 0.0, 2.5005076, 2.49844 
3.4381518e+2, 2.1236227e+1, -99632.38, -676996.25, -5597.513, -0.003273406, 0.0008806651, -99578.12, -99578.12, 0.0, 2.500506, 2.4985945 
3.4381518e+2, 2.373482e+1, -99456.41, -676230.3, -7472.6777, -0.0019406583, 0.00034794837, -99359.61, -99359.61, 0.0, 2.5005054, 2.498596 
3.4381515e+2, 2.623341e+1, -99632.35, -676195.25, -7759.2715, -0.0006046056, -0.00017848832, -99527.95, -99527.95, 0.0, 2.500505, 2.4985962 
3.4381515e+2, 2.8732005e+1, -99809.875, -676161.0, -8046.4854, 0.0007346072, -0.00069748785, -99697.56, -99697.56, 0.0, 2.5005047, 2.4985964 
3.4381512e+2, 3.123068e+1, -57997.027, -587471.2, -7291.616, 0.001194227, -0.00042854875, -57896.63, -57896.63, 0.0, 2.5005026, 2.4987495 
3.438151e+2, 3.372944e+1, -58903.78, -587066.0, -9280.024, 0.0009832914, 0.000029898749, -58740.777, -58740.777, 0.0, 2.5005002, 2.4987514 
3.4381506e+2, 3.6228195e+1, -60250.266, -587575.44, -9471.907, 0.0007783597, 0.0004947736, -60080.184, -60080.184, 0.0, 2.5004978, 2.4987519 
3.43815e+2, 3.8726953e+1, -61598.35, -588085.7, -9664.804, 0.0005786725, 0.0009682481, -61420.996, -61420.996, 0.0, 2.5004952, 2.498752 
3.4381497e+2, 4.1225785e+1, -19112.23, -497221.4, -8738.634, 0.0005247934, 0.0012998002, -18952.564, -18952.564, 0.0, 2.5004926, 2.4989092 
3.4381494e+2, 4.3724692e+1, -19835.059, -496552.78, -10474.844, 0.00092509564, 0.0006666343, -19605.008, -19605.008, 0.0, 2.5004902, 2.4989116 
3.438149e+2, 4.62236e+1, -21107.936, -497027.06, -10704.636, 0.0013337624, 0.000036293575, -20867.283, -20867.283, 0.0, 2.5004878, 2.4989119 
3.4381488e+2, 4.8722503e+1, -22382.945, -497502.4, -10935.521, 0.0017494354, -0.0005874616, -22131.38, -22131.38, 0.0, 2.5004854, 2.498912 
3.4381485e+2, 5.1221496e+1, 20383.725, -405909.1, -9901.717, 0.0017626218, -0.00014777885, 20613.592, 20613.592, 0.0, 2.5004826, 2.499071 
3.4381482e+2, 5.3720576e+1, 19383.92, -405243.66, -10838.19, 0.0019319882, 0.00022988548, 19660.373, 19660.373, 0.0, 2.5004795, 2.4990733 
3.438148e+2, 5.621965e+1, 17742.861, -405910.53, -10998.624, 0.002110838, 0.00060543726, 18028.209, 18028.209, 0.0, 2.5004766, 2.4990737 
3.4381473e+2, 5.871873e+1, 16099.731, -406578.4, -11159.882, 0.002296083, 0.0009851878, 16394.178, 16394.178, 0.0, 2.5004737, 2.499074 
3.438147e+2, 6.1217886e+1, 58905.902, -315260.44, -9781.159, 0.002406428, 0.0015482688, 59161.418, 59161.418, 0.0, 2.500471, 2.4992318 
3.438147e+2, 6.3717115e+1, 58285.313, -314482.47, -9607.423, 0.0029195931, 0.0009246969, 58532.766, 58532.766, 0.0, 2.500469, 2.4992342 
3.4381467e+2, 6.621634e+1, 57040.61, -314997.03, -9828.703, 0.0034427175, 0.00029624646, 57300.09, 57300.09, 0.0, 2.5004666, 2.4992344 
3.4381464e+2, 6.8715566e+1, 55793.418, -315512.75, -10051.043, 0.003972855, -0.00032848705, 56065.297, 56065.297, 0.0, 2.5004644, 2.4992347 
3.438146e+2, 7.121489e+1, 98756.73, -224680.55, -9589.024, 0.003556681, 0.00042122457, 99040.766, 99040.766, 0.0, 2.5004628, 2.4993913 
3.438146e+2, 7.371428e+1, 98170.42, -224175.64, -7748.2075, 0.003635148, 0.0006881411, 98356.555, 98356.555, 0.0, 2.5004609, 2.4993932 
3.4381458e+2, 7.6213676e+1, 97112.625, -224639.53, -7558.9136, 0.0037343816, 0.0009404274, 97290.11, 97290.11, 0.0, 2.500459, 2.4993932 
3.4381458e+2, 7.871307e+1, 96050.875, -225105.33, -7370.299, 0.0038440656, 0.0011911412, 96219.93, 96219.93, 0.0, 2.500457, 2.4993935 
3.4381458e+2, 8.1212544e+1, 138871.45, -134929.23, -6842.5713, 0.004617983, 0.0018543549, 139042.36, 139042.36, 0.0, 2.5004559, 2.499549 
3.4381458e+2, 8.371209e+1, 137639.2, -135314.06, -4038.0283, 0.0047686566, 0.0014249191, 137698.92, 137698.92, 0.0, 2.5004535, 2.4995494 
3.4381458e+2, 8.6211634e+1, 136278.67, -135946.02, -4059.5574, 0.0049224305, 0.0009869132, 136339.2, 136339.2, 0.0, 2.500451, 2.4995494 
3.4381458e+2, 8.8711184e+1, 134912.92, -136580.48, -4081.1565, 0.005088902, 0.0005513647, 134974.25, 134974.25, 0.0, 2.5004487, 2.4995494 
3.4381455e+2, 9.1210824e+1, 179083.75, -44381.684, -4760.0566, 0.0015757555, 0.0023023826, 179185.1, 179185.1, 0.0, 2.5004482, 2.499708 
3.4381458e+2, 9.3710524e+1, 178711.23, -45258.152, -1775.0907, 0.0036367332, 0.0018756703, 178725.3, 178725.3, 0.0, 2.5004485, 2.4997065 
3.4381464e+2, 9.621022e+1, 178777.3, -45195.26, -1975.8248, 0.0057627233, 0.001404591, 178794.73, 178794.73, 0.0, 2.5004485, 2.4997065 
3.4381467e+2, 9.870992e+1, 178831.61, -45138.04, -2174.8694, 0.0078789275, 0.0009238161, 178852.72, 178852.72, 0.0, 2.5004485, 2.4997065 
3.463158e+2, 1.249143e+0, -183647.2, -856211.9, -1282.9691, -0.0033528004, -0.000013403787, -183644.75, -183644.75, 0.0, 2.500511, 2.4982846 
3.463158e+2, 3.7474293e+0, -183034.9, -856162.9, -1695.4846, -0.0025633841, -0.00003864384, -183030.64, -183030.64, 0.0, 2.5005124, 2.498284 
3.463158e+2, 6.2457156e+0, -182253.31, -855758.9, -2025.825, -0.0017771942, -0.000061793275, -182247.22, -182247.22, 0.0, 2.5005136, 2.498284 
3.463158e+2, 8.7440014e+0, -181473.69, -855355.9, -2355.9631, -0.0009942304, -0.00008285224, -181465.45, -181465.45, 0.0, 2.500515, 2.4982843 
3.463158e+2, 1.1242366e+1, -138994.2, -766506.8, -3052.1414, -0.00072892004, 0.000120033554, -138979.36, -138979.36, 0.0, 2.5005143, 2.498437 
3.4631577e+2, 1.3740806e+1, -139998.95, -766577.1, -4240.4175, -0.0009205804, 0.00022907676, -139970.27, -139970.27, 0.0, 2.5005121, 2.498438 
3.4631577e+2, 1.6239248e+1, -141211.25, -767076.2, -4526.0864, -0.0011089938, 0.00034414543, -141178.52, -141178.52, 0.0, 2.50051, 2.4984381 
3.4631574e+2, 1.8737689e+1, -142425.38, -767576.2, -4812.4126, -0.0012942365, 0.00046563137, -142388.33, -142388.33, 0.0, 2.5005078, 2.4984381 
3.4631574e+2, 2.1236207e+1, -100068.875, -677942.94, -5761.9287, -0.0012306046, 0.0005390218, -100011.43, -100011.43, 0.0, 2.500506, 2.4985929 
3.463157e+2, 2.3734799e+1, -99913.51, -677224.94, -7544.4634, -0.0008505856, 0.00013593279, -99814.93, -99814.93, 0.0, 2.5005054, 2.4985943 
3.4631568e+2, 2.623339e+1, -100087.695, -677191.25, -7828.6445, -0.00047301405, -0.0002599042, -99981.516, -99981.516, 0.0, 2.5005052, 2.4985945 
3.4631565e+2, 2.873198e+1, -100263.46, -677158.4, -8113.446, -0.000098052675, -0.0006474198, -100149.375, -100149.375, 0.0, 2.5005047, 2.4985948 
3.4631562e+2, 3.1230655e+1, -58202.168, -588006.3, -7772.442, 0.0001314112, -0.000405767, -58088.168, -58088.168, 0.0, 2.5005028, 2.4987485 
3.463156e+2, 3.3729413e+1, -59128.164, -587648.6, -9657.636, 0.00036082003, -0.00012616806, -58951.75, -58951.75, 0.0, 2.5005004, 2.4987504 
3.4631556e+2, 3.6228165e+1, -60471.71, -588159.2, -9847.413, 0.0005906096, 0.00016055697, -60288.008, -60288.008, 0.0, 2.5004978, 2.4987507 
3.4631553e+2, 3.872692e+1, -61816.863, -588670.5, -10038.204, 0.00082029443, 0.00045655292, -61625.676, -61625.676, 0.0, 2.5004954, 2.498751 
3.463155e+2, 4.122575e+1, -19317.58, -497811.84, -9188.14, 0.0009650345, 0.0006812788, -19141.213, -19141.213, 0.0, 2.5004926, 2.4989083 
3.4631547e+2, 4.3724656e+1, -20083.63, -497239.63, -10834.813, 0.001355811, 0.00004474905, -19837.73, -19837.73, 0.0, 2.5004904, 2.4989104 
3.463154e+2, 4.622356e+1, -21354.553, -497716.22, -11062.108, 0.001748925, -0.00058754504, -21097.807, -21097.807, 0.0, 2.500488, 2.4989107 
3.4631535e+2, 4.8722467e+1, -22627.607, -498193.84, -11290.495, 0.0021429055, -0.0012119915, -22359.709, -22359.709, 0.0, 2.5004857, 2.498911 
3.4631532e+2, 5.122146e+1, 20371.428, -406166.28, -10428.564, 0.0020417282, -0.00072813523, 20626.246, 20626.246, 0.0, 2.5004828, 2.4990702 
3.4631526e+2, 5.3720534e+1, 19320.182, -405613.2, -11296.667, 0.0019723678, -0.00017408254, 19620.285, 19620.285, 0.0, 2.50048, 2.4990726 
3.4631523e+2, 5.6219614e+1, 17679.861, -406283.5, -11454.264, 0.0019068167, 0.00037955542, 17989.098, 17989.098, 0.0, 2.5004768, 2.4990728 
3.463152e+2, 5.8718693e+1, 16037.47, -406954.8, -11612.684, 0.001842135, 0.00093861966, 16356.041, 16356.041, 0.0, 2.500474, 2.4990733 
3.4631518e+2, 6.1217844e+1, 58857.16, -315657.5, -10138.896, 0.0019784356, 0.0014407056, 59131.44, 59131.44, 0.0, 2.5004714, 2.499231 
3.4631515e+2, 6.3717073e+1, 58161.16, -315040.84, -9953.559, 0.0028587598, 0.0005846894, 58426.44, 58426.44, 0.0, 2.5004692, 2.4992332 
3.4631512e+2, 6.6216296e+1, 56917.117, -315558.1, -10172.331, 0.0037439342, -0.00027532657, 57194.72, 57194.72, 0.0, 2.500467, 2.4992335 
3.4631512e+2, 6.8715525e+1, 55670.59, -316076.53, -10392.163, 0.004630635, -0.0011312286, 55960.875, 55960.875, 0.0, 2.5004647, 2.4992335 
3.463151e+2, 7.1214837e+1, 99527.14, -223448.39, -9844.484, 0.004027504, -0.00048906833, 99826.93, 99826.93, 0.0, 2.500463, 2.4993935 
3.4631506e+2, 7.371423e+1, 98865.09, -223104.8, -8041.745, 0.0033593683, -0.00007533711, 99065.83, 99065.83, 0.0, 2.5004613, 2.499395 
3.4631503e+2, 7.621363e+1, 97805.13, -223576.39, -7848.6597, 0.002703457, 0.00032462232, 97996.695, 97996.695, 0.0, 2.5004594, 2.499395 
3.46315e+2, 7.871303e+1, 96741.22, -224049.89, -7656.253, 0.0020494154, 0.0007230031, 96923.84, 96923.84, 0.0, 2.5004575, 2.499395 
3.46315e+2, 8.121251e+1, 139342.02, -134394.66, -7101.989, 0.0029147263, 0.0014474005, 139526.14, 139526.14, 0.0, 2.5004563, 2.4995496 
3.46315e+2, 8.3712053e+1, 138009.16, -134987.3, -4403.488, 0.0040929606, 0.0010856726, 138080.17, 138080.17, 0.0, 2.500454, 2.4995496 
3.4631503e+2, 8.6211604e+1, 136647.8, -135618.84, -4421.079, 0.005263021, 0.0007161225, 136719.58, 136719.58, 0.0, 2.5004516, 2.4995496 
3.4631506e+2, 8.871114e+1, 135281.2, -136252.89, -4438.74, 0.006434099, 0.00034906107, 135353.75, 135353.75, 0.0, 2.5004492, 2.4995499 
3.46315e+2, 9.121078e+1, 179291.63, -44484.37, -4686.499, 0.0029093057, 0.0019971447, 179389.73, 179389.73, 0.0, 2.500449, 2.4997075 
3.4631503e+2, 9.371049e+1, 178816.19, -45566.22, -1760.283, 0.003992558, 0.0016797701, 178830.0, 178830.0, 0.0, 2.500449, 2.4997056 
3.4631506e+2, 9.621018e+1, 178879.4, -45499.16, -1950.4895, 0.005115601, 0.001323782, 178896.36, 178896.36, 0.0, 2.500449, 2.4997058 
3.463151e+2, 9.870989e+1, 178930.88, -45437.766, -2139.0063, 0.006202913, 0.00096080994, 178951.27, 178951.27, 0.0, 2.5004492, 2.4997058 
3.488163e+2, 1.2491413e+0, -182151.75, -856449.9, -1125.676, -0.0017427664, -0.00007768081, -182149.88, -182149.88, 0.0, 2.5005145, 2.4982824 
3.488163e+2, 3.747424e+0, -181475.58, -856359.4, -1597.721, -0.002132639, -0.0002307672, -181471.8, -181471.8, 0.0, 2.500516, 2.498282 
3.488163e+2, 6.2457067e+0, -180709.69, -855965.5, -1989.2802, -0.0025340628, -0.00038081934, -180703.83, -180703.83, 0.0, 2.5005174, 2.4982822 
3.4881628e+2, 8.743989e+0, -180017.13, -855607.0, -2380.3193, -0.0029470376, -0.0005278374, -180008.75, -180008.75, 0.0, 2.5005183, 2.4982822 
3.4881628e+2, 1.1242352e+1, -137571.27, -766639.56, -3709.5686, -0.0026442688, -0.00036253035, -137549.39, -137549.39, 0.0, 2.5005176, 2.498435 
3.4881628e+2, 1.374079e+1, -138728.14, -766776.9, -4906.887, -0.0015637262, -0.0002304067, -138689.8, -138689.8, 0.0, 2.5005152, 2.498436 
3.4881628e+2, 1.6239229e+1, -140150.83, -767376.2, -5238.882, -0.0004866356, -0.00009239005, -140107.08, -140107.08, 0.0, 2.5005126, 2.4984362 
3.4881625e+2, 1.873767e+1, -141630.45, -768003.0, -5569.4063, 0.00058693514, 0.000051946958, -141580.94, -141580.94, 0.0, 2.50051, 2.4984365 
3.4881625e+2, 2.1236186e+1, -99470.125, -678418.8, -6392.3335, 0.00082825724, 0.00019167498, -99399.555, -99399.555, 0.0, 2.5005078, 2.4985912 
3.4881622e+2, 2.3734775e+1, -99496.15, -677802.7, -8096.7837, 0.0002533918, -0.0000847439, -99382.805, -99382.805, 0.0, 2.500507, 2.4985924 
3.4881616e+2, 2.623337e+1, -99881.2, -677872.6, -8391.726, -0.00032917075, -0.0003530131, -99759.4, -99759.4, 0.0, 2.5005064, 2.4985929 
3.4881613e+2, 2.8731957e+1, -100305.164, -677961.25, -8683.583, -0.0009195007, -0.00061211176, -100174.66, -100174.66, 0.0, 2.5005054, 2.498593 
3.488161e+2, 3.123063e+1, -58261.83, -588487.8, -8737.674, -0.0009274338, -0.00038872668, -58117.88, -58117.88, 0.0, 2.500503, 2.4987476 
3.4881607e+2, 3.372938e+1, -59443.348, -588275.5, -10496.7, -0.00026026974, -0.00029074302, -59235.082, -59235.082, 0.0, 2.5005002, 2.4987493 
3.4881604e+2, 3.6228135e+1, -61049.105, -588914.44, -10647.441, 0.00040216694, -0.00018505519, -60834.426, -60834.426, 0.0, 2.5004973, 2.4987497 
3.48816e+2, 3.8726887e+1, -62675.586, -589563.44, -10793.618, 0.0010596142, -0.00006946181, -62454.563, -62454.563, 0.0, 2.5004945, 2.49875 
3.4881598e+2, 4.1225716e+1, -20412.48, -498847.75, -9957.688, 0.0014162794, 0.0000526602, -20205.32, -20205.32, 0.0, 2.5004914, 2.498907 
3.4881595e+2, 4.3724617e+1, -21397.254, -498436.06, -11437.613, 0.0017961547, -0.0005901651, -21123.18, -21123.18, 0.0, 2.5004888, 2.498909 
3.488159e+2, 4.622352e+1, -22878.98, -499016.84, -11575.609, 0.002172767, -0.0012274663, -22597.727, -22597.727, 0.0, 2.500486, 2.4989095 
3.4881586e+2, 4.8722422e+1, -24387.684, -499610.66, -11706.876, 0.002544669, -0.0018557282, -24099.465, -24099.465, 0.0, 2.5004833, 2.4989097 
3.4881583e+2, 5.122142e+1, 18658.813, -407280.94, -10902.088, 0.0023240582, -0.0013103569, 18937.672, 18937.672, 0.0, 2.5004802, 2.4990697 
3.4881577e+2, 5.37205e+1, 17527.09, -406809.63, -11593.004, 0.0020156365, -0.00058523304, 17843.578, 17843.578, 0.0, 2.500477, 2.4990718 
3.4881574e+2, 5.621957e+1, 15822.498, -407514.34, -11626.275, 0.00170594, 0.00014100593, 16141.555, 16141.555, 0.0, 2.500474, 2.499072 
3.4881568e+2, 5.871866e+1, 14107.465, -408224.06, -11655.085, 0.0013921192, 0.00087395246, 14428.865, 14428.865, 0.0, 2.5004709, 2.4990723 
3.4881565e+2, 6.121781e+1, 56915.387, -316984.72, -9941.224, 0.0015615437, 0.0013252709, 57179.516, 57179.516, 0.0, 2.5004685, 2.4992301 
3.4881562e+2, 6.371703e+1, 56231.914, -316458.84, -9598.083, 0.0028102964, 0.00023344727, 56478.938, 56478.938, 0.0, 2.5004663, 2.499232 
3.4881562e+2, 6.621625e+1, 55061.45, -316943.1, -9653.717, 0.004059236, -0.000861682, 55311.8, 55311.8, 0.0, 2.5004642, 2.4992323 
3.488156e+2, 6.871547e+1, 53890.688, -317427.47, -9701.932, 0.0053047496, -0.0019523316, 54144.008, 54144.008, 0.0, 2.5004623, 2.4992325 
3.4881556e+2, 7.121479e+1, 98862.37, -222937.58, -8900.9795, 0.0044996883, -0.0014011654, 99108.38, 99108.38, 0.0, 2.500461, 2.4993951 
3.4881553e+2, 7.3714185e+1, 98559.24, -222505.42, -7008.1763, 0.0030896503, -0.0008450121, 98712.14, 98712.14, 0.0, 2.50046, 2.4993966 
3.488155e+2, 7.621359e+1, 97874.72, -222802.47, -6668.3613, 0.0016842976, -0.00030190335, 98013.33, 98013.33, 0.0, 2.5004587, 2.4993966 
3.4881547e+2, 7.871299e+1, 97154.31, -223116.8, -6324.6104, 0.00027302236, 0.00023975546, 97279.16, 97279.16, 0.0, 2.5004575, 2.4993966 
3.4881544e+2, 8.121247e+1, 139991.75, -133794.42, -5579.261, 0.0012196869, 0.0010350265, 140105.39, 140105.39, 0.0, 2.500457, 2.49955 
3.4881547e+2, 8.371201e+1, 139195.94, -134254.28, -2840.4988, 0.003426426, 0.00073798414, 139225.44, 139225.44, 0.0, 2.5004559, 2.49955 
3.488155e+2, 8.621156e+1, 138404.27, -134610.73, -2698.2744, 0.005614854, 0.00043357236, 138430.92, 138430.92, 0.0, 2.5004544, 2.49955 
3.4881553e+2, 8.8711107e+1, 137561.14, -134991.97, -2556.9846, 0.0077935536, 0.0001315634, 137585.13, 137585.13, 0.0, 2.500453, 2.49955 
3.4881547e+2, 9.121075e+1, 182018.38, -43402.363, -2222.9648, 0.004281743, 0.001703338, 182040.3, 182040.3, 0.0, 2.5004537, 2.499707 
3.488155e+2, 9.3710446e+1, 182076.55, -44343.016, 738.9936, 0.0043866523, 0.001491374, 182078.97, 182078.97, 0.0, 2.500455, 2.4997048 
3.4881553e+2, 9.621015e+1, 182510.11, -44093.043, 658.5572, 0.00450883, 0.0012456058, 182512.03, 182512.03, 0.0, 2.5004556, 2.4997048 
3.4881556e+2, 9.8709846e+1, 182694.22, -43963.195, 569.56586, 0.0045723836, 0.0009950597, 182695.66, 182695.66, 0.0, 2.5004559, 2.499705 
3.5131687e+2, 1.24913976e+0, -179414.13, -856327.25, -930.8899, -0.00013811159, -0.00008679561, -179412.84, -179412.84, 0.0, 2.5005205, 2.4982798 
3.5131684e+2, 3.7474197e+0, -178832.64, -856266.6, -1379.0575, -0.001326978, -0.00025841864, -178829.83, -178829.83, 0.0, 2.5005217, 2.4982793 
3.5131684e+2, 6.2456995e+0, -178099.17, -855886.9, -1750.8378, -0.002497491, -0.00042741685, -178094.64, -178094.64, 0.0, 2.500523, 2.4982793 
3.513168e+2, 8.7439793e+0, -177367.83, -855508.1, -2122.8892, -0.0036496504, -0.0005937903, -177361.19, -177361.19, 0.0, 2.5005243, 2.4982796 
3.513168e+2, 1.1242338e+1, -134696.16, -766169.3, -3969.0222, -0.003436782, -0.00046673784, -134671.2, -134671.2, 0.0, 2.5005236, 2.498433 
3.513168e+2, 1.3740773e+1, -135604.53, -766187.0, -5047.641, -0.0018010881, -0.00039814462, -135564.13, -135564.13, 0.0, 2.5005214, 2.498434 
3.513168e+2, 1.623921e+1, -136720.56, -766635.5, -5310.071, -0.00015340235, -0.000328953, -136675.8, -136675.8, 0.0, 2.5005195, 2.498434 
3.5131678e+2, 1.8737648e+1, -137837.61, -767084.5, -5572.921, 0.0015062043, -0.00025873026, -137788.25, -137788.25, 0.0, 2.5005174, 2.4984343 
3.5131678e+2, 2.1236162e+1, -95546.37, -677471.6, -6255.7646, 0.0018578621, -0.00012649872, -95479.125, -95479.125, 0.0, 2.5005155, 2.498589 
3.5131675e+2, 2.3734751e+1, -95703.73, -676936.94, -7938.161, 0.00088225177, -0.00032303945, -95595.336, -95595.336, 0.0, 2.5005147, 2.4985902 
3.513167e+2, 2.6233342e+1, -96165.87, -677034.9, -8306.214, -0.00008127622, -0.00051257864, -96047.11, -96047.11, 0.0, 2.5005138, 2.4985907 
3.5131666e+2, 2.873193e+1, -96629.62, -677133.6, -8675.149, -0.0010327058, -0.0006941383, -96500.01, -96500.01, 0.0, 2.5005128, 2.498591 
3.5131663e+2, 3.1230602e+1, -54461.363, -587119.75, -9224.81, -0.0011542466, -0.0005262394, -54301.652, -54301.652, 0.0, 2.5005102, 2.4987466 
3.513166e+2, 3.372935e+1, -55793.555, -586995.9, -10963.896, -0.00037234856, -0.00060454267, -55567.36, -55567.36, 0.0, 2.500507, 2.4987483 
3.5131657e+2, 3.62281e+1, -57512.074, -587676.9, -11198.327, 0.00041916475, -0.0006764567, -57275.645, -57275.645, 0.0, 2.500504, 2.4987485 
3.513165e+2, 3.8726848e+1, -59231.754, -588358.44, -11433.88, 0.001220095, -0.0007398194, -58984.797, -58984.797, 0.0, 2.500501, 2.498749 
3.5131648e+2, 4.1225675e+1, -17237.324, -497641.13, -10774.883, 0.0016497284, -0.00061675295, -16995.78, -16995.78, 0.0, 2.500497, 2.4989064 
3.5131642e+2, 4.372458e+1, -18692.674, -497486.6, -12227.046, 0.0019915842, -0.0010361231, -18380.633, -18380.633, 0.0, 2.5004938, 2.4989083 
3.5131636e+2, 4.6223485e+1, -20588.734, -498249.2, -12440.947, 0.002347763, -0.0014513575, -20264.922, -20264.922, 0.0, 2.5004902, 2.4989085 
3.5131633e+2, 4.872239e+1, -22486.527, -499012.63, -12656.047, 0.002717017, -0.0018591251, -22150.63, -22150.63, 0.0, 2.5004869, 2.498909 
3.5131627e+2, 5.122138e+1, 20524.006, -406458.94, -11997.868, 0.0024854157, -0.0013319032, 20860.87, 20860.87, 0.0, 2.5004835, 2.4990695 
3.5131624e+2, 5.3720456e+1, 19459.014, -406009.72, -12797.994, 0.0021620872, -0.0008079878, 19843.627, 19843.627, 0.0, 2.5004807, 2.4990716 
3.5131618e+2, 5.6219536e+1, 17871.307, -406647.06, -13006.904, 0.001854268, -0.0002808605, 18269.455, 18269.455, 0.0, 2.5004778, 2.4990718 
3.5131615e+2, 5.871861e+1, 16281.896, -407285.22, -13216.987, 0.0015590518, 0.00025475468, 16693.918, 16693.918, 0.0, 2.500475, 2.499072 
3.513161e+2, 6.1217767e+1, 58761.305, -315648.47, -11572.54, 0.0017383364, 0.0006481063, 59118.656, 59118.656, 0.0, 2.500471, 2.499231 
3.513161e+2, 6.371699e+1, 56609.504, -315911.72, -11060.653, 0.002983096, -0.00026436383, 56937.617, 56937.617, 0.0, 2.5004666, 2.499233 
3.5131606e+2, 6.6216207e+1, 54032.145, -317055.72, -10965.26, 0.0042443965, -0.0011799479, 54355.875, 54355.875, 0.0, 2.500462, 2.499233 
3.5131603e+2, 6.871544e+1, 51452.86, -318200.63, -10871.134, 0.0055186283, -0.0020914625, 51772.293, 51772.293, 0.0, 2.5004575, 2.4992332 
3.51316e+2, 7.1214753e+1, 95489.14, -223870.33, -9946.765, 0.004683007, -0.0016061033, 95798.64, 95798.64, 0.0, 2.5004544, 2.4993968 
3.5131598e+2, 7.3714155e+1, 94411.72, -223906.58, -8592.997, 0.003209035, -0.0012415245, 94643.516, 94643.516, 0.0, 2.5004523, 2.4993978 
3.5131595e+2, 7.6213557e+1, 93053.21, -224517.3, -8753.583, 0.0017653906, -0.00088333717, 93294.31, 93294.31, 0.0, 2.50045, 2.499398 
3.5131592e+2, 7.871295e+1, 91691.92, -225129.36, -8914.709, 0.00034130455, -0.00052078505, 91942.56, 91942.56, 0.0, 2.5004475, 2.499398 
3.513159e+2, 8.121243e+1, 134250.55, -135674.39, -8257.673, 0.0013033481, 0.00021371582, 134502.92, 134502.92, 0.0, 2.5004463, 2.4995522 
3.5131592e+2, 8.371198e+1, 133392.36, -136282.34, -5664.6865, 0.0035896755, 0.00005695044, 133511.3, 133511.3, 0.0, 2.5004451, 2.4995518 
3.5131595e+2, 8.621153e+1, 132659.75, -136611.23, -5570.2944, 0.005886757, -0.00011009381, 132774.94, 132774.94, 0.0, 2.5004437, 2.4995518 
3.5131595e+2, 8.871108e+1, 131921.8, -136942.7, -5476.2485, 0.008202947, -0.0002782831, 132033.3, 132033.3, 0.0, 2.5004425, 2.4995518 
3.5131592e+2, 9.121072e+1, 175704.6, -45522.695, -4711.3926, 0.0046987627, 0.001238854, 175804.89, 175804.89, 0.0, 2.500442, 2.4997091 
3.5131595e+2, 9.371043e+1, 174065.25, -47428.27, -1503.8938, 0.0046983478, 0.0011535853, 174075.47, 174075.47, 0.0, 2.5004404, 2.4997065 
3.5131598e+2, 9.621013e+1, 173117.7, -47868.098, -1241.6615, 0.0048100417, 0.0010202958, 173124.67, 173124.67, 0.0, 2.5004387, 2.4997065 
3.5131598e+2, 9.8709834e+1, 172160.73, -48312.45, -977.4018, 0.004958225, 0.0008649957, 172165.08, 172165.08, 0.0, 2.500437, 2.4997067 
3.5381737e+2, 1.2491389e+0, -180087.56, -857726.94, -756.09015, 0.0007585325, -0.000049304123, -180086.72, -180086.72, 0.0, 2.5005205, 2.4982774 
3.5381737e+2, 3.747417e+0, -179494.38, -857643.2, -1196.9386, -0.00071698386, -0.00014601515, -179492.27, -179492.27, 0.0, 2.5005217, 2.498277 
3.5381734e+2, 6.2456954e+0, -178758.48, -857259.5, -1565.5126, -0.0021834783, -0.000240196, -178754.86, -178754.86, 0.0, 2.500523, 2.4982772 
3.538173e+2, 8.743973e+0, -178024.7, -856876.9, -1934.3574, -0.003640951, -0.00033184676, -178019.19, -178019.19, 0.0, 2.5005243, 2.4982772 
3.538173e+2, 1.1242329e+1, -135130.42, -767087.5, -4335.455, -0.0036112585, -0.00025268932, -135100.69, -135100.69, 0.0, 2.5005236, 2.4984314 
3.538173e+2, 1.3740763e+1, -136042.4, -767116.2, -5354.3545, -0.002055123, -0.0003382625, -135996.98, -135996.98, 0.0, 2.5005214, 2.4984324 
3.538173e+2, 1.6239195e+1, -137158.28, -767567.75, -5614.633, -0.0004920196, -0.00042207667, -137108.28, -137108.28, 0.0, 2.5005195, 2.4984326 
3.5381728e+2, 1.8737629e+1, -138275.17, -768019.8, -5875.3325, 0.001078014, -0.0005037182, -138220.36, -138220.36, 0.0, 2.5005174, 2.4984329 
3.5381728e+2, 2.1236141e+1, -96125.68, -678728.6, -6484.5586, 0.0014721514, -0.0004380826, -96053.516, -96053.516, 0.0, 2.5005157, 2.498587 
3.5381722e+2, 2.3734728e+1, -96308.336, -678252.56, -8080.828, 0.0006940877, -0.000601799, -96196.15, -96196.15, 0.0, 2.5005147, 2.498588 
3.538172e+2, 2.6233315e+1, -96767.016, -678349.3, -8446.609, -0.000076786615, -0.00075851753, -96644.37, -96644.37, 0.0, 2.5005138, 2.4985883 
3.5381716e+2, 2.8731903e+1, -97227.32, -678446.9, -8813.272, -0.00084050227, -0.0009072872, -97093.71, -97093.71, 0.0, 2.5005128, 2.4985886 
3.5381714e+2, 3.1230572e+1, -54760.15, -587843.9, -9807.483, -0.0009192168, -0.000818103, -54579.777, -54579.777, 0.0, 2.5005102, 2.4987452 
3.5381708e+2, 3.3729318e+1, -56106.34, -587757.06, -11437.653, -0.00025651618, -0.0010490549, -55860.39, -55860.39, 0.0, 2.500507, 2.4987469 
3.5381705e+2, 3.622806e+1, -57821.92, -588439.7, -11670.557, 0.00041229645, -0.0012734254, -57565.36, -57565.36, 0.0, 2.500504, 2.498747 
3.5381702e+2, 3.8726807e+1, -59538.664, -589122.8, -11904.581, 0.0010870906, -0.0014891777, -59271.195, -59271.195, 0.0, 2.500501, 2.4987476 
3.5381696e+2, 4.1225636e+1, -17439.777, -498228.03, -11400.782, 0.0014720415, -0.0012504269, -17169.586, -17169.586, 0.0, 2.5004973, 2.4989052 
3.5381693e+2, 4.3724546e+1, -18916.648, -498126.75, -12748.754, 0.0018029457, -0.0012331841, -18577.725, -18577.725, 0.0, 2.500494, 2.498907 
3.5381687e+2, 4.622345e+1, -20809.584, -498891.1, -12960.486, 0.0021430668, -0.0012116634, -20458.492, -20458.492, 0.0, 2.5004904, 2.4989073 
3.5381684e+2, 4.872236e+1, -22704.252, -499656.28, -13173.417, 0.0024913836, -0.0011827354, -22340.68, -22340.68, 0.0, 2.500487, 2.4989078 
3.5381678e+2, 5.122135e+1, 20417.78, -406915.56, -12502.783, 0.0023581146, -0.00072509533, 20783.27, 20783.27, 0.0, 2.5004838, 2.4990685 
3.5381675e+2, 5.372042e+1, 19295.293, -406594.03, -13237.047, 0.002268499, -0.000704656, 19706.316, 19706.316, 0.0, 2.500481, 2.4990704 
3.538167e+2, 5.621949e+1, 17710.615, -407232.88, -13443.754, 0.0021901655, -0.00068098103, 18135.504, 18135.504, 0.0, 2.500478, 2.4990706 
3.5381663e+2, 5.871856e+1, 16124.231, -407872.56, -13651.635, 0.0021201158, -0.0006492421, 16563.324, 16563.324, 0.0, 2.5004752, 2.4990711 
3.538166e+2, 6.1217713e+1, 59255.566, -314911.78, -12283.783, 0.002254196, -0.0002874486, 59658.406, 59658.406, 0.0, 2.5004716, 2.4992323 
3.5381657e+2, 6.371695e+1, 57052.543, -315289.44, -11754.637, 0.0031499732, -0.0006288559, 57423.26, 57423.26, 0.0, 2.500467, 2.4992337 
3.5381654e+2, 6.621617e+1, 54476.934, -316437.53, -11656.559, 0.0040582176, -0.0009734623, 54842.895, 54842.895, 0.0, 2.5004625, 2.499234 
3.538165e+2, 6.87154e+1, 51899.395, -317586.53, -11559.748, 0.004975459, -0.0013147902, 52260.7, 52260.7, 0.0, 2.500458, 2.4992342 
3.5381645e+2, 7.1214724e+1, 95599.43, -224013.89, -10281.505, 0.0042490023, -0.00085336884, 95929.83, 95929.83, 0.0, 2.500455, 2.4993963 
3.5381645e+2, 7.371412e+1, 94441.48, -224221.69, -8961.332, 0.0033472537, -0.0009687494, 94693.29, 94693.29, 0.0, 2.5004525, 2.499397 
3.5381642e+2, 7.621351e+1, 93084.836, -224831.98, -9119.604, 0.0024696838, -0.0010903133, 93346.22, 93346.22, 0.0, 2.5004501, 2.4993973 
3.538164e+2, 7.8712904e+1, 91725.414, -225443.63, -9278.415, 0.0016055616, -0.0012083641, 91996.62, 91996.62, 0.0, 2.5004478, 2.4993973 
3.5381633e+2, 8.121239e+1, 134888.78, -134792.02, -8386.289, 0.0024588886, -0.00066577725, 135149.33, 135149.33, 0.0, 2.5004468, 2.4995534 
3.538164e+2, 8.3711934e+1, 133966.67, -135537.16, -5865.737, 0.003916451, -0.0006157642, 134094.28, 134094.28, 0.0, 2.5004456, 2.4995527 
3.538164e+2, 8.6211485e+1, 133235.42, -135866.72, -5766.8257, 0.005373011, -0.0005754451, 133358.94, 133358.94, 0.0, 2.5004442, 2.4995527 
3.538164e+2, 8.871105e+1, 132498.81, -136198.84, -5668.2607, 0.0068371496, -0.0005364044, 132618.33, 132618.33, 0.0, 2.500443, 2.499553 
3.5381633e+2, 9.121069e+1, 176735.58, -43893.063, -4882.034, 0.0032292414, 0.0009074391, 176843.56, 176843.56, 0.0, 2.5004425, 2.4997115 
3.538164e+2, 9.37104e+1, 175015.69, -45955.6, -1752.6028, 0.0038040753, 0.00089207606, 175029.6, 175029.6, 0.0, 2.5004408, 2.499709 
3.5381642e+2, 9.62101e+1, 174065.0, -46390.58, -1482.1648, 0.004469695, 0.0008371336, 174074.95, 174074.95, 0.0, 2.5004392, 2.499709 
3.5381645e+2, 9.87098e+1, 173104.89, -46830.082, -1209.6996, 0.005151212, 0.0007653248, 173111.55, 173111.55, 0.0, 2.5004375, 2.499709 
3.5631794e+2, 1.2491381e+0, -180761.73, -859128.2, -581.21405, 0.0016540064, -0.000012895867, -180761.23, -180761.23, 0.0, 2.5005205, 2.498275 
3.563179e+2, 3.7474144e+0, -180158.11, -859023.9, -1014.9415, -0.00011050024, -0.000036861355, -180156.58, -180156.58, 0.0, 2.5005217, 2.4982746 
3.5631788e+2, 6.2456906e+0, -179419.77, -858636.3, -1380.309, -0.0018753165, -0.00005839128, -179416.95, -179416.95, 0.0, 2.500523, 2.4982748 
3.5631785e+2, 8.743967e+0, -178683.56, -858249.75, -1745.9475, -0.0036404422, -0.00007748577, -178679.08, -178679.08, 0.0, 2.5005243, 2.4982748 
3.5631785e+2, 1.1242321e+1, -135575.11, -768027.4, -4701.528, -0.0037786881, -0.000040760828, -135540.16, -135540.16, 0.0, 2.5005236, 2.4984298 
3.5631785e+2, 1.374075e+1, -136482.27, -768049.5, -5660.5464, -0.002302487, -0.00028417923, -136431.53, -136431.53, 0.0, 2.5005214, 2.4984307 
3.5631782e+2, 1.623918e+1, -137597.98, -768504.2, -5918.6743, -0.00082438404, -0.0005246966, -137542.47, -137542.47, 0.0, 2.5005195, 2.498431 
3.5631782e+2, 1.873761e+1, -138714.72, -768959.3, -6177.223, 0.00065565825, -0.0007618999, -138654.17, -138654.17, 0.0, 2.5005176, 2.4984312 
3.5631782e+2, 2.1236119e+1, -96715.58, -680007.6, -6707.2573, 0.0010811625, -0.0007559055, -96638.46, -96638.46, 0.0, 2.5005157, 2.4985845 
3.5631776e+2, 2.3734705e+1, -96914.69, -679571.8, -8222.907, 0.00049835537, -0.0008903848, -96798.66, -96798.66, 0.0, 2.5005147, 2.4985857 
3.5631773e+2, 2.623329e+1, -97369.914, -679667.4, -8586.416, -0.00008209394, -0.0010179197, -97243.33, -97243.33, 0.0, 2.5005138, 2.498586 
3.563177e+2, 2.8731877e+1, -97826.76, -679763.75, -8950.807, -0.0006603245, -0.0011375365, -97689.12, -97689.12, 0.0, 2.5005128, 2.4985864 
3.5631764e+2, 3.1230542e+1, -55075.992, -588603.5, -10388.032, -0.0006769413, -0.00111952, -54873.81, -54873.81, 0.0, 2.5005105, 2.498744 
3.563176e+2, 3.3729282e+1, -56420.434, -588520.94, -11910.3125, -0.00013418967, -0.0015056556, -56153.973, -56153.973, 0.0, 2.5005074, 2.4987454 
3.5631758e+2, 3.6228028e+1, -58133.074, -589205.2, -12141.688, 0.00041101698, -0.001885087, -57855.63, -57855.63, 0.0, 2.5005043, 2.498746 
3.563175e+2, 3.8726768e+1, -59846.88, -589889.94, -12374.186, 0.0009587698, -0.0022558335, -59558.152, -59558.152, 0.0, 2.5005012, 2.4987462 
3.5631746e+2, 4.1225597e+1, -17659.014, -498849.8, -12020.29, 0.0012939154, -0.0018905445, -17358.932, -17358.932, 0.0, 2.5004976, 2.4989042 
3.563174e+2, 4.3724507e+1, -19141.732, -498769.22, -13269.264, 0.001613032, -0.0014398299, -18774.908, -18774.908, 0.0, 2.500494, 2.498906 
3.5631734e+2, 4.622342e+1, -21031.543, -499535.3, -13478.828, 0.0019363051, -0.000984818, -20652.162, -20652.162, 0.0, 2.5004907, 2.4989061 
3.563173e+2, 4.8722327e+1, -22923.084, -500302.25, -13689.59, 0.0022628936, -0.0005224584, -22530.836, -22530.836, 0.0, 2.5004873, 2.4989066 
3.5631725e+2, 5.122132e+1, 20293.424, -407409.88, -13002.268, 0.0022355032, -0.00012656188, 20688.33, 20688.33, 0.0, 2.500484, 2.4990675 
3.563172e+2, 5.3720385e+1, 19130.578, -407180.4, -13674.943, 0.002379543, -0.000613558, 19568.785, 19568.785, 0.0, 2.5004811, 2.4990692 
3.5631716e+2, 5.6219447e+1, 17548.928, -407820.78, -13879.447, 0.0025305464, -0.0010973989, 18001.32, 18001.32, 0.0, 2.5004783, 2.4990697 
3.563171e+2, 5.871851e+1, 15965.571, -408461.94, -14085.124, 0.0026855145, -0.0015735996, 16432.488, 16432.488, 0.0, 2.5004754, 2.49907 
3.5631704e+2, 6.1217666e+1, 59716.754, -314243.8, -12989.893, 0.0027670385, -0.0012205652, 60167.426, 60167.426, 0.0, 2.5004718, 2.4992332 
3.56317e+2, 6.37169e+1, 57494.336, -314669.78, -12447.134, 0.0033157552, -0.0009959731, 57910.168, 57910.168, 0.0, 2.5004673, 2.4992347 
3.5631698e+2, 6.621614e+1, 54920.47, -315821.94, -12346.37, 0.0038729531, -0.0007749887, 55331.168, 55331.168, 0.0, 2.5004628, 2.499235 
3.5631695e+2, 6.871537e+1, 52344.676, -316975.03, -12246.876, 0.0044352133, -0.00055151654, 52750.348, 52750.348, 0.0, 2.5004582, 2.4992352 
3.563169e+2, 7.1214694e+1, 95688.22, -224202.13, -10608.073, 0.0038186905, -0.00010107029, 96039.61, 96039.61, 0.0, 2.5004554, 2.4993958 
3.5631686e+2, 7.3714083e+1, 94470.65, -224538.02, -9329.119, 0.0034896852, -0.0006988069, 94743.234, 94743.234, 0.0, 2.500453, 2.4993963 
3.5631683e+2, 7.6213473e+1, 93115.875, -225147.9, -9485.076, 0.0031787045, -0.0013027333, 93398.305, 93398.305, 0.0, 2.5004506, 2.4993966 
3.5631683e+2, 7.871286e+1, 91758.32, -225759.13, -9641.573, 0.0028750612, -0.0019039985, 92050.82, 92050.82, 0.0, 2.5004482, 2.4993966 
3.563168e+2, 8.1212336e+1, 135504.75, -133955.9, -8507.014, 0.0036177868, -0.0015436063, 135773.06, 135773.06, 0.0, 2.5004473, 2.4995546 
3.563168e+2, 8.371189e+1, 134540.14, -134793.75, -6066.3823, 0.0042454456, -0.0012903003, 134676.7, 134676.7, 0.0, 2.500446, 2.499554 
3.563168e+2, 8.621145e+1, 133810.22, -135123.98, -5962.9526, 0.004860375, -0.001046276, 133942.38, 133942.38, 0.0, 2.5004447, 2.499554 
3.563168e+2, 8.8711e+1, 133074.95, -135456.78, -5859.869, 0.0054713525, -0.00080366316, 133202.77, 133202.77, 0.0, 2.5004435, 2.499554 
3.5631678e+2, 9.1210645e+1, 177742.69, -42313.035, -5046.8154, 0.0017786935, 0.00059477956, 177858.38, 177858.38, 0.0, 2.500443, 2.4997141 
3.563168e+2, 9.3710357e+1, 175965.27, -44484.746, -2003.4956, 0.002923165, 0.000645004, 175983.47, 175983.47, 0.0, 2.5004413, 2.499711 
3.5631683e+2, 9.621006e+1, 175011.42, -44914.875, -1724.852, 0.004136845, 0.000663615, 175024.94, 175024.94, 0.0, 2.5004396, 2.4997113 
3.5631686e+2, 9.870977e+1, 174048.17, -45349.527, -1444.1812, 0.00534583, 0.0006705039, 174057.67, 174057.67, 0.0, 2.500438, 2.4997113 
3.5881844e+2, 1.24913715e+0, -179272.8, -859491.44, -427.5874, 0.002555787, 0.000022573611, -179272.52, -179272.52, 0.0, 2.5005243, 2.4982727 
3.588184e+2, 3.7474114e+0, -178701.22, -859389.3, -898.9586, 0.0004995775, 0.00006944828, -178700.03, -178700.03, 0.0, 2.5005255, 2.4982722 
3.5881838e+2, 6.245686e+0, -178085.8, -859058.44, -1309.0706, -0.0015653005, 0.00011862681, -178083.28, -178083.28, 0.0, 2.5005264, 2.4982724 
3.5881838e+2, 8.74396e+0, -177556.61, -858769.1, -1722.7317, -0.003638847, 0.00017010911, -177552.27, -177552.27, 0.0, 2.5005274, 2.4982724 
3.5881835e+2, 1.1242312e+1, -134397.97, -768206.25, -5281.2217, -0.0039295168, 0.00017004384, -134353.97, -134353.97, 0.0, 2.5005264, 2.498428 
3.5881835e+2, 1.3740739e+1, -135357.75, -768236.0, -6224.33, -0.0025350675, -0.00023469128, -135296.55, -135296.55, 0.0, 2.5005243, 2.498429 
3.5881832e+2, 1.6239165e+1, -136575.39, -768742.94, -6523.3647, -0.0011434688, -0.00063543476, -136508.08, -136508.08, 0.0, 2.5005221, 2.4984293 
3.5881832e+2, 1.873759e+1, -137830.25, -769267.8, -6821.748, 0.00024543479, -0.0010317551, -137756.56, -137756.56, 0.0, 2.5005198, 2.4984295 
3.588183e+2, 2.1236098e+1, -96208.09, -680777.8, -7303.1567, 0.00069063617, -0.0010783465, -96116.87, -96116.87, 0.0, 2.5005176, 2.4985824 
3.5881826e+2, 2.373468e+1, -96699.16, -680501.0, -8771.402, 0.00030039984, -0.0011871041, -96567.4, -96567.4, 0.0, 2.5005162, 2.4985836 
3.5881823e+2, 2.6233265e+1, -97457.914, -680743.3, -9159.11, -0.00009183428, -0.0012890806, -97314.125, -97314.125, 0.0, 2.5005147, 2.4985838 
3.5881817e+2, 2.8731847e+1, -98240.945, -680997.25, -9546.46, -0.00048637507, -0.0013832289, -98084.6, -98084.6, 0.0, 2.5005133, 2.498584 
3.5881814e+2, 3.123051e+1, -55503.58, -589445.3, -11431.941, -0.00042175723, -0.00142892, -55258.926, -55258.926, 0.0, 2.5005105, 2.4987426 
3.588181e+2, 3.3729252e+1, -57049.414, -589439.6, -12834.201, -0.00000044421807, -0.001972907, -56740.203, -56740.203, 0.0, 2.5005069, 2.4987442 
3.5881805e+2, 3.622799e+1, -58985.027, -590234.1, -13046.55, 0.0004198605, -0.002510228, -58664.82, -58664.82, 0.0, 2.5005035, 2.4987445 
3.58818e+2, 3.872673e+1, -60928.85, -591032.56, -13255.672, 0.000839623, -0.0030388872, -60597.59, -60597.59, 0.0, 2.5005, 2.4987447 
3.5881796e+2, 4.122556e+1, -18868.957, -499974.66, -13009.144, 0.0011193071, -0.0025369595, -18517.445, -18517.445, 0.0, 2.500496, 2.4989028 
3.588179e+2, 4.372447e+1, -20513.791, -499965.0, -14113.713, 0.0014249065, -0.0016569907, -20098.684, -20098.684, 0.0, 2.5004923, 2.4989047 
3.5881785e+2, 4.6223384e+1, -22587.21, -500822.72, -14268.273, 0.0017301952, -0.00077282527, -22161.893, -22161.893, 0.0, 2.5004885, 2.498905 
3.5881782e+2, 4.8722297e+1, -24677.182, -501688.4, -14421.786, 0.0020344649, 0.00011863113, -24241.557, -24241.557, 0.0, 2.500485, 2.4989054 
3.5881776e+2, 5.122129e+1, 18464.438, -408751.7, -13650.93, 0.0021204296, 0.00046000243, 18900.184, 18900.184, 0.0, 2.5004814, 2.4990666 
3.588177e+2, 5.3720343e+1, 17195.676, -408618.34, -14195.6045, 0.0024976449, -0.0005386098, 17668.398, 17668.398, 0.0, 2.5004783, 2.4990683 
3.5881764e+2, 5.6219405e+1, 15538.599, -409297.8, -14323.725, 0.0028779004, -0.0015343456, 16020.987, 16020.987, 0.0, 2.5004754, 2.4990685 
3.588176e+2, 5.871846e+1, 13884.028, -409976.06, -14449.511, 0.0032582867, -0.0025229587, 14376.045, 14376.045, 0.0, 2.5004723, 2.4990687 
3.5881755e+2, 6.121761e+1, 58267.77, -314545.25, -13545.879, 0.0032799651, -0.002156746, 58759.3, 58759.3, 0.0, 2.500469, 2.4992342 
3.5881752e+2, 6.371686e+1, 56224.902, -314872.72, -12921.045, 0.003483081, -0.0013723146, 56674.246, 56674.246, 0.0, 2.5004647, 2.4992356 
3.5881746e+2, 6.6216105e+1, 53819.082, -315948.6, -12742.959, 0.0036913212, -0.00059212185, 54257.71, 54257.71, 0.0, 2.5004604, 2.4992359 
3.588174e+2, 6.871534e+1, 51410.45, -317025.84, -12563.576, 0.0039012295, 0.00018987023, 51838.367, 51838.367, 0.0, 2.5004563, 2.499236 
3.5881734e+2, 7.121466e+1, 94658.65, -224955.8, -10464.796, 0.003395859, 0.00064183294, 95000.92, 95000.92, 0.0, 2.500454, 2.4993951 
3.588173e+2, 7.371404e+1, 93783.18, -225192.69, -9128.916, 0.0036403819, -0.00044067748, 94044.234, 94044.234, 0.0, 2.500452, 2.4993956 
3.5881728e+2, 7.6213425e+1, 92776.32, -225635.3, -9175.425, 0.003897386, -0.0015295187, 93040.5, 93040.5, 0.0, 2.5004504, 2.4993956 
3.5881728e+2, 7.871281e+1, 91731.87, -226096.02, -9221.074, 0.0041562314, -0.0026164695, 91999.17, 91999.17, 0.0, 2.5004485, 2.4993958 
3.5881725e+2, 8.121229e+1, 136520.78, -132951.55, -7712.314, 0.004787081, -0.0024286876, 136741.33, 136741.33, 0.0, 2.5004485, 2.4995558 
3.5881725e+2, 8.3711845e+1, 136158.78, -133537.27, -5225.1597, 0.0045840703, -0.0019759904, 136259.97, 136259.97, 0.0, 2.5004482, 2.4995549 
3.5881725e+2, 8.62114e+1, 135963.39, -133611.45, -4987.7593, 0.004358164, -0.0015322834, 136055.64, 136055.64, 0.0, 2.500448, 2.4995549 
3.5881725e+2, 8.871096e+1, 135672.06, -133731.86, -4755.1504, 0.004118308, -0.0010900685, 135755.97, 135755.97, 0.0, 2.5004473, 2.4995549 
3.588172e+2, 9.121061e+1, 181390.13, -39486.1, -3783.7458, 0.00036210346, 0.00029120716, 181454.92, 181454.92, 0.0, 2.5004482, 2.4997165 
3.5881722e+2, 9.371032e+1, 180299.78, -41372.31, -713.4926, 0.0020717392, 0.00040339745, 180302.08, 180302.08, 0.0, 2.5004478, 2.4997134 
3.5881725e+2, 9.6210027e+1, 179775.55, -41589.867, -312.09604, 0.0038308427, 0.00049097795, 179775.98, 179775.98, 0.0, 2.5004468, 2.4997134 
3.588173e+2, 9.870974e+1, 178952.92, -41951.117, 84.84755, 0.005566758, 0.0005714939, 178952.95, 178952.95, 0.0, 2.5004454, 2.4997137 
3.6131898e+2, 1.2491359e+0, -169214.4, -855793.06, -644.1132, 0.0021019913, 0.000023905915, -169213.8, -169213.8, 0.0, 2.5005429, 2.49827 
3.6131898e+2, 3.7474078e+0, -171785.31, -857200.8, -1047.0928, 0.0005591335, 0.00007200625, -171783.72, -171783.72, 0.0, 2.5005386, 2.4982698 
3.6131895e+2, 6.245679e+0, -174235.89, -858354.94, -1390.5936, -0.00096192426, 0.0001204918, -174233.06, -174233.06, 0.0, 2.5005343, 2.4982698 
3.6131892e+2, 8.743952e+0, -176688.73, -859510.1, -1734.3016, -0.0024611813, 0.0001693624, -176684.33, -176684.33, 0.0, 2.50053, 2.4982698 
3.6131892e+2, 1.12423e+1, -133910.11, -769098.94, -5157.9595, -0.0027226305, 0.00014546927, -133868.23, -133868.23, 0.0, 2.5005283, 2.4984257 
3.613189e+2, 1.3740724e+1, -132784.23, -768130.7, -6191.212, -0.0018774205, -0.00029391365, -132723.9, -132723.9, 0.0, 2.5005298, 2.4984267 
3.613189e+2, 1.6239147e+1, -131876.55, -767613.3, -6634.176, -0.0010251055, -0.0007303871, -131807.33, -131807.33, 0.0, 2.5005314, 2.4984267 
3.6131886e+2, 1.873757e+1, -130970.85, -767096.94, -7077.682, -0.00016551072, -0.0011635331, -130892.11, -130892.11, 0.0, 2.5005329, 2.498427 
3.6131883e+2, 2.1236074e+1, -89056.914, -678216.0, -8039.577, 0.00015099287, -0.0012169728, -88947.23, -88947.23, 0.0, 2.500531, 2.4985802 
3.613188e+2, 2.3734656e+1, -91320.56, -678794.9, -9250.708, 0.00003671, -0.0013191428, -91174.93, -91174.93, 0.0, 2.5005264, 2.4985814 
3.6131877e+2, 2.6233235e+1, -93828.57, -679881.6, -9458.466, -0.00006737433, -0.0014174113, -93675.96, -93675.96, 0.0, 2.500522, 2.4985816 
3.613187e+2, 2.873182e+1, -96337.93, -680969.06, -9667.238, -0.00016156667, -0.0015106839, -96178.12, -96178.12, 0.0, 2.5005176, 2.4985821 
3.6131868e+2, 3.123048e+1, -54012.934, -589389.6, -11553.1875, 0.000023125836, -0.001563311, -53763.74, -53763.74, 0.0, 2.5005136, 2.498741 
3.6131862e+2, 3.3729216e+1, -54838.11, -589046.0, -12885.881, 0.00031538383, -0.0020960083, -54527.465, -54527.465, 0.0, 2.5005114, 2.4987426 
3.6131856e+2, 3.6227953e+1, -56036.77, -589480.5, -13144.1045, 0.00061679014, -0.0026248104, -55713.094, -55713.094, 0.0, 2.5005093, 2.498743 
3.613185e+2, 3.8726693e+1, -57236.65, -589915.6, -13403.462, 0.00092805416, -0.0031478163, -56899.598, -56899.598, 0.0, 2.500507, 2.4987433 
3.6131844e+2, 4.122552e+1, -14683.1455, -498431.22, -13414.142, 0.0011053957, -0.002657239, -14311.462, -14311.462, 0.0, 2.5005038, 2.4989018 
3.6131838e+2, 4.3724433e+1, -16267.13, -498394.53, -14479.759, 0.0013063629, -0.0017894254, -15832.65, -15832.65, 0.0, 2.5005002, 2.4989038 
3.6131832e+2, 4.6223345e+1, -18262.693, -499213.72, -14687.396, 0.001522689, -0.0009173928, -17814.584, -17814.584, 0.0, 2.5004966, 2.498904 
3.6131826e+2, 4.8722258e+1, -20260.154, -500033.8, -14896.278, 0.0017537174, -0.00003810336, -19798.092, -19798.092, 0.0, 2.500493, 2.4989042 
3.6131823e+2, 5.1221246e+1, 22351.293, -407062.84, -14283.3545, 0.0019268553, 0.0002752238, 22825.867, 22825.867, 0.0, 2.5004883, 2.499066 
3.6131817e+2, 5.37203e+1, 19655.732, -407640.56, -14713.843, 0.002501351, -0.00072066445, 20161.8, 20161.8, 0.0, 2.5004828, 2.4990678 
3.613181e+2, 5.6219363e+1, 16585.82, -408996.38, -14794.837, 0.003093277, -0.0017149842, 17099.523, 17099.523, 0.0, 2.5004773, 2.499068 
3.6131805e+2, 5.871842e+1, 13514.06, -410353.13, -14877.113, 0.0037000035, -0.0027037524, 14035.583, 14035.583, 0.0, 2.5004718, 2.4990683 
3.61318e+2, 6.121757e+1, 57760.695, -314715.75, -14024.863, 0.0036931373, -0.002371203, 58288.027, 58288.027, 0.0, 2.500468, 2.4992344 
3.6131796e+2, 6.3716817e+1, 56529.266, -314673.5, -13784.311, 0.0036140317, -0.0015972793, 57040.43, 57040.43, 0.0, 2.5004652, 2.4992359 
3.613179e+2, 6.621606e+1, 54951.918, -315345.06, -14005.534, 0.0035577079, -0.00082263985, 55480.887, 55480.887, 0.0, 2.5004623, 2.4992359 
3.6131784e+2, 6.8715304e+1, 53372.254, -316017.75, -14227.692, 0.0035206622, -0.00004157878, 53919.45, 53919.45, 0.0, 2.5004594, 2.499236 
3.613178e+2, 7.121462e+1, 96157.836, -223984.23, -12230.832, 0.003090023, 0.0004093124, 96624.43, 96624.43, 0.0, 2.500456, 2.4993958 
3.6131778e+2, 7.3714006e+1, 93340.02, -225209.66, -10871.771, 0.003679953, -0.0005593502, 93710.63, 93710.63, 0.0, 2.500451, 2.499396 
3.6131775e+2, 7.6213384e+1, 90461.5, -226549.27, -10852.91, 0.00429988, -0.0015306831, 90832.62, 90832.62, 0.0, 2.500446, 2.499396 
3.6131772e+2, 7.8712773e+1, 87579.32, -227890.64, -10834.968, 0.004939578, -0.0024972798, 87951.016, 87951.016, 0.0, 2.500441, 2.4993963 
3.6131772e+2, 8.121225e+1, 130981.31, -134538.67, -8956.0625, 0.005516891, -0.0023914094, 131283.06, 131283.06, 0.0, 2.5004377, 2.4995582 
3.613177e+2, 8.371181e+1, 128709.07, -136075.53, -6540.429, 0.0049110996, -0.002169639, 128870.53, 128870.53, 0.0, 2.5004344, 2.4995573 
3.613177e+2, 8.621137e+1, 126712.44, -137019.78, -6289.105, 0.0043310896, -0.0019550507, 126862.33, 126862.33, 0.0, 2.5004308, 2.4995573 
3.613177e+2, 8.871093e+1, 124710.07, -137966.8, -6037.7783, 0.0037852502, -0.0017405928, 124848.78, 124848.78, 0.0, 2.5004275, 2.4995573 
3.6131763e+2, 9.121058e+1, 169646.13, -44281.145, -4849.0493, 0.00021130999, -0.00054925797, 169755.98, 169755.98, 0.0, 2.500427, 2.4997184 
3.613177e+2, 9.371029e+1, 169308.25, -45847.715, -2406.7104, 0.0022317418, -0.00028663359, 169335.17, 169335.17, 0.0, 2.500428, 2.4997153 
3.6131772e+2, 9.6209997e+1, 169840.88, -45573.12, -2546.6208, 0.004358949, -0.00006371097, 169870.97, 169870.97, 0.0, 2.500429, 2.4997153 
3.6131775e+2, 9.8709714e+1, 170361.5, -45304.305, -2684.9531, 0.006523286, 0.00013458988, 170394.92, 170394.92, 0.0, 2.5004299, 2.4997153 
3.6381948e+2, 1.2491343e+0, -169834.56, -857082.1, -1295.0306, -0.00013217842, -0.000015869424, -169832.13, -169832.13, 0.0, 2.5005429, 2.498268 
3.6381948e+2, 3.747403e+0, -172397.22, -858473.94, -1688.4277, -0.00035483934, -0.00004694461, -172393.06, -172393.06, 0.0, 2.5005386, 2.4982674 
3.6381948e+2, 6.2456715e+0, -174847.45, -859628.5, -2028.2853, -0.0005670521, -0.00007713441, -174841.45, -174841.45, 0.0, 2.5005343, 2.4982677 
3.6381945e+2, 8.7439406e+0, -177299.97, -860784.2, -2368.3503, -0.00076881633, -0.000106438965, -177291.77, -177291.77, 0.0, 2.50053, 2.4982677 
3.6381945e+2, 1.1242287e+1, -134673.73, -770703.75, -4989.653, -0.0008583654, -0.0001502052, -134634.6, -134634.6, 0.0, 2.5005283, 2.4984229 
3.6381942e+2, 1.3740708e+1, -133566.47, -769777.94, -5973.725, -0.0009003912, -0.0005171147, -133510.39, -133510.39, 0.0, 2.50053, 2.4984238 
3.638194e+2, 1.6239128e+1, -132657.03, -769260.56, -6413.5254, -0.00094259664, -0.00088055735, -132592.42, -132592.42, 0.0, 2.5005314, 2.498424 
3.6381936e+2, 1.873755e+1, -131749.56, -768744.1, -6853.868, -0.0009849012, -0.0012401552, -131675.81, -131675.81, 0.0, 2.5005329, 2.498424 
3.6381933e+2, 2.1236052e+1, -89388.375, -678961.56, -8794.486, -0.00089131383, -0.0012613337, -89257.22, -89257.22, 0.0, 2.500531, 2.498579 
3.638193e+2, 2.3734632e+1, -91637.69, -679516.0, -9923.798, -0.0006181217, -0.0013815217, -91470.21, -91470.21, 0.0, 2.5005264, 2.4985802 
3.6381927e+2, 2.623321e+1, -94144.48, -680605.5, -10129.65, -0.00033937386, -0.0014973623, -93969.56, -93969.56, 0.0, 2.5005221, 2.4985805 
3.638192e+2, 2.8731793e+1, -96652.62, -681695.7, -10336.518, -0.000055163477, -0.0016077274, -96470.05, -96470.05, 0.0, 2.5005176, 2.4985807 
3.6381918e+2, 3.1230453e+1, -54355.645, -590205.5, -12004.2295, 0.0002778878, -0.001606244, -54086.86, -54086.86, 0.0, 2.5005138, 2.4987395 
3.6381912e+2, 3.372919e+1, -55211.33, -589931.7, -13222.1, 0.00048554922, -0.0019606943, -54884.582, -54884.582, 0.0, 2.5005116, 2.4987411 
3.6381906e+2, 3.622793e+1, -56408.375, -590369.06, -13478.807, 0.0006992036, -0.0023105047, -56068.344, -56068.344, 0.0, 2.5005093, 2.4987414 
3.6381903e+2, 3.8726667e+1, -57606.645, -590807.0, -13736.648, 0.000919563, -0.0026539608, -57252.99, -57252.99, 0.0, 2.500507, 2.4987416 
3.6381897e+2, 4.122549e+1, -14906.027, -499062.13, -14046.072, 0.0009892952, -0.0022718012, -14498.872, -14498.872, 0.0, 2.5005038, 2.4989007 
3.638189e+2, 4.37244e+1, -16496.129, -499045.44, -15023.559, 0.0010637153, -0.0017713577, -16028.842, -16028.842, 0.0, 2.5005002, 2.4989023 
3.6381882e+2, 4.6223304e+1, -18489.717, -499867.47, -15229.006, 0.0011483299, -0.0012659178, -18008.408, -18008.408, 0.0, 2.5004966, 2.4989028 
3.6381876e+2, 4.8722214e+1, -20485.203, -500690.38, -15435.698, 0.0012424829, -0.0007525946, -19989.55, -19989.55, 0.0, 2.500493, 2.498903 
3.638187e+2, 5.1221204e+1, 22401.436, -407186.8, -15176.205, 0.001478002, -0.00040119336, 22936.902, 22936.902, 0.0, 2.5004885, 2.4990659 
3.6381865e+2, 5.3720266e+1, 19700.707, -407782.5, -15534.7705, 0.002243044, -0.0008973651, 20264.498, 20264.498, 0.0, 2.500483, 2.4990673 
3.6381862e+2, 5.621933e+1, 16632.795, -409141.06, -15613.337, 0.0030200798, -0.001391374, 17204.576, 17204.576, 0.0, 2.5004776, 2.4990675 
3.6381856e+2, 5.871839e+1, 13563.034, -410500.53, -15693.187, 0.0038068932, -0.00187947, 14142.994, 14142.994, 0.0, 2.5004723, 2.4990678 
3.6381847e+2, 6.121754e+1, 57639.867, -315267.0, -14468.903, 0.0037987393, -0.0015805082, 58200.42, 58200.42, 0.0, 2.5004683, 2.4992332 
3.638184e+2, 6.3716775e+1, 56366.91, -315317.84, -14212.9, 0.0035330385, -0.0012855617, 56909.605, 56909.605, 0.0, 2.5004654, 2.4992344 
3.6381835e+2, 6.621601e+1, 54791.383, -315991.88, -14431.351, 0.0032842928, -0.0009890647, 55352.22, 55352.22, 0.0, 2.5004628, 2.4992347 
3.638183e+2, 6.871525e+1, 53213.54, -316667.0, -14650.734, 0.0030489545, -0.00068594754, 53792.938, 53792.938, 0.0, 2.50046, 2.499235 
3.6381823e+2, 7.121457e+1, 96527.03, -223584.05, -12955.671, 0.0026263979, -0.00020951215, 97050.52, 97050.52, 0.0, 2.5004566, 2.4993963 
3.6381823e+2, 7.371396e+1, 93683.19, -224870.6, -11631.522, 0.0033294389, -0.0004989889, 94107.33, 94107.33, 0.0, 2.5004516, 2.4993966 
3.638182e+2, 7.6213354e+1, 90807.5, -226210.69, -11608.938, 0.0040517612, -0.00079074025, 91232.04, 91232.04, 0.0, 2.5004466, 2.4993966 
3.6381817e+2, 7.8712744e+1, 87928.164, -227552.56, -11587.273, 0.004783894, -0.0010782911, 88353.18, 88353.18, 0.0, 2.5004416, 2.4993966 
3.6381814e+2, 8.121223e+1, 131833.25, -133204.14, -9415.459, 0.005324807, -0.0009645497, 132167.31, 132167.31, 0.0, 2.5004382, 2.4995604 
3.638181e+2, 8.371178e+1, 129549.04, -134768.75, -7066.091, 0.004704239, -0.001354607, 129737.805, 129737.805, 0.0, 2.5004349, 2.4995592 
3.638181e+2, 8.6211336e+1, 127554.68, -135710.44, -6809.2666, 0.004094584, -0.0017512259, 127730.68, 127730.68, 0.0, 2.5004313, 2.4995592 
3.638181e+2, 8.8710886e+1, 125554.586, -136654.86, -6552.44, 0.0035030593, -0.0021478648, 125718.23, 125718.23, 0.0, 2.500428, 2.4995594 
3.6381805e+2, 9.121053e+1, 169880.02, -44323.797, -4657.9087, 0.00019660112, -0.0013354897, 169981.25, 169981.25, 0.0, 2.5004277, 2.499718 
3.638181e+2, 9.3710244e+1, 169538.5, -45890.996, -2270.7944, 0.0022305502, -0.00088799995, 169562.44, 169562.44, 0.0, 2.5004284, 2.4997149 
3.6381814e+2, 9.620996e+1, 170069.47, -45611.39, -2398.7507, 0.004334951, -0.00047510673, 170096.14, 170096.14, 0.0, 2.5004294, 2.4997149 
3.6381817e+2, 9.870968e+1, 170588.42, -45337.566, -2525.129, 0.0064447573, -0.000084242514, 170617.95, 170617.95, 0.0, 2.5004303, 2.499715 
3.6632e+2, 1.24913275e+0, -170455.48, -858372.75, -1945.9537, -0.0023666425, -0.00005664614, -170449.98, -170449.98, 0.0, 2.5005429, 2.4982657 
3.6632e+2, 3.7473983e+0, -173011.06, -859751.06, -2329.6008, -0.001269695, -0.00016889961, -173003.16, -173003.16, 0.0, 2.5005386, 2.4982653 
3.6632e+2, 6.2456644e+0, -175460.97, -860906.1, -2665.8154, -0.00017365125, -0.00027976753, -175450.61, -175450.61, 0.0, 2.5005343, 2.4982655 
3.6632e+2, 8.74393e+0, -177913.16, -862062.3, -3002.237, 0.000921489, -0.00038925, -177899.98, -177899.98, 0.0, 2.50053, 2.4982655 
3.6632e+2, 1.1242273e+1, -135446.44, -772327.44, -4818.918, 0.001006516, -0.00044823374, -135409.97, -135409.97, 0.0, 2.5005283, 2.49842 
3.6631998e+2, 1.3740692e+1, -134350.7, -771429.25, -5755.901, 0.000075873286, -0.0007464948, -134298.7, -134298.7, 0.0, 2.50053, 2.498421 
3.6631995e+2, 1.6239111e+1, -133439.5, -770911.94, -6192.538, -0.00086223934, -0.0010407493, -133379.34, -133379.34, 0.0, 2.5005314, 2.4984212 
3.6631992e+2, 1.8737529e+1, -132530.27, -770395.56, -6629.7173, -0.0018078302, -0.0013306416, -132461.36, -132461.36, 0.0, 2.5005329, 2.4984212 
3.6631986e+2, 2.1236031e+1, -89733.08, -679734.56, -9545.043, -0.0019330854, -0.0013114428, -89578.695, -89578.695, 0.0, 2.500531, 2.4985776 
3.6631984e+2, 2.3734608e+1, -91956.5, -680240.7, -10595.922, -0.0012723948, -0.0014530044, -91765.72, -91765.72, 0.0, 2.5005267, 2.498579 
3.663198e+2, 2.6233187e+1, -94462.08, -681332.94, -10799.868, -0.0006108138, -0.0015898257, -94263.4, -94263.4, 0.0, 2.5005221, 2.4985793 
3.6631975e+2, 2.8731766e+1, -96968.99, -682425.8, -11004.83, 0.00005180023, -0.001720692, -96762.21, -96762.21, 0.0, 2.5005176, 2.4985795 
3.6631972e+2, 3.1230426e+1, -54711.45, -591048.6, -12449.824, 0.000531006, -0.0016577994, -54422.613, -54422.613, 0.0, 2.5005138, 2.498738 
3.6631963e+2, 3.3729163e+1, -55585.984, -590820.3, -13557.267, 0.00065410085, -0.0018369554, -55242.805, -55242.805, 0.0, 2.5005116, 2.4987395 
3.6631957e+2, 3.6227903e+1, -56781.42, -591260.56, -13812.457, 0.0007800507, -0.0020107997, -56424.703, -56424.703, 0.0, 2.5005095, 2.4987397 
3.663195e+2, 3.872664e+1, -57978.08, -591701.4, -14068.782, 0.0009095528, -0.0021777316, -57607.49, -57607.49, 0.0, 2.5005074, 2.4987402 
3.6631945e+2, 4.122546e+1, -15145.632, -499727.78, -14670.295, 0.0008717273, -0.0018963187, -14701.908, -14701.908, 0.0, 2.500504, 2.4988995 
3.663194e+2, 4.3724364e+1, -16726.297, -499698.78, -15566.169, 0.0008193392, -0.0017663101, -16225.12, -16225.12, 0.0, 2.5005004, 2.4989011 
3.6631933e+2, 4.6223268e+1, -18717.91, -500523.63, -15769.427, 0.0007719792, -0.0016306187, -18202.33, -18202.33, 0.0, 2.5004969, 2.4989016 
3.6631924e+2, 4.872217e+1, -20711.422, -501349.38, -15973.929, 0.0007289937, -0.0014864174, -20181.115, -20181.115, 0.0, 2.5004933, 2.4989018 
3.6631918e+2, 5.1221156e+1, 22432.246, -407350.94, -16062.589, 0.0010296274, -0.0010844525, 23031.729, 23031.729, 0.0, 2.5004888, 2.4990654 
3.6631912e+2, 5.3720224e+1, 19744.668, -407926.6, -16354.423, 0.0019851578, -0.0010845807, 20369.158, 20369.158, 0.0, 2.5004833, 2.499067 
3.6631906e+2, 5.6219286e+1, 16678.754, -409287.88, -16430.563, 0.0029472108, -0.0010821137, 17311.58, 17311.58, 0.0, 2.5004778, 2.4990673 
3.66319e+2, 5.871836e+1, 13610.993, -410650.06, -16507.986, 0.0039140177, -0.0010733726, 14252.349, 14252.349, 0.0, 2.5004725, 2.4990675 
3.6631894e+2, 6.1217505e+1, 57494.77, -315868.7, -14904.236, 0.0039022164, -0.0007946066, 58088.785, 58088.785, 0.0, 2.5004685, 2.499232 
3.6631888e+2, 6.3716733e+1, 56203.72, -315963.94, -14640.484, 0.0034500975, -0.000982353, 56778.76, 56778.76, 0.0, 2.5004659, 2.4992332 
3.6631882e+2, 6.621597e+1, 54630.008, -316640.4, -14856.161, 0.0030091382, -0.0011679125, 55223.52, 55223.52, 0.0, 2.500463, 2.4992335 
3.6631876e+2, 6.87152e+1, 53053.984, -317318.0, -15072.771, 0.0025757165, -0.0013466533, 53666.38, 53666.38, 0.0, 2.5004601, 2.4992335 
3.663187e+2, 7.1214515e+1, 96872.93, -223232.28, -13673.541, 0.0021627916, -0.0008284939, 97455.945, 97455.945, 0.0, 2.500457, 2.4993968 
3.6631867e+2, 7.371392e+1, 94025.73, -224532.81, -12390.405, 0.0029783177, -0.00044127964, 94506.93, 94506.93, 0.0, 2.500452, 2.4993968 
3.6631864e+2, 7.621332e+1, 91152.89, -225873.4, -12364.1, 0.0038023845, -0.00005619904, 91634.36, 91634.36, 0.0, 2.500447, 2.499397 
3.663186e+2, 7.8712714e+1, 88276.39, -227215.75, -12338.713, 0.0046263007, 0.00033254636, 88758.21, 88758.21, 0.0, 2.500442, 2.499397 
3.6631858e+2, 8.12122e+1, 132665.92, -131909.64, -9868.914, 0.005134137, 0.00046262942, 133033.53, 133033.53, 0.0, 2.5004387, 2.4995623 
3.6631858e+2, 8.3711743e+1, 130388.555, -133462.94, -7591.854, 0.0044964207, -0.0005413103, 130606.81, 130606.81, 0.0, 2.5004354, 2.4995613 
3.6631855e+2, 8.6211294e+1, 128396.46, -134402.03, -7329.5303, 0.0038547046, -0.0015513449, 128600.73, 128600.73, 0.0, 2.5004318, 2.4995613 
3.6631855e+2, 8.8710845e+1, 126398.64, -135343.89, -7067.2036, 0.0032150773, -0.0025612891, 126589.32, 126589.32, 0.0, 2.5004284, 2.4995613 
3.663185e+2, 9.1210485e+1, 170091.84, -44412.29, -4456.9224, 0.00019621826, -0.0021000842, 170184.4, 170184.4, 0.0, 2.5004282, 2.4997175 
3.6631855e+2, 9.371021e+1, 169767.81, -45936.246, -2136.4788, 0.0022391928, -0.0014727659, 169788.97, 169788.97, 0.0, 2.5004292, 2.4997146 
3.6631858e+2, 9.6209925e+1, 170297.11, -45651.633, -2252.481, 0.004315989, -0.000875412, 170320.61, 170320.61, 0.0, 2.5004299, 2.4997146 
3.663186e+2, 9.870964e+1, 170814.4, -45372.8, -2366.905, 0.006366468, -0.0002974943, 170840.33, 170840.33, 0.0, 2.5004308, 2.4997146 
3.6882055e+2, 1.2491312e+0, -169706.47, -859006.56, -2612.5093, -0.004591182, -0.00009825573, -169696.56, -169696.56, 0.0, 2.500545, 2.4982634 
3.6882055e+2, 3.7473935e+0, -172062.97, -860280.8, -3019.6455, -0.0021772513, -0.0002933621, -172049.72, -172049.72, 0.0, 2.5005412, 2.4982631 
3.6882055e+2, 6.245656e+0, -174430.36, -861396.8, -3386.198, 0.00022556429, -0.00048659448, -174413.67, -174413.67, 0.0, 2.5005372, 2.4982631 
3.6882055e+2, 8.7439185e+0, -176911.1, -862567.5, -3753.5828, 0.0026172642, -0.000677953, -176890.55, -176890.55, 0.0, 2.5005329, 2.4982634 
3.6882055e+2, 1.1242259e+1, -134716.77, -773243.94, -4794.5483, 0.0028792792, -0.00074719323, -134680.77, -134680.77, 0.0, 2.500531, 2.4984174 
3.688205e+2, 1.3740677e+1, -133783.23, -772435.1, -5715.157, 0.0010578077, -0.0009803532, -133732.1, -133732.1, 0.0, 2.5005324, 2.498418 
3.6882046e+2, 1.6239092e+1, -133103.5, -772030.56, -6180.29, -0.0007773147, -0.0012090376, -133043.72, -133043.72, 0.0, 2.5005333, 2.4984183 
3.6882043e+2, 1.8737511e+1, -132501.23, -771663.3, -6649.0083, -0.0026261806, -0.0014328959, -132432.08, -132432.08, 0.0, 2.5005343, 2.4984183 
3.688204e+2, 2.1236008e+1, -89514.38, -680260.6, -10571.939, -0.0029659837, -0.0013650133, -89325.25, -89325.25, 0.0, 2.5005322, 2.4985762 
3.6882034e+2, 2.3734584e+1, -91827.38, -680755.75, -11586.409, -0.00191917, -0.0015310711, -91599.52, -91599.52, 0.0, 2.5005274, 2.4985776 
3.688203e+2, 2.623316e+1, -94501.28, -681932.56, -11826.289, -0.0008756055, -0.0016921826, -94263.28, -94263.28, 0.0, 2.5005226, 2.4985778 
3.6882025e+2, 2.873174e+1, -97219.125, -683130.5, -12066.365, 0.00016511072, -0.0018469929, -96970.73, -96970.73, 0.0, 2.5005178, 2.498578 
3.6882022e+2, 3.1230396e+1, -55243.53, -592001.44, -13308.546, 0.0007877464, -0.0017156306, -54913.758, -54913.758, 0.0, 2.5005138, 2.4987364 
3.6882016e+2, 3.3729133e+1, -56356.254, -591905.8, -14319.188, 0.0008254653, -0.001722868, -55973.67, -55973.67, 0.0, 2.5005112, 2.4987378 
3.688201e+2, 3.6227876e+1, -57797.55, -592468.2, -14579.459, 0.0008633233, -0.0017243321, -57400.293, -57400.293, 0.0, 2.5005085, 2.4987383 
3.6882004e+2, 3.8726613e+1, -59256.54, -593039.1, -14838.244, 0.00090198434, -0.0017184629, -58844.38, -58844.38, 0.0, 2.500506, 2.4987385 
3.6881998e+2, 4.122543e+1, -16531.8, -500975.53, -15725.927, 0.0007565215, -0.0015306056, -16021.846, -16021.846, 0.0, 2.5005023, 2.4988983 
3.688199e+2, 4.3724328e+1, -18260.205, -500985.25, -16545.88, 0.0005768883, -0.0017744182, -17693.744, -17693.744, 0.0, 2.5004985, 2.4989 
3.6881983e+2, 4.6223223e+1, -20434.08, -501901.78, -16743.936, 0.0003976934, -0.0020122107, -19852.48, -19852.48, 0.0, 2.5004945, 2.4989002 
3.6881974e+2, 4.8722127e+1, -22621.41, -502824.78, -16941.031, 0.00021828584, -0.0022411228, -22024.492, -22024.492, 0.0, 2.5004907, 2.4989007 
3.6881968e+2, 5.122111e+1, 20684.936, -408405.5, -17355.64, 0.0005864327, -0.0017772304, 21385.783, 21385.783, 0.0, 2.500486, 2.499065 
3.6881962e+2, 5.372018e+1, 18065.37, -408905.6, -17561.574, 0.0017308888, -0.0012861798, 18786.469, 18786.469, 0.0, 2.5004807, 2.4990666 
3.6881953e+2, 5.6219256e+1, 15011.405, -410264.97, -17611.27, 0.0028771593, -0.00079232577, 15739.465, 15739.465, 0.0, 2.5004752, 2.4990668 
3.6881948e+2, 5.8718324e+1, 11928.958, -411638.06, -17662.578, 0.0040239566, -0.00029189762, 12664.204, 12664.204, 0.0, 2.5004697, 2.499067 
3.688194e+2, 6.1217475e+1, 55651.81, -317327.94, -15646.395, 0.004006345, -0.000020810625, 56307.02, 56307.02, 0.0, 2.500466, 2.4992309 
3.6881933e+2, 6.37167e+1, 54505.594, -317351.63, -15355.508, 0.0033680864, -0.0006953628, 55138.61, 55138.61, 0.0, 2.5004635, 2.499232 
3.6881927e+2, 6.6215926e+1, 53052.652, -317973.16, -15538.492, 0.002735884, -0.0013673631, 53702.266, 53702.266, 0.0, 2.5004609, 2.499232 
3.688192e+2, 6.871515e+1, 51576.805, -318605.7, -15719.546, 0.0021060065, -0.0020324187, 52243.125, 52243.125, 0.0, 2.5004582, 2.4992323 
3.6881915e+2, 7.121447e+1, 96146.69, -223431.55, -14558.38, 0.0017042574, -0.0014571279, 96808.53, 96808.53, 0.0, 2.5004556, 2.499397 
3.6881912e+2, 7.3713875e+1, 93751.234, -224490.44, -13254.8, 0.002630488, -0.00039670625, 94302.34, 94302.34, 0.0, 2.5004513, 2.4993973 
3.688191e+2, 7.621328e+1, 91268.805, -225644.69, -13155.693, 0.003555676, 0.00066135096, 91813.984, 91813.984, 0.0, 2.500447, 2.4993973 
3.6881906e+2, 7.8712684e+1, 88737.83, -226822.31, -13055.943, 0.0044719325, 0.0017224224, 89277.08, 89277.08, 0.0, 2.5004425, 2.4993975 
3.68819e+2, 8.121216e+1, 134104.73, -130346.42, -10201.201, 0.004950708, 0.0018767366, 134497.66, 134497.66, 0.0, 2.5004401, 2.4995642 
3.68819e+2, 8.3711714e+1, 132485.39, -131544.64, -7912.4126, 0.0042938087, 0.000257061, 132722.3, 132722.3, 0.0, 2.500438, 2.4995632 
3.6881897e+2, 8.621126e+1, 130998.81, -132238.72, -7553.046, 0.00361951, -0.0013684056, 131215.34, 131215.34, 0.0, 2.5004354, 2.4995632 
3.6881894e+2, 8.871081e+1, 129377.31, -132997.77, -7192.17, 0.0029328172, -0.0029936805, 129574.31, 129574.31, 0.0, 2.5004325, 2.4995635 
3.688189e+2, 9.121045e+1, 172988.4, -43229.242, -3721.6438, 0.00022310649, -0.0028555028, 173052.45, 173052.45, 0.0, 2.5004334, 2.499717 
3.6881897e+2, 9.3710166e+1, 173357.63, -44351.2, -1314.2183, 0.0022710697, -0.0020528242, 173365.55, 173365.55, 0.0, 2.5004354, 2.4997141 
3.68819e+2, 9.6209884e+1, 174210.14, -43905.586, -1259.3862, 0.0043192646, -0.001276009, 174217.4, 174217.4, 0.0, 2.5004368, 2.4997144 
3.6881903e+2, 9.8709595e+1, 174720.7, -43624.64, -1209.1041, 0.006312771, -0.00051609566, 174727.39, 174727.39, 0.0, 2.5004377, 2.4997144 
3.713211e+2, 1.2491298e+0, -171167.88, -861021.4, -2732.1082, -0.004246166, -0.000090827765, -171157.06, -171157.06, 0.0, 2.500544, 2.4982605 
3.713211e+2, 3.7473893e+0, -169467.36, -860332.5, -3263.8765, -0.0018361118, -0.0002718075, -169451.94, -169451.94, 0.0, 2.5005472, 2.4982603 
3.713211e+2, 6.245649e+0, -167672.88, -859443.7, -3761.294, 0.0005959932, -0.00045188577, -167652.42, -167652.42, 0.0, 2.50055, 2.4982603 
3.713211e+2, 8.743909e+0, -165881.33, -858556.3, -4259.3037, 0.0030501494, -0.0006310626, -165855.14, -165855.14, 0.0, 2.5005531, 2.4982603 
3.713211e+2, 1.1242247e+1, -123191.96, -768836.06, -5546.4185, 0.0033165559, -0.0006892228, -123144.32, -123144.32, 0.0, 2.5005522, 2.4984148 
3.7132105e+2, 1.374066e+1, -125865.39, -769781.75, -6279.1064, 0.0014552727, -0.00091690634, -125804.164, -125804.164, 0.0, 2.5005472, 2.4984155 
3.7132102e+2, 1.6239075e+1, -128715.38, -771090.75, -6587.32, -0.00038519144, -0.0011427656, -128647.836, -128647.836, 0.0, 2.5005422, 2.4984157 
3.7132096e+2, 1.8737489e+1, -131567.86, -772400.9, -6895.9033, -0.0022049437, -0.0013664435, -131493.67, -131493.67, 0.0, 2.5005372, 2.4984157 
3.7132093e+2, 2.1235985e+1, -89249.945, -681057.4, -10987.025, -0.0025627168, -0.0012935508, -89046.04, -89046.04, 0.0, 2.5005336, 2.4985743 
3.713209e+2, 2.373456e+1, -89580.06, -680611.25, -12050.318, -0.0016473458, -0.0014212466, -89334.48, -89334.48, 0.0, 2.5005324, 2.4985754 
3.7132084e+2, 2.6233137e+1, -90221.77, -680812.75, -12426.8, -0.00071989605, -0.0015486379, -89960.414, -89960.414, 0.0, 2.500531, 2.4985757 
3.713208e+2, 2.873171e+1, -90865.17, -681015.0, -12804.256, 0.00022017388, -0.0016744513, -90587.5, -90587.5, 0.0, 2.5005298, 2.498576 
3.7132075e+2, 3.1230366e+1, -48270.293, -589530.4, -14319.434, 0.00077928655, -0.0015247236, -47891.727, -47891.727, 0.0, 2.5005267, 2.4987345 
3.7132066e+2, 3.3729103e+1, -50438.855, -589943.6, -15278.762, 0.0008182095, -0.0015314709, -50006.508, -50006.508, 0.0, 2.5005221, 2.498736 
3.713206e+2, 3.622784e+1, -52922.203, -591010.8, -15576.479, 0.00086816604, -0.0015368878, -52471.676, -52471.676, 0.0, 2.5005178, 2.4987361 
3.7132052e+2, 3.8726577e+1, -55407.42, -592078.9, -15875.335, 0.0009296991, -0.0015393777, -54938.22, -54938.22, 0.0, 2.5005133, 2.4987364 
3.7132046e+2, 4.1225395e+1, -13495.065, -499989.22, -16975.025, 0.00084535906, -0.001401646, -12903.482, -12903.482, 0.0, 2.500508, 2.498897 
3.713204e+2, 4.372429e+1, -16098.307, -500419.7, -17614.875, 0.0006900452, -0.0017087255, -15458.495, -15458.495, 0.0, 2.5005026, 2.498899 
3.713203e+2, 4.6223187e+1, -19138.045, -501758.5, -17721.125, 0.0005522306, -0.0020171518, -18488.227, -18488.227, 0.0, 2.5004973, 2.4988992 
3.7132022e+2, 4.872208e+1, -22179.78, -503098.25, -17828.598, 0.00043164627, -0.002324211, -21519.744, -21519.744, 0.0, 2.5004919, 2.4988995 
3.7132016e+2, 5.1221067e+1, 21272.613, -408601.22, -18284.734, 0.0007413177, -0.0018684245, 22048.955, 22048.955, 0.0, 2.5004873, 2.4990637 
3.713201e+2, 5.372014e+1, 19750.49, -408562.56, -18615.418, 0.0017128063, -0.0012908668, 20558.035, 20558.035, 0.0, 2.500484, 2.4990656 
3.7132e+2, 5.621921e+1, 17809.56, -409391.4, -18844.26, 0.0027114507, -0.0007135318, 18639.19, 18639.19, 0.0, 2.5004804, 2.4990659 
3.7131995e+2, 5.871828e+1, 15865.978, -410221.5, -19074.346, 0.0037359572, -0.00013274988, 16718.16, 16718.16, 0.0, 2.500477, 2.499066 
3.713199e+2, 6.121743e+1, 59001.598, -315870.1, -17084.514, 0.0037679581, 0.00012732782, 59778.6, 59778.6, 0.0, 2.500472, 2.4992304 
3.713198e+2, 6.3716656e+1, 55188.926, -317178.78, -16546.156, 0.0032859454, -0.000594106, 55922.707, 55922.707, 0.0, 2.500465, 2.4992316 
3.7131974e+2, 6.621588e+1, 51091.61, -319072.88, -16489.607, 0.0028300658, -0.0013151406, 51824.715, 51824.715, 0.0, 2.5004578, 2.4992318 
3.7131968e+2, 6.87151e+1, 46991.66, -320968.22, -16434.209, 0.0023969808, -0.002031742, 47724.203, 47724.203, 0.0, 2.5004506, 2.499232 
3.7131962e+2, 7.1214426e+1, 90462.875, -225861.27, -15012.363, 0.002020292, -0.0015505537, 91173.75, 91173.75, 0.0, 2.5004454, 2.4993978 
3.7131956e+2, 7.371383e+1, 88144.14, -226855.95, -13770.676, 0.002705576, -0.00056698086, 88745.0, 88745.0, 0.0, 2.5004413, 2.499398 
3.7131953e+2, 7.6213235e+1, 85769.91, -227954.56, -13703.519, 0.0034264852, 0.00041135098, 86367.336, 86367.336, 0.0, 2.5004373, 2.499398 
3.713195e+2, 7.8712636e+1, 83392.25, -229054.83, -13637.127, 0.004175847, 0.0013893925, 83986.33, 83986.33, 0.0, 2.500433, 2.4993982 
3.7131947e+2, 8.121212e+1, 128483.914, -132630.64, -10776.391, 0.004673783, 0.0015857273, 128927.91, 128927.91, 0.0, 2.50043, 2.4995651 
3.713194e+2, 8.371167e+1, 126217.71, -134095.81, -9107.583, 0.0043497332, 0.00020179902, 126535.97, 126535.97, 0.0, 2.5004265, 2.4995644 
3.7131938e+2, 8.621122e+1, 124188.22, -135047.86, -9297.527, 0.0040564253, -0.0011876208, 124521.25, 124521.25, 0.0, 2.5004232, 2.4995644 
3.7131938e+2, 8.871077e+1, 122152.86, -136002.73, -9487.501, 0.0037979754, -0.0025770257, 122501.06, 122501.06, 0.0, 2.5004196, 2.4995644 
3.7131932e+2, 9.121041e+1, 164257.98, -46129.06, -5518.0366, 0.0013391196, -0.0025271198, 164402.61, 164402.61, 0.0, 2.500417, 2.49972 
3.7131938e+2, 9.371013e+1, 161624.1, -48610.6, -2626.607, 0.002725602, -0.0019515657, 161656.9, 161656.9, 0.0, 2.5004137, 2.4997172 
3.713194e+2, 9.620985e+1, 159747.92, -49490.848, -2031.5265, 0.0042064744, -0.0014017045, 159767.64, 159767.64, 0.0, 2.5004106, 2.4997175 
3.7131947e+2, 9.8709565e+1, 157861.86, -50375.85, -1435.6709, 0.005732852, -0.0008701277, 157871.77, 157871.77, 0.0, 2.5004072, 2.4997175 
3.7382165e+2, 1.2491286e+0, -172071.88, -862901.1, -2285.5347, -0.0021375183, -0.00004719434, -172064.31, -172064.31, 0.0, 2.500544, 2.4982574 
3.7382165e+2, 3.7473857e+0, -170364.69, -862201.44, -2806.424, -0.0008339858, -0.00014089506, -170353.3, -170353.3, 0.0, 2.5005472, 2.498257 
3.7382165e+2, 6.245643e+0, -168568.81, -861312.8, -3299.316, 0.0004775236, -0.00023367806, -168553.11, -168553.11, 0.0, 2.50055, 2.4982572 
3.7382165e+2, 8.7439e+0, -166775.9, -860425.6, -3792.8, 0.0017970101, -0.0003255434, -166755.16, -166755.16, 0.0, 2.5005531, 2.4982572 
3.7382162e+2, 1.12422355e+1, -123732.73, -769974.4, -6333.0317, 0.0019218611, -0.00037121683, -123670.67, -123670.67, 0.0, 2.5005522, 2.4984128 
3.738216e+2, 1.3740647e+1, -126405.08, -770919.44, -7032.831, 0.00089334487, -0.0006688584, -126328.34, -126328.34, 0.0, 2.5005472, 2.4984136 
3.7382156e+2, 1.6239057e+1, -129255.32, -772230.56, -7336.9707, -0.00012427276, -0.0009631524, -129171.61, -129171.61, 0.0, 2.5005422, 2.4984136 
3.738215e+2, 1.8737471e+1, -132108.05, -773542.9, -7641.4805, -0.0011310517, -0.0012537261, -132017.03, -132017.03, 0.0, 2.5005372, 2.4984138 
3.7382147e+2, 2.1235964e+1, -89847.06, -682360.06, -11271.951, -0.0013451577, -0.0012194077, -89632.7, -89632.7, 0.0, 2.5005336, 2.4985719 
3.738214e+2, 2.3734537e+1, -90215.49, -681998.7, -12237.552, -0.0009524292, -0.001264338, -89962.54, -89962.54, 0.0, 2.5005324, 2.498573 
3.7382138e+2, 2.623311e+1, -90855.49, -682201.56, -12611.554, -0.0005535458, -0.0013081825, -90586.65, -90586.65, 0.0, 2.5005312, 2.4985733 
3.7382132e+2, 2.8731683e+1, -91497.17, -682405.25, -12986.528, -0.00014798237, -0.0013499114, -91211.91, -91211.91, 0.0, 2.50053, 2.4985735 
3.7382126e+2, 3.1230336e+1, -48745.066, -590619.44, -15060.704, 0.00019627271, -0.0012183491, -48326.797, -48326.797, 0.0, 2.5005267, 2.4987326 
3.738212e+2, 3.3729067e+1, -50900.734, -591010.7, -15946.577, 0.000374273, -0.0013649783, -50430.33, -50430.33, 0.0, 2.5005224, 2.498734 
3.738211e+2, 3.62278e+1, -53383.64, -592081.7, -16242.107, 0.0005582563, -0.0015090683, -52894.375, -52894.375, 0.0, 2.5005178, 2.4987342 
3.7382105e+2, 3.8726535e+1, -55868.418, -593153.56, -16538.78, 0.0007486455, -0.0016489333, -55359.8, -55359.8, 0.0, 2.5005136, 2.4987347 
3.73821e+2, 4.1225353e+1, -13553.636, -500265.22, -17884.607, 0.0008825326, -0.0014878418, -12897.336, -12897.336, 0.0, 2.5005083, 2.4988966 
3.738209e+2, 4.372425e+1, -16169.771, -500727.97, -18426.021, 0.0009091126, -0.001546732, -15470.105, -15470.105, 0.0, 2.5005028, 2.4988983 
3.738208e+2, 4.622315e+1, -19209.412, -502071.8, -18529.879, 0.000946461, -0.001605138, -18499.371, -18499.371, 0.0, 2.5004976, 2.4988985 
3.7382075e+2, 4.8722047e+1, -22251.049, -503416.6, -18634.957, 0.0009949137, -0.001660619, -21530.418, -21530.418, 0.0, 2.500492, 2.4988987 
3.7382066e+2, 5.122103e+1, 21031.035, -409330.78, -18858.398, 0.0011539606, -0.0012139851, 21855.826, 21855.826, 0.0, 2.5004876, 2.4990625 
3.7382057e+2, 5.37201e+1, 19506.707, -409303.13, -19138.826, 0.0017187941, -0.00086450693, 20359.225, 20359.225, 0.0, 2.5004842, 2.4990642 
3.7382048e+2, 5.6219167e+1, 17567.242, -410134.75, -19364.354, 0.0023039572, -0.00051427336, 18442.18, 18442.18, 0.0, 2.500481, 2.4990644 
3.738204e+2, 5.8718234e+1, 15625.122, -410967.66, -19591.125, 0.0029077462, -0.00015987593, 16522.947, 16522.947, 0.0, 2.5004773, 2.4990647 
3.7382033e+2, 6.1217386e+1, 59328.746, -315477.16, -18177.316, 0.0030191273, 0.00014275662, 60208.246, 60208.246, 0.0, 2.5004723, 2.4992309 
3.7382028e+2, 6.371661e+1, 55514.758, -316795.78, -17626.59, 0.0030129428, -0.00018786901, 56347.406, 56347.406, 0.0, 2.5004652, 2.499232 
3.738202e+2, 6.621584e+1, 51419.313, -318692.72, -17567.02, 0.0030250058, -0.00051776296, 52251.242, 52251.242, 0.0, 2.500458, 2.4992323 
3.7382013e+2, 6.8715066e+1, 47321.24, -320590.9, -17508.602, 0.0030527185, -0.0008433267, 48152.58, 48152.58, 0.0, 2.5004508, 2.4992325 
3.7382007e+2, 7.1214384e+1, 90855.68, -225410.6, -15624.143, 0.0027183467, -0.00055117544, 91625.664, 91625.664, 0.0, 2.5004458, 2.4993982 
3.7382e+2, 7.3713785e+1, 88551.94, -226378.75, -14396.441, 0.0029145046, -0.0002899828, 89208.67, 89208.67, 0.0, 2.5004418, 2.4993987 
3.7381995e+2, 7.6213187e+1, 86178.9, -227478.73, -14326.002, 0.003136556, -0.000033241176, 86831.87, 86831.87, 0.0, 2.5004375, 2.4993987 
3.7381992e+2, 7.871258e+1, 83802.445, -228580.36, -14256.329, 0.0033780234, 0.00022357973, 84451.72, 84451.72, 0.0, 2.5004334, 2.4993987 
3.7381986e+2, 8.121207e+1, 128467.81, -133099.23, -11248.428, 0.0038845143, 0.0005109243, 128950.65, 128950.65, 0.0, 2.5004306, 2.4995642 
3.7381986e+2, 8.3711624e+1, 126227.586, -134511.47, -9642.441, 0.0042175786, 0.00015129242, 126583.69, 126583.69, 0.0, 2.500427, 2.4995635 
3.7381983e+2, 8.6211187e+1, 124196.6, -135466.78, -9827.224, 0.0045680874, -0.00021235489, 124567.99, 124567.99, 0.0, 2.5004237, 2.4995635 
3.7381983e+2, 8.871075e+1, 122159.766, -136424.92, -10012.037, 0.0049392795, -0.0005752496, 122546.836, 122546.836, 0.0, 2.50042, 2.4995635 
3.7381977e+2, 9.121039e+1, 165774.6, -43517.81, -5986.373, 0.002562713, -0.00040872584, 165945.69, 165945.69, 0.0, 2.5004175, 2.4997241 
3.738198e+2, 9.3710107e+1, 163226.58, -45817.676, -3111.7512, 0.0026473769, -0.00047893447, 163272.89, 163272.89, 0.0, 2.5004144, 2.4997218 
3.7381983e+2, 9.6209824e+1, 161349.69, -46694.36, -2507.0742, 0.0027956616, -0.0005743878, 161379.89, 161379.89, 0.0, 2.500411, 2.499722 
3.7381983e+2, 9.870954e+1, 159462.9, -47575.805, -1901.622, 0.0029651478, -0.0006890678, 159480.38, 159480.38, 0.0, 2.500408, 2.499722 
3.7632224e+2, 1.2491274e+0, -172976.8, -864782.7, -1838.3069, -0.000029274826, -0.0000045657816, -172971.9, -172971.9, 0.0, 2.500544, 2.498254 
3.763222e+2, 3.7473822e+0, -171264.11, -864074.7, -2348.52, 0.00016692826, -0.000012997219, -171256.16, -171256.16, 0.0, 2.5005472, 2.4982538 
3.763222e+2, 6.245637e+0, -169466.86, -863186.3, -2836.8862, 0.00035703418, -0.000020494708, -169455.27, -169455.27, 0.0, 2.5005503, 2.4982538 
3.763222e+2, 8.743892e+0, -167672.56, -862299.3, -3325.8447, 0.0005410432, -0.00002705834, -167656.64, -167656.64, 0.0, 2.5005531, 2.4982538 
3.7632218e+2, 1.1242225e+1, -124281.86, -771130.06, -7119.117, 0.00052959233, -0.000057453686, -124203.516, -124203.516, 0.0, 2.5005522, 2.4984107 
3.7632215e+2, 1.3740633e+1, -126946.945, -772061.7, -7786.1924, 0.00033332314, -0.0004294069, -126852.984, -126852.984, 0.0, 2.5005472, 2.4984117 
3.7632212e+2, 1.6239043e+1, -129797.44, -773374.94, -8086.258, 0.00013801974, -0.00079650217, -129695.86, -129695.86, 0.0, 2.5005422, 2.4984117 
3.7632206e+2, 1.873745e+1, -132650.42, -774689.44, -8386.693, -0.000056317975, -0.0011583385, -132540.89, -132540.89, 0.0, 2.5005372, 2.498412 
3.7632203e+2, 2.1235941e+1, -90461.91, -683699.56, -11548.303, -0.00013273642, -0.0011479837, -90237.19, -90237.19, 0.0, 2.5005336, 2.4985695 
3.7632197e+2, 2.3734513e+1, -90852.6, -683389.6, -12424.034, -0.0002634284, -0.0011135344, -90592.22, -90592.22, 0.0, 2.5005324, 2.4985707 
3.763219e+2, 2.6233086e+1, -91490.89, -683593.9, -12795.555, -0.00039385428, -0.0010773091, -91214.5, -91214.5, 0.0, 2.5005312, 2.498571 
3.7632185e+2, 2.8731656e+1, -92130.86, -683799.0, -13168.05, -0.00052354013, -0.0010384312, -91837.94, -91837.94, 0.0, 2.50053, 2.4985712 
3.7632176e+2, 3.123031e+1, -49232.414, -591734.56, -15799.083, -0.00038196187, -0.0009228807, -48772.695, -48772.695, 0.0, 2.500527, 2.4987307 
3.763217e+2, 3.3729038e+1, -51364.008, -592080.7, -16613.348, -0.00006455853, -0.0012123006, -50854.05, -50854.05, 0.0, 2.5005224, 2.498732 
3.763216e+2, 3.622777e+1, -53846.473, -593155.44, -16906.693, 0.00025368333, -0.0014980035, -53316.99, -53316.99, 0.0, 2.500518, 2.4987323 
3.7632155e+2, 3.8726497e+1, -56330.81, -594231.1, -17201.178, 0.00057316053, -0.0017781832, -55781.305, -55781.305, 0.0, 2.5005136, 2.4987326 
3.7632146e+2, 4.122531e+1, -13627.761, -500573.53, -18785.242, 0.00091008254, -0.0015821612, -12904.145, -12904.145, 0.0, 2.5005083, 2.498896 
3.763214e+2, 4.3724212e+1, -16242.428, -501038.75, -19236.008, 0.0011191993, -0.0013959198, -15480.369, -15480.369, 0.0, 2.500503, 2.4988978 
3.7632132e+2, 4.6223113e+1, -19281.97, -502387.6, -19337.47, 0.0013325015, -0.0012074935, -18509.178, -18509.178, 0.0, 2.5004976, 2.498898 
3.7632123e+2, 4.872201e+1, -22323.51, -503737.4, -19440.156, 0.0015507822, -0.0010145846, -21539.766, -21539.766, 0.0, 2.5004923, 2.4988983 
3.7632114e+2, 5.1220995e+1, 20768.06, -410104.8, -19422.6, 0.0015688626, -0.00056662917, 21641.809, 21641.809, 0.0, 2.5004878, 2.499061 
3.7632105e+2, 5.3720057e+1, 19261.799, -410046.03, -19661.156, 0.0017273289, -0.0004493519, 20160.346, 20160.346, 0.0, 2.5004845, 2.4990628 
3.76321e+2, 5.6219125e+1, 17323.799, -410880.44, -19883.37, 0.0018991946, -0.0003304847, 18245.086, 18245.086, 0.0, 2.5004811, 2.499063 
3.763209e+2, 5.8718187e+1, 15383.143, -411716.13, -20106.828, 0.0020824498, -0.0002067368, 16327.636, 16327.636, 0.0, 2.5004776, 2.4990633 
3.763208e+2, 6.121733e+1, 59631.88, -315134.1, -19261.18, 0.00226121, 0.00015329132, 60619.21, 60619.21, 0.0, 2.5004725, 2.4992313 
3.7632075e+2, 6.3716567e+1, 55839.773, -316414.47, -18705.908, 0.0027308494, 0.00021004266, 56777.39, 56777.39, 0.0, 2.5004654, 2.4992325 
3.7632066e+2, 6.621581e+1, 51746.2, -318314.28, -18643.318, 0.0032109995, 0.00026764238, 52683.063, 52683.063, 0.0, 2.5004585, 2.4992328 
3.763206e+2, 6.8715036e+1, 47650.0, -320215.3, -18581.879, 0.0036996538, 0.0003294692, 48586.24, 48586.24, 0.0, 2.5004513, 2.499233 
3.7632048e+2, 7.121435e+1, 91227.0, -225004.55, -16227.284, 0.0034169478, 0.00044708356, 92057.51, 92057.51, 0.0, 2.5004463, 2.4993987 
3.7632042e+2, 7.3713744e+1, 88959.17, -225902.73, -15021.44, 0.003124001, -0.000016164202, 89674.19, 89674.19, 0.0, 2.500442, 2.4993992 
3.763204e+2, 7.6213133e+1, 86587.336, -227004.06, -14947.72, 0.0028470806, -0.0004833044, 87298.23, 87298.23, 0.0, 2.500438, 2.4993994 
3.7632033e+2, 7.8712535e+1, 84212.08, -228107.05, -14874.765, 0.00258054, -0.0009499957, 84918.92, 84918.92, 0.0, 2.500434, 2.4993994 
3.7632027e+2, 8.1212014e+1, 128433.51, -133605.63, -11709.612, 0.0030875034, -0.0005661413, 128955.734, 128955.734, 0.0, 2.500431, 2.499563 
3.7632027e+2, 8.371159e+1, 126236.875, -134928.34, -10176.901, 0.004079205, 0.00009603297, 126632.836, 126632.836, 0.0, 2.5004275, 2.4995625 
3.7632024e+2, 8.621115e+1, 124204.41, -135886.9, -10356.523, 0.0050751846, 0.00075555616, 124616.14, 124616.14, 0.0, 2.5004241, 2.4995625 
3.7632024e+2, 8.8710713e+1, 122166.086, -136848.3, -10536.176, 0.0060776724, 0.0014165696, 122593.97, 122593.97, 0.0, 2.5004206, 2.4995625 
3.7632018e+2, 9.1210365e+1, 167263.28, -40964.605, -6436.921, 0.003778498, 0.0017351055, 167462.06, 167462.06, 0.0, 2.5004182, 2.4997284 
3.763202e+2, 9.371008e+1, 164828.14, -43026.664, -3597.6206, 0.002561269, 0.0010141637, 164890.39, 164890.39, 0.0, 2.5004148, 2.4997263 
3.763202e+2, 9.6209794e+1, 162950.53, -43899.79, -2983.347, 0.0013769674, 0.0002678258, 162993.55, 162993.55, 0.0, 2.5004117, 2.4997265 
3.763202e+2, 9.870951e+1, 161063.03, -44777.67, -2368.298, 0.00018956288, -0.00049868115, 161090.28, 161090.28, 0.0, 2.5004084, 2.4997265 
3.7882277e+2, 1.2491262e+0, -172647.06, -866071.44, -1397.1421, 0.0020859595, 0.00003717062, -172644.25, -172644.25, 0.0, 2.5005462, 2.4982507 
3.7882277e+2, 3.7473786e+0, -171003.75, -865393.2, -1909.3269, 0.001173028, 0.00011217548, -170998.5, -170998.5, 0.0, 2.500549, 2.4982505 
3.7882274e+2, 6.245631e+0, -169371.53, -864585.25, -2405.9883, 0.00024119893, 0.00018806562, -169363.22, -169363.22, 0.0, 2.500552, 2.4982507 
3.788227e+2, 8.7438834e+0, -167835.06, -863823.44, -2903.435, -0.0007095279, 0.00026484093, -167822.95, -167822.95, 0.0, 2.5005546, 2.4982507 
3.788227e+2, 1.1242213e+1, -124201.84, -771997.56, -7968.592, -0.00085192465, 0.0002529156, -124103.836, -124103.836, 0.0, 2.5005531, 2.4984088 
3.7882268e+2, 1.374062e+1, -126777.72, -772866.7, -8632.366, -0.00021817499, -0.00019698184, -126662.41, -126662.41, 0.0, 2.5005484, 2.4984095 
3.7882262e+2, 1.6239025e+1, -129636.56, -774186.25, -8958.933, 0.00040741463, -0.00064070185, -129512.06, -129512.06, 0.0, 2.5005434, 2.4984097 
3.788226e+2, 1.8737431e+1, -132581.8, -775547.44, -9287.17, 0.0010249151, -0.0010778017, -132447.69, -132447.69, 0.0, 2.5005383, 2.4984097 
3.7882257e+2, 2.123592e+1, -90643.26, -684861.6, -12000.579, 0.0010800089, -0.0010766743, -90401.0, -90401.0, 0.0, 2.5005345, 2.498567 
3.788225e+2, 2.3734489e+1, -91235.48, -684664.3, -12820.455, 0.00042456575, -0.0009662065, -90958.63, -90958.63, 0.0, 2.5005329, 2.4985683 
3.7882245e+2, 2.623306e+1, -92095.516, -684978.06, -13218.052, -0.0002359813, -0.0008533829, -91800.98, -91800.98, 0.0, 2.5005314, 2.4985685 
3.7882236e+2, 2.873163e+1, -92985.44, -685306.25, -13619.009, -0.000901246, -0.0007373875, -92672.46, -92672.46, 0.0, 2.5005298, 2.4985688 
3.788223e+2, 3.123028e+1, -50182.6, -593098.06, -16835.795, -0.000950159, -0.000635765, -49661.027, -49661.027, 0.0, 2.5005262, 2.4987285 
3.7882224e+2, 3.3729005e+1, -52476.17, -593471.25, -17612.158, -0.00049340894, -0.00107111, -51903.414, -51903.414, 0.0, 2.5005214, 2.4987302 
3.7882215e+2, 3.622773e+1, -55174.684, -594654.56, -17936.807, -0.000040482235, -0.0015018098, -54578.973, -54578.973, 0.0, 2.5005167, 2.4987304 
3.788221e+2, 3.872646e+1, -57894.387, -595848.06, -18264.227, 0.00040908475, -0.0019259064, -57275.004, -57275.004, 0.0, 2.500512, 2.4987307 
3.78822e+2, 4.1225272e+1, -14961.61, -501521.28, -20115.719, 0.0009334517, -0.0016841621, -14131.388, -14131.388, 0.0, 2.5005064, 2.4988952 
3.788219e+2, 4.3724173e+1, -17616.547, -501986.47, -20523.275, 0.0013242756, -0.001256609, -16748.51, -16748.51, 0.0, 2.500501, 2.498897 
3.7882182e+2, 4.6223077e+1, -20740.088, -503381.13, -20661.98, 0.0017135689, -0.0008254143, -19857.158, -19857.158, 0.0, 2.5004954, 2.4988973 
3.7882173e+2, 4.8721978e+1, -23893.635, -504790.25, -20801.889, 0.0021024288, -0.00038829225, -22995.496, -22995.496, 0.0, 2.50049, 2.4988976 
3.788216e+2, 5.122096e+1, 18917.86, -411684.72, -20566.047, 0.0019892182, 0.00007050197, 19897.887, 19897.887, 0.0, 2.5004854, 2.4990594 
3.7882152e+2, 5.372002e+1, 17437.432, -411559.06, -20796.883, 0.0017414393, -0.000049391387, 18443.264, 18443.264, 0.0, 2.500482, 2.4990613 
3.7882143e+2, 5.621908e+1, 15473.031, -412409.97, -21042.73, 0.0015005401, -0.00016706366, 16505.395, 16505.395, 0.0, 2.5004785, 2.4990616 
3.7882134e+2, 5.871814e+1, 13490.567, -413269.56, -21290.98, 0.0012643075, -0.00027919735, 14550.14, 14550.14, 0.0, 2.500475, 2.4990618 
3.7882125e+2, 6.121729e+1, 58346.66, -315600.25, -21025.227, 0.0014983156, 0.00015205084, 59525.09, 59525.09, 0.0, 2.5004702, 2.4992318 
3.788212e+2, 6.3716525e+1, 54819.543, -316688.47, -20487.584, 0.002442717, 0.0005917789, 55945.96, 55945.96, 0.0, 2.5004635, 2.499233 
3.788211e+2, 6.621576e+1, 50929.566, -318494.16, -20438.93, 0.0033907092, 0.0010322492, 52056.94, 52056.94, 0.0, 2.5004568, 2.4992332 
3.7882105e+2, 6.8715006e+1, 47018.73, -320309.88, -20394.006, 0.004340726, 0.0014768374, 48147.53, 48147.53, 0.0, 2.50045, 2.4992335 
3.7882096e+2, 7.121432e+1, 90902.61, -224968.84, -17553.83, 0.0041190865, 0.0014336111, 91875.125, 91875.125, 0.0, 2.5004454, 2.4993992 
3.788209e+2, 7.37137e+1, 89067.2, -225572.52, -16340.813, 0.00333699, 0.00024336913, 89913.586, 89913.586, 0.0, 2.500442, 2.4994 
3.7882084e+2, 7.621309e+1, 87029.99, -226514.5, -16225.085, 0.002561795, -0.00095034175, 87867.37, 87867.37, 0.0, 2.5004385, 2.4994 
3.7882078e+2, 7.871247e+1, 84947.164, -227478.47, -16108.262, 0.0017888183, -0.0021431376, 85775.484, 85775.484, 0.0, 2.5004349, 2.4994001 
3.7882072e+2, 8.121196e+1, 129102.21, -133797.05, -12707.253, 0.002288623, -0.0016579371, 129714.99, 129714.99, 0.0, 2.5004327, 2.4995618 
3.7882072e+2, 8.371154e+1, 127487.35, -134742.84, -11163.839, 0.003939485, 0.000022379858, 127961.766, 127961.766, 0.0, 2.50043, 2.4995615 
3.788207e+2, 8.6211115e+1, 125938.58, -135471.0, -11243.052, 0.0055824034, 0.0017012112, 126421.24, 126421.24, 0.0, 2.5004275, 2.4995615 
3.788207e+2, 8.8710696e+1, 124348.445, -136219.08, -11321.431, 0.0072184703, 0.0033821831, 124839.43, 124839.43, 0.0, 2.5004246, 2.4995615 
3.7882066e+2, 9.121034e+1, 171426.7, -37156.457, -7003.943, 0.0049930965, 0.0038875295, 171661.63, 171661.63, 0.0, 2.5004234, 2.4997323 
3.7882063e+2, 9.371005e+1, 169617.44, -38690.93, -4066.3591, 0.0024769446, 0.0025114096, 169696.78, 169696.78, 0.0, 2.500421, 2.4997308 
3.7882063e+2, 9.620977e+1, 168020.73, -39425.332, -3296.1218, -0.000034692534, 0.001109379, 168073.1, 168073.1, 0.0, 2.5004182, 2.499731 
3.788206e+2, 9.870948e+1, 166209.75, -40262.92, -2530.8254, -0.0025715313, -0.00031352308, 166240.77, 166240.77, 0.0, 2.500415, 2.499731 
3.8132337e+2, 1.24912485e+0, -158897.72, -860755.75, -1378.5074, 0.0034085638, 0.00006228187, -158895.02, -158895.02, 0.0, 2.5005713, 2.4982479 
3.8132334e+2, 3.7473747e+0, -160831.84, -861799.44, -1768.4315, 0.0018817396, 0.00018560883, -160827.38, -160827.38, 0.0, 2.500568, 2.4982476 
3.813233e+2, 6.2456244e+0, -162686.83, -862675.7, -2147.3657, 0.00037404816, 0.00030728718, -162680.23, -162680.23, 0.0, 2.5005648, 2.4982476 
3.813233e+2, 8.7438744e+0, -164543.67, -863552.8, -2526.0842, -0.0011145103, 0.0004273168, -164534.55, -164534.55, 0.0, 2.5005615, 2.4982476 
3.8132328e+2, 1.1242202e+1, -121518.17, -771969.56, -8022.74, -0.0013067069, 0.00044585278, -121419.234, -121419.234, 0.0, 2.500559, 2.498406 
3.8132325e+2, 1.3740605e+1, -121865.19, -771776.44, -8839.072, -0.0002699931, 0.00002228778, -121745.0, -121745.0, 0.0, 2.5005581, 2.4984066 
3.8132322e+2, 1.6239008e+1, -122407.26, -771986.25, -9357.529, 0.00078109914, -0.00040122503, -122272.484, -122272.484, 0.0, 2.5005572, 2.498407 
3.813232e+2, 1.8737411e+1, -122951.2, -772197.0, -9876.903, 0.0018466789, -0.0008242583, -122800.98, -122800.98, 0.0, 2.5005562, 2.498407 
3.8132313e+2, 2.1235897e+1, -80392.18, -681078.6, -12715.151, 0.0019544754, -0.00082586, -80123.15, -80123.15, 0.0, 2.5005534, 2.4985647 
3.8132307e+2, 2.3734465e+1, -82604.78, -681686.4, -13446.843, 0.0009888504, -0.00072830904, -82303.11, -82303.11, 0.0, 2.500549, 2.4985657 
3.8132298e+2, 2.6233032e+1, -85050.3, -682777.1, -13808.073, 0.00003167736, -0.00062951975, -84731.484, -84731.484, 0.0, 2.5005448, 2.498566 
3.8132292e+2, 2.87316e+1, -87497.22, -683868.5, -14170.174, -0.0009167742, -0.0005286773, -87160.72, -87160.72, 0.0, 2.5005405, 2.4985662 
3.8132283e+2, 3.1230247e+1, -45467.87, -591582.6, -17642.553, -0.0010542795, -0.0004429151, -44898.51, -44898.51, 0.0, 2.500535, 2.4987268 
3.8132274e+2, 3.372897e+1, -48157.83, -592158.4, -18153.896, -0.0005453973, -0.00086486666, -47552.684, -47552.684, 0.0, 2.5005298, 2.4987285 
3.8132265e+2, 3.6227694e+1, -51234.39, -593538.44, -18285.963, -0.000023210137, -0.0012894612, -50618.508, -50618.508, 0.0, 2.5005243, 2.4987288 
3.813226e+2, 3.8726422e+1, -54312.508, -594919.25, -18419.041, 0.0005129761, -0.001714867, -53685.68, -53685.68, 0.0, 2.500519, 2.498729 
3.813225e+2, 4.1225234e+1, -11086.801, -500435.22, -20245.885, 0.0010507373, -0.0014750356, -10250.594, -10250.594, 0.0, 2.5005138, 2.4988935 
3.813224e+2, 4.3724132e+1, -12929.211, -500505.34, -20730.014, 0.0014143406, -0.0010460869, -12049.432, -12049.432, 0.0, 2.5005097, 2.4988954 
3.8132232e+2, 4.6223032e+1, -15221.074, -501508.44, -21011.982, 0.0017983885, -0.0006189138, -14314.856, -14314.856, 0.0, 2.5005057, 2.4988956 
3.8132223e+2, 4.8721936e+1, -17515.225, -502512.66, -21295.172, 0.0022038263, -0.00019123305, -16581.996, -16581.996, 0.0, 2.5005019, 2.498896 
3.8132212e+2, 5.122091e+1, 24579.951, -409343.63, -21141.598, 0.0020887414, 0.00021743591, 25607.578, 25607.578, 0.0, 2.5004957, 2.4990587 
3.8132203e+2, 5.3719974e+1, 20345.396, -410524.34, -21013.156, 0.0017372419, 0.000034203495, 21367.764, 21367.764, 0.0, 2.5004873, 2.4990606 
3.8132194e+2, 5.621903e+1, 15623.696, -412713.84, -20929.824, 0.0014066796, -0.00014943727, 16643.959, 16643.959, 0.0, 2.5004792, 2.4990606 
3.8132185e+2, 5.871809e+1, 10899.534, -414904.53, -20847.95, 0.0010952684, -0.0003303081, 11917.843, 11917.843, 0.0, 2.500471, 2.4990609 
3.8132173e+2, 6.1217237e+1, 54972.254, -317435.5, -20458.143, 0.0013292528, 0.00006727045, 56092.746, 56092.746, 0.0, 2.5004647, 2.4992313 
3.8132167e+2, 6.371648e+1, 52570.316, -317943.25, -20056.406, 0.002340771, 0.0005322325, 53652.832, 53652.832, 0.0, 2.50046, 2.4992328 
3.8132155e+2, 6.621571e+1, 49794.88, -319220.53, -20148.01, 0.003376495, 0.0009974306, 50891.688, 50891.688, 0.0, 2.500455, 2.4992328 
3.813215e+2, 6.871495e+1, 47016.523, -320499.22, -20240.701, 0.004434965, 0.0014661109, 48127.906, 48127.906, 0.0, 2.5004501, 2.499233 
3.813214e+2, 7.1214265e+1, 90807.336, -224911.83, -17323.79, 0.004296641, 0.0014280503, 91755.06, 91755.06, 0.0, 2.5004451, 2.4993994 
3.813213e+2, 7.3713654e+1, 87415.37, -226186.64, -16241.487, 0.0034369964, 0.0002606927, 88254.27, 88254.27, 0.0, 2.500439, 2.4994004 
3.8132125e+2, 7.6213044e+1, 83817.086, -227877.31, -16228.323, 0.0026106425, -0.00090741296, 84659.734, 84659.734, 0.0, 2.5004327, 2.4994004 
3.813212e+2, 7.871243e+1, 80215.22, -229569.72, -16216.221, 0.0018138702, -0.002072124, 81061.766, 81061.766, 0.0, 2.5004265, 2.4994004 
3.8132113e+2, 8.121191e+1, 122445.914, -136576.66, -12541.374, 0.0022575806, -0.001603827, 123051.72, 123051.72, 0.0, 2.5004208, 2.4995627 
3.813211e+2, 8.3711493e+1, 118616.04, -138471.63, -10639.545, 0.0038857125, 0.00005370097, 119055.6, 119055.6, 0.0, 2.5004144, 2.4995627 
3.813211e+2, 8.621107e+1, 114819.805, -140280.2, -10298.739, 0.0055294544, 0.0017071608, 115234.9, 115234.9, 0.0, 2.5004077, 2.4995627 
3.8132107e+2, 8.871065e+1, 111019.36, -142090.81, -9958.07, 0.0071893875, 0.003359859, 111410.53, 111410.53, 0.0, 2.5004013, 2.4995627 
3.8132104e+2, 9.1210306e+1, 156957.55, -43088.688, -5464.9717, 0.0052734166, 0.003933753, 157106.73, 157106.73, 0.0, 2.5003974, 2.4997346 
3.8132104e+2, 9.3710023e+1, 154914.64, -44545.203, -3495.491, 0.0026985118, 0.00280017, 154975.88, 154975.88, 0.0, 2.5003943, 2.4997337 
3.81321e+2, 9.620974e+1, 153163.47, -45366.375, -3636.896, 0.00018363398, 0.0016489977, 153230.08, 153230.08, 0.0, 2.5003912, 2.4997337 
3.81321e+2, 9.870946e+1, 151402.9, -46192.07, -3777.305, -0.0022954345, 0.00048473972, 151475.1, 151475.1, 0.0, 2.5003884, 2.4997337 
3.8382393e+2, 1.24912366e+0, -159593.56, -862200.94, -1872.6893, 0.0034950147, 0.000063813015, -159588.58, -159588.58, 0.0, 2.5005713, 2.4982455 
3.838239e+2, 3.747371e+0, -161525.66, -863239.25, -2254.3967, 0.0019064164, 0.00019127878, -161518.4, -161518.4, 0.0, 2.500568, 2.4982452 
3.8382387e+2, 6.2456185e+0, -163382.38, -864118.0, -2630.2434, 0.00032817863, 0.00031853127, -163372.5, -163372.5, 0.0, 2.5005648, 2.4982452 
3.8382384e+2, 8.743866e+0, -165240.98, -864997.7, -3005.8745, -0.0012396983, 0.00044557036, -165228.08, -165228.08, 0.0, 2.5005615, 2.4982452 
3.838238e+2, 1.124219e+1, -122431.58, -773896.8, -8222.341, -0.0014227808, 0.0004877921, -122327.82, -122327.82, 0.0, 2.5005593, 2.4984026 
3.8382378e+2, 1.3740592e+1, -122791.78, -773735.4, -8991.263, -0.0002709923, 0.0001442177, -122667.61, -122667.61, 0.0, 2.5005581, 2.4984033 
3.8382375e+2, 1.6238993e+1, -123331.484, -773944.56, -9506.944, 0.00088887074, -0.00019901761, -123192.59, -123192.59, 0.0, 2.5005572, 2.4984035 
3.8382372e+2, 1.8737392e+1, -123873.07, -774154.56, -10023.543, 0.0020568967, -0.0005415392, -123718.6, -123718.6, 0.0, 2.5005562, 2.4984035 
3.8382366e+2, 2.1235876e+1, -81016.77, -682426.3, -13407.078, 0.002170839, -0.0005504494, -80718.04, -80718.04, 0.0, 2.5005534, 2.4985623 
3.838236e+2, 2.373444e+1, -83232.39, -683045.2, -14098.671, 0.0011391137, -0.0005534353, -82901.18, -82901.18, 0.0, 2.500549, 2.4985633 
3.838235e+2, 2.6233003e+1, -85676.89, -684138.7, -14457.68, 0.00011184904, -0.0005543423, -85327.82, -85327.82, 0.0, 2.5005448, 2.4985635 
3.8382345e+2, 2.8731567e+1, -88122.805, -685232.9, -14817.56, -0.000910741, -0.0005523264, -87755.33, -87755.33, 0.0, 2.5005405, 2.4985638 
3.8382336e+2, 3.1230214e+1, -45625.85, -592002.7, -18537.17, -0.0010610967, -0.00046831142, -44997.652, -44997.652, 0.0, 2.5005352, 2.4987261 
3.8382328e+2, 3.372894e+1, -48337.78, -592628.8, -18970.008, -0.0005543741, -0.00071415375, -47677.426, -47677.426, 0.0, 2.5005298, 2.4987276 
3.838232e+2, 3.6227664e+1, -51413.516, -594011.8, -19100.191, -0.000038316553, -0.0009615089, -50741.996, -50741.996, 0.0, 2.5005245, 2.4987278 
3.8382313e+2, 3.872639e+1, -54490.8, -595395.5, -19231.385, 0.0004879798, -0.0012088369, -53807.91, -53807.91, 0.0, 2.500519, 2.498728 
3.8382304e+2, 4.12252e+1, -11502.49, -501459.38, -20914.998, 0.00092145253, -0.0009737706, -10611.304, -10611.304, 0.0, 2.500514, 2.4988916 
3.8382292e+2, 4.37241e+1, -13338.218, -501521.2, -21343.498, 0.0011618498, -0.0007315349, -12406.851, -12406.851, 0.0, 2.50051, 2.4988935 
3.8382283e+2, 4.622299e+1, -15629.034, -502527.2, -21623.033, 0.0014173301, -0.0004905755, -14670.647, -14670.647, 0.0, 2.500506, 2.4988937 
3.838227e+2, 4.872189e+1, -17922.139, -503534.3, -21903.787, 0.0016884468, -0.0002486165, -16936.158, -16936.158, 0.0, 2.5005019, 2.498894 
3.838226e+2, 5.122087e+1, 24864.111, -408944.84, -22419.438, 0.0016754695, 0.00011566521, 26019.68, 26019.68, 0.0, 2.500496, 2.4990592 
3.838225e+2, 5.3719926e+1, 20637.586, -410118.0, -22254.428, 0.0015236413, 0.00008243329, 21784.28, 21784.28, 0.0, 2.5004876, 2.499061 
3.8382238e+2, 5.621899e+1, 15918.979, -412310.1, -22168.313, 0.0013854908, 0.000047748323, 17063.516, 17063.516, 0.0, 2.5004795, 2.4990613 
3.838223e+2, 5.871805e+1, 11197.907, -414503.38, -22083.654, 0.001260039, 0.000014529533, 12340.451, 12340.451, 0.0, 2.500471, 2.4990616 
3.838222e+2, 6.12172e+1, 54980.07, -317700.97, -21207.21, 0.0014612577, 0.00034157655, 56182.973, 56182.973, 0.0, 2.500465, 2.4992306 
3.838221e+2, 6.3716435e+1, 52599.246, -318173.84, -20785.932, 0.002226518, 0.00055306166, 53760.887, 53760.887, 0.0, 2.5004601, 2.499232 
3.8382202e+2, 6.621567e+1, 49828.53, -319449.53, -20874.56, 0.0030094087, 0.00076314097, 51004.78, 51004.78, 0.0, 2.5004554, 2.4992323 
3.8382193e+2, 6.8714905e+1, 47054.902, -320726.66, -20964.273, 0.0038084101, 0.000974826, 48246.047, 48246.047, 0.0, 2.5004504, 2.4992325 
3.8382185e+2, 7.1214217e+1, 91036.31, -224773.39, -18241.98, 0.003760483, 0.0011515755, 92086.52, 92086.52, 0.0, 2.5004456, 2.4993994 
3.838218e+2, 7.371361e+1, 87691.89, -225958.73, -17183.287, 0.0032240257, 0.00074590265, 88630.47, 88630.47, 0.0, 2.5004394, 2.4994004 
3.838217e+2, 7.6213014e+1, 84097.69, -227649.89, -17166.885, 0.0027127315, 0.00033813517, 85040.164, 85040.164, 0.0, 2.5004332, 2.4994006 
3.8382164e+2, 7.8712404e+1, 80499.89, -229342.78, -17151.543, 0.0022237774, -0.00006800974, 81446.43, 81446.43, 0.0, 2.500427, 2.4994006 
3.8382158e+2, 8.121189e+1, 123322.164, -135183.36, -13490.867, 0.0025405895, 0.00031805292, 124024.32, 124024.32, 0.0, 2.5004213, 2.4995651 
3.8382155e+2, 8.3711463e+1, 119578.16, -136901.98, -11626.8955, 0.0035744787, 0.0010455074, 120104.15, 120104.15, 0.0, 2.5004148, 2.4995651 
3.8382152e+2, 8.621104e+1, 115782.945, -138709.56, -11283.335, 0.0046165707, 0.0017686855, 116282.234, 116282.234, 0.0, 2.5004082, 2.4995654 
3.8382146e+2, 8.871061e+1, 111983.54, -140519.16, -10939.909, 0.005667601, 0.002490802, 112456.63, 112456.63, 0.0, 2.5004017, 2.4995654 
3.8382143e+2, 9.121026e+1, 157063.53, -43396.336, -5876.851, 0.0041944543, 0.003053833, 157235.69, 157235.69, 0.0, 2.500398, 2.499734 
3.838214e+2, 9.370998e+1, 155130.69, -44619.996, -3941.1008, 0.002549718, 0.0029682647, 155208.4, 155208.4, 0.0, 2.500395, 2.4997332 
3.838214e+2, 9.6209717e+1, 153376.5, -45441.645, -4075.178, 0.0009441659, 0.0028661794, 153460.0, 153460.0, 0.0, 2.500392, 2.4997332 
3.838214e+2, 9.870944e+1, 151612.94, -46267.82, -4208.2593, -0.00064169266, 0.0027512254, 151702.39, 151702.39, 0.0, 2.5003889, 2.4997332 
3.863245e+2, 1.2491224e+0, -160290.13, -863647.6, -2366.529, 0.0035817237, 0.00006409524, -160282.17, -160282.17, 0.0, 2.5005713, 2.4982429 
3.8632447e+2, 3.7473673e+0, -162221.69, -864683.75, -2740.4197, 0.0019318664, 0.00019320197, -162211.0, -162211.0, 0.0, 2.500568, 2.4982426 
3.8632444e+2, 6.245612e+0, -164080.17, -865565.0, -3113.1787, 0.00028359782, 0.00032353072, -164066.34, -164066.34, 0.0, 2.5005648, 2.4982429 
3.863244e+2, 8.743857e+0, -165940.52, -866447.2, -3485.7222, -0.0013630819, 0.0004550814, -165923.17, -165923.17, 0.0, 2.5005615, 2.4982429 
3.8632438e+2, 1.12421796e+1, -123355.875, -775846.6, -8414.077, -0.0015436192, 0.0005290056, -123247.39, -123247.39, 0.0, 2.5005593, 2.4983993 
3.8632435e+2, 1.3740578e+1, -123720.37, -775698.5, -9142.947, -0.00027867517, 0.0002611727, -123592.18, -123592.18, 0.0, 2.5005584, 2.4984 
3.8632432e+2, 1.6238976e+1, -124257.71, -775906.94, -9655.853, 0.0009880598, -0.0000060623715, -124114.664, -124114.664, 0.0, 2.5005574, 2.4984 
3.863243e+2, 1.8737373e+1, -124796.94, -776116.3, -10169.676, 0.0022566332, -0.00027234957, -124638.19, -124638.19, 0.0, 2.5005562, 2.4984002 
3.8632423e+2, 2.1235853e+1, -81658.96, -683810.56, -14099.446, 0.0023929072, -0.00028189714, -81329.0, -81329.0, 0.0, 2.5005534, 2.49856 
3.8632417e+2, 2.3734413e+1, -83861.75, -684407.6, -14749.784, 0.0012949015, -0.00038987093, -83499.7, -83499.7, 0.0, 2.500549, 2.498561 
3.8632408e+2, 2.6232976e+1, -86305.24, -685503.94, -15106.573, 0.00019727858, -0.0004949727, -85924.625, -85924.625, 0.0, 2.5005448, 2.4985611 
3.86324e+2, 2.8731534e+1, -88750.15, -686600.9, -15464.232, -0.0008997164, -0.0005962817, -88350.414, -88350.414, 0.0, 2.5005405, 2.4985614 
3.863239e+2, 3.1230178e+1, -45800.426, -592457.1, -19424.814, -0.0010789857, -0.00049833907, -45111.06, -45111.06, 0.0, 2.5005352, 2.4987254 
3.863238e+2, 3.3728904e+1, -48519.086, -593102.06, -19785.307, -0.00057458633, -0.00057136314, -47801.21, -47801.21, 0.0, 2.50053, 2.4987268 
3.8632372e+2, 3.6227632e+1, -51593.992, -594487.94, -19913.607, -0.00006469394, -0.0006449103, -50864.53, -50864.53, 0.0, 2.5005245, 2.498727 
3.8632363e+2, 3.8726357e+1, -54670.45, -595874.56, -20042.916, 0.00045167693, -0.000717592, -53929.195, -53929.195, 0.0, 2.500519, 2.4987273 
3.863235e+2, 4.122517e+1, -11936.545, -502521.72, -21575.666, 0.0007934208, -0.0004809577, -10989.487, -10989.487, 0.0, 2.5005143, 2.4988897 
3.8632342e+2, 4.372406e+1, -13748.381, -502539.44, -21956.01, 0.0009110896, -0.00042860417, -12764.12, -12764.12, 0.0, 2.5005102, 2.4988916 
3.8632333e+2, 4.6222955e+1, -16038.151, -503548.38, -22233.111, 0.0010383566, -0.00037710846, -15026.301, -15026.301, 0.0, 2.5005062, 2.4988918 
3.863232e+2, 4.8721847e+1, -18330.209, -504558.4, -22511.432, 0.0011755071, -0.0003241212, -17290.197, -17290.197, 0.0, 2.500502, 2.498892 
3.8632312e+2, 5.122082e+1, 25128.05, -408588.1, -23692.748, 0.0012519251, 0.000008865164, 26418.484, 26418.484, 0.0, 2.500496, 2.4990597 
3.86323e+2, 5.3719884e+1, 20928.668, -409714.0, -23494.51, 0.0013000559, 0.00012174073, 22206.662, 22206.662, 0.0, 2.5004878, 2.4990618 
3.863229e+2, 5.6218946e+1, 16213.151, -411908.7, -23405.611, 0.0013547447, 0.0002319506, 17488.943, 17488.943, 0.0, 2.5004797, 2.4990618 
3.863228e+2, 5.8718014e+1, 11495.172, -414104.56, -23318.168, 0.00141568, 0.00034232292, 12768.9375, 12768.9375, 0.0, 2.5004714, 2.499062 
3.8632268e+2, 6.121716e+1, 54967.29, -318009.22, -21947.063, 0.0015901809, 0.0006113086, 56254.28, 56254.28, 0.0, 2.5004652, 2.49923 
3.8632256e+2, 6.3716394e+1, 52627.258, -318406.34, -21514.76, 0.0021079278, 0.00056553644, 53870.645, 53870.645, 0.0, 2.5004604, 2.4992316 
3.8632247e+2, 6.621562e+1, 49861.266, -319680.47, -21600.41, 0.0026366517, 0.0005165253, 51119.566, 51119.566, 0.0, 2.5004556, 2.4992318 
3.8632238e+2, 6.871485e+1, 47092.36, -320956.0, -21687.146, 0.0031748514, 0.00046724352, 48365.86, 48365.86, 0.0, 2.5004508, 2.4992318 
3.863223e+2, 7.1214175e+1, 91239.28, -224688.95, -19156.443, 0.0032170846, 0.0008773865, 92396.6, 92396.6, 0.0, 2.5004458, 2.4993994 
3.863222e+2, 7.3713577e+1, 87967.57, -225732.58, -18124.139, 0.0030032462, 0.0012296251, 89011.23, 89011.23, 0.0, 2.5004396, 2.4994006 
3.863221e+2, 7.621297e+1, 84377.44, -227424.23, -18104.498, 0.002806427, 0.0015781228, 85425.14, 85425.14, 0.0, 2.5004334, 2.4994009 
3.8632205e+2, 7.871238e+1, 80783.71, -229117.64, -18085.918, 0.0026247066, 0.0019264715, 81835.64, 81835.64, 0.0, 2.5004272, 2.4994009 
3.86322e+2, 8.121187e+1, 124175.89, -133836.88, -14431.192, 0.0028180361, 0.0022392825, 124980.55, 124980.55, 0.0, 2.5004218, 2.499567 
3.8632193e+2, 8.3711433e+1, 120539.63, -135333.67, -12614.108, 0.0032576711, 0.002033634, 121159.984, 121159.984, 0.0, 2.5004153, 2.4995677 
3.863219e+2, 8.6210996e+1, 116745.46, -137140.23, -12267.791, 0.0036980498, 0.0018233374, 117336.87, 117336.87, 0.0, 2.5004086, 2.4995677 
3.8632187e+2, 8.8710564e+1, 112947.08, -138948.83, -11921.61, 0.0041401144, 0.0016116787, 113510.04, 113510.04, 0.0, 2.5004022, 2.4995677 
3.863218e+2, 9.121021e+1, 157144.78, -43755.4, -6273.1616, 0.0031014206, 0.0021922213, 157340.47, 157340.47, 0.0, 2.5003986, 2.499733 
3.863218e+2, 9.370995e+1, 155345.77, -44696.79, -4387.353, 0.0023885234, 0.0031494654, 155441.94, 155441.94, 0.0, 2.5003955, 2.4997327 
3.863218e+2, 9.620969e+1, 153588.58, -45518.918, -4514.1025, 0.0016940827, 0.0040907743, 153690.86, 153690.86, 0.0, 2.5003924, 2.499733 
3.863218e+2, 9.8709434e+1, 151821.98, -46345.574, -4639.856, 0.0010032194, 0.0050194305, 151930.56, 151930.56, 0.0, 2.5003893, 2.499733 
3.8882506e+2, 1.2491212e+0, -160806.05, -865009.1, -2867.3494, 0.0036747435, 0.00006335544, -160794.38, -160794.38, 0.0, 2.5005715, 2.4982405 
3.8882503e+2, 3.7473637e+0, -162601.8, -865980.1, -3248.2522, 0.001963338, 0.00019202287, -162586.8, -162586.8, 0.0, 2.5005684, 2.4982402 
3.88825e+2, 6.245606e+0, -164376.95, -866822.9, -3631.2654, 0.0002453446, 0.00032329943, -164358.19, -164358.19, 0.0, 2.5005655, 2.4982402 
3.8882497e+2, 8.743849e+0, -166205.67, -867691.44, -4012.8086, -0.001479237, 0.0004571851, -166182.72, -166182.72, 0.0, 2.5005622, 2.4982402 
3.8882494e+2, 1.12421684e+1, -123907.93, -777634.75, -8653.411, -0.0016638178, 0.0005710575, -123793.4, -123793.4, 0.0, 2.50056, 2.498396 
3.888249e+2, 1.3740563e+1, -124384.91, -777538.0, -9354.794, -0.0002882944, 0.00037491848, -124250.95, -124250.95, 0.0, 2.5005589, 2.4983966 
3.8882488e+2, 1.6238958e+1, -125055.15, -777811.2, -9871.196, 0.0010830626, 0.00017961144, -124905.91, -124905.91, 0.0, 2.5005577, 2.4983966 
3.8882482e+2, 1.8737355e+1, -125745.445, -778094.0, -10389.59, 0.0024502387, -0.000014509823, -125580.016, -125580.016, 0.0, 2.5005562, 2.4983969 
3.888248e+2, 2.1235833e+1, -82483.07, -685313.25, -14878.735, 0.0026248738, -0.000017784701, -82116.06, -82116.06, 0.0, 2.5005531, 2.4985573 
3.888247e+2, 2.3734388e+1, -84788.516, -685919.5, -15506.074, 0.0014602153, -0.00023499959, -84388.805, -84388.805, 0.0, 2.5005486, 2.4985585 
3.888246e+2, 2.6232946e+1, -87385.75, -687093.6, -15882.652, 0.00029218858, -0.0004487742, -86965.41, -86965.41, 0.0, 2.500544, 2.4985588 
3.8882452e+2, 2.87315e+1, -90007.875, -688279.75, -16262.704, -0.00087884464, -0.0006580626, -89566.13, -89566.13, 0.0, 2.5005395, 2.498559 
3.8882443e+2, 3.1230146e+1, -46759.727, -593323.8, -20500.387, -0.001103025, -0.0005308945, -45991.883, -45991.883, 0.0, 2.500534, 2.4987245 
3.8882434e+2, 3.372887e+1, -49562.54, -594001.06, -20856.59, -0.00060171133, -0.00043486388, -48764.727, -48764.727, 0.0, 2.5005286, 2.498726 
3.8882425e+2, 3.62276e+1, -52739.676, -595440.06, -21047.807, -0.00009830854, -0.00033858005, -51924.594, -51924.594, 0.0, 2.500523, 2.4987261 
3.8882416e+2, 3.8726327e+1, -55928.76, -596884.75, -21242.95, 0.0004081208, -0.00024066457, -55095.848, -55095.848, 0.0, 2.5005174, 2.4987264 
3.8882405e+2, 4.1225135e+1, -13583.824, -504207.97, -22683.088, 0.00067056244, 0.0000033582744, -12537.347, -12537.347, 0.0, 2.5005124, 2.4988878 
3.8882396e+2, 4.3724024e+1, -15477.804, -504205.84, -23089.06, 0.00066571374, -0.00013769488, -14389.427, -14389.427, 0.0, 2.500508, 2.49889 
3.888238e+2, 4.6222913e+1, -17901.975, -505283.5, -23433.57, 0.00066522753, -0.0002793235, -16777.867, -16777.867, 0.0, 2.5005038, 2.49889 
3.888237e+2, 4.8721802e+1, -20340.666, -506368.16, -23782.828, 0.0006692428, -0.00041902316, -19179.672, -19179.672, 0.0, 2.5004995, 2.4988902 
3.888236e+2, 5.122078e+1, 23759.785, -409061.25, -25697.719, 0.00082216994, -0.00010509056, 25280.186, 25280.186, 0.0, 2.5004935, 2.4990602 
3.8882348e+2, 5.371984e+1, 19726.34, -410043.0, -25542.984, 0.0010699747, 0.00014901077, 21239.14, 21239.14, 0.0, 2.5004854, 2.4990623 
3.8882336e+2, 5.621891e+1, 15104.811, -412196.88, -25529.21, 0.0013181086, 0.00039928482, 16624.652, 16624.652, 0.0, 2.5004776, 2.4990625 
3.8882324e+2, 5.871798e+1, 10451.986, -414365.84, -25521.389, 0.0015667819, 0.00064863695, 11979.717, 11979.717, 0.0, 2.5004694, 2.4990625 
3.8882312e+2, 6.1217123e+1, 53717.855, -318953.44, -23700.969, 0.001720463, 0.00087107526, 55219.13, 55219.13, 0.0, 2.5004635, 2.4992292 
3.8882303e+2, 6.3716346e+1, 51622.117, -319145.8, -23293.494, 0.0019881253, 0.0005629925, 53079.8, 53079.8, 0.0, 2.500459, 2.499231 
3.8882294e+2, 6.6215575e+1, 49009.793, -320347.1, -23410.34, 0.002260787, 0.00024996614, 50487.66, 50487.66, 0.0, 2.5004544, 2.499231 
3.8882282e+2, 6.8714803e+1, 46359.637, -321566.6, -23535.082, 0.00253704, -0.000064889406, 47858.992, 47858.992, 0.0, 2.50045, 2.4992313 
3.8882273e+2, 7.121413e+1, 90863.79, -224927.75, -21199.066, 0.0026691714, 0.00059628324, 92280.52, 92280.52, 0.0, 2.5004454, 2.4993994 
3.8882264e+2, 7.371354e+1, 88006.086, -225625.48, -20168.049, 0.0027770943, 0.0017012985, 89297.67, 89297.67, 0.0, 2.5004396, 2.4994009 
3.888226e+2, 7.621294e+1, 84688.07, -227188.92, -20123.69, 0.0028945708, 0.002800776, 85981.18, 85981.18, 0.0, 2.500434, 2.4994009 
3.8882247e+2, 7.8712356e+1, 81318.28, -228777.28, -20086.762, 0.0030205974, 0.003898482, 82614.01, 82614.01, 0.0, 2.5004282, 2.499401 
3.888224e+2, 8.121185e+1, 125649.67, -132224.06, -16384.994, 0.0030939586, 0.004146107, 126686.586, 126686.586, 0.0, 2.5004234, 2.4995692 
3.8882235e+2, 8.3711404e+1, 122704.94, -133182.98, -14549.393, 0.0029387888, 0.0030035453, 123529.54, 123529.54, 0.0, 2.5004177, 2.4995701 
3.888223e+2, 8.621096e+1, 119402.75, -134752.25, -14129.513, 0.0027781331, 0.0018558955, 120185.86, 120185.86, 0.0, 2.500412, 2.4995701 
3.8882223e+2, 8.8710517e+1, 116025.37, -136357.73, -13713.344, 0.0026131908, 0.0007066801, 116768.3, 116768.3, 0.0, 2.5004063, 2.4995701 
3.888222e+2, 9.1210175e+1, 159764.69, -42918.93, -7326.188, 0.0020012548, 0.001332624, 160029.16, 160029.16, 0.0, 2.5004034, 2.499732 
3.888222e+2, 9.370992e+1, 158494.81, -43349.895, -5294.032, 0.0022218127, 0.003326887, 158633.58, 158633.58, 0.0, 2.500401, 2.4997325 
3.888222e+2, 9.620967e+1, 156880.56, -44102.496, -5201.0796, 0.0024425425, 0.0053050406, 157015.06, 157015.06, 0.0, 2.5003984, 2.4997325 
3.888222e+2, 9.8709416e+1, 155031.27, -44968.277, -5107.2246, 0.0026530584, 0.007270491, 155161.6, 155161.6, 0.0, 2.500395, 2.4997325 
3.9132565e+2, 1.2491195e+0, -154234.66, -863251.44, -3161.0771, 0.0031042278, 0.00004934811, -154220.58, -154220.58, 0.0, 2.5005844, 2.4982374 
3.9132562e+2, 3.7473583e+0, -154253.77, -863364.2, -3699.5469, 0.0018161878, 0.00014851466, -154234.45, -154234.45, 0.0, 2.5005844, 2.4982371 
3.913256e+2, 6.2455976e+0, -154200.77, -863325.06, -4245.545, 0.0005369669, 0.00024830873, -154175.34, -154175.34, 0.0, 2.5005844, 2.4982371 
3.9132556e+2, 8.743836e+0, -154149.11, -863286.56, -4791.966, -0.0007334345, 0.00034873016, -154116.73, -154116.73, 0.0, 2.5005846, 2.4982371 
3.9132553e+2, 1.12421535e+1, -111449.0, -772865.1, -9575.673, -0.00089561, 0.0005117282, -111310.4, -111310.4, 0.0, 2.5005827, 2.498393 
3.9132547e+2, 1.3740547e+1, -113318.81, -773451.75, -10061.077, 0.00008885357, 0.00045349085, -113165.51, -113165.51, 0.0, 2.500579, 2.4983938 
3.9132544e+2, 1.6238941e+1, -115359.32, -774391.6, -10380.0205, 0.0010767849, 0.0003952035, -115195.875, -115195.875, 0.0, 2.5005755, 2.4983938 
3.913254e+2, 1.8737336e+1, -117400.88, -775332.0, -10699.633, 0.0020681312, 0.00033721476, -117226.92, -117226.92, 0.0, 2.500572, 2.498394 
3.9132535e+2, 2.1235812e+1, -75065.25, -682852.56, -15497.62, 0.002196861, 0.0003745228, -74670.34, -74670.34, 0.0, 2.5005672, 2.498555 
3.9132527e+2, 2.3734364e+1, -78034.92, -683793.44, -16046.99, 0.0012827987, 0.0001093062, -77610.125, -77610.125, 0.0, 2.5005615, 2.4985561 
3.9132518e+2, 2.623292e+1, -81274.1, -685293.1, -16384.016, 0.00037658922, -0.00015860837, -80830.01, -80830.01, 0.0, 2.500556, 2.4985561 
3.913251e+2, 2.873147e+1, -84514.9, -686793.56, -16721.773, -0.00052129617, -0.00042820445, -84050.99, -84050.99, 0.0, 2.5005503, 2.4985564 
3.9132497e+2, 3.1230113e+1, -40926.277, -591457.56, -21016.67, -0.0006946461, -0.0003598991, -40125.13, -40125.13, 0.0, 2.500545, 2.4987223 
3.9132488e+2, 3.3728835e+1, -42962.707, -591784.2, -21494.447, -0.00032498475, -0.00032152695, -42122.17, -42122.17, 0.0, 2.500541, 2.4987237 
3.9132476e+2, 3.6227563e+1, -45363.066, -592865.9, -21847.389, 0.00005526072, -0.00028602712, -44492.656, -44492.656, 0.0, 2.5005367, 2.498724 
3.9132467e+2, 3.8726288e+1, -47765.133, -593948.3, -22201.387, 0.00044685084, -0.00025200695, -46864.17, -46864.17, 0.0, 2.5005326, 2.498724 
3.9132455e+2, 4.1225094e+1, -6230.58, -501371.2, -23839.336, 0.0006227033, -0.000015441043, -5085.446, -5085.446, 0.0, 2.5005257, 2.498886 
3.9132443e+2, 4.372398e+1, -10960.887, -502734.03, -23880.287, 0.0005237409, -0.00008351435, -9803.992, -9803.992, 0.0, 2.5005167, 2.4988883 
3.913243e+2, 4.622287e+1, -16221.661, -505196.56, -23884.371, 0.00043787452, -0.00015407107, -15057.78, -15057.78, 0.0, 2.5005076, 2.4988885 
3.9132422e+2, 4.8721755e+1, -21484.705, -507660.22, -23889.691, 0.00036540668, -0.0002246999, -20313.635, -20313.635, 0.0, 2.5004985, 2.4988885 
3.913241e+2, 5.122073e+1, 22288.156, -410083.44, -25637.621, 0.0005734948, 0.00008140632, 23803.04, 23803.04, 0.0, 2.5004914, 2.4990594 
3.9132398e+2, 5.37198e+1, 19948.709, -410223.03, -25527.06, 0.0010052547, 0.00025299363, 21458.229, 21458.229, 0.0, 2.5004861, 2.4990616 
3.9132386e+2, 5.621886e+1, 17023.836, -411574.28, -25583.043, 0.001460506, 0.00042641623, 18545.488, 18545.488, 0.0, 2.5004811, 2.4990618 
3.9132375e+2, 5.8717924e+1, 14095.818, -412927.03, -25640.254, 0.0019395704, 0.0006045997, 15629.856, 15629.856, 0.0, 2.5004761, 2.4990618 
3.913236e+2, 6.121707e+1, 57028.76, -317493.84, -23723.629, 0.002080018, 0.00074093207, 58525.523, 58525.523, 0.0, 2.5004692, 2.499229 
3.9132348e+2, 6.37163e+1, 52389.227, -318852.6, -23047.197, 0.0020197998, 0.00033153206, 53814.555, 53814.555, 0.0, 2.5004604, 2.4992309 
3.9132336e+2, 6.621552e+1, 47221.246, -321300.22, -22883.83, 0.0019862542, -0.00007340002, 48636.81, 48636.81, 0.0, 2.5004516, 2.4992309 
3.9132327e+2, 6.871475e+1, 42049.445, -323749.7, -22721.773, 0.0019783776, -0.00047072666, 43455.414, 43455.414, 0.0, 2.5004425, 2.499231 
3.9132315e+2, 7.1214074e+1, 84842.31, -227494.03, -20063.496, 0.0021603524, 0.0002052666, 86125.85, 86125.85, 0.0, 2.5004346, 2.4994001 
3.9132306e+2, 7.371349e+1, 80714.56, -228688.05, -18802.854, 0.0025745397, 0.0014132013, 81853.055, 81853.055, 0.0, 2.5004268, 2.4994018 
3.91323e+2, 7.62129e+1, 76093.195, -230893.22, -18495.389, 0.0030150972, 0.0026203974, 77203.49, 77203.49, 0.0, 2.5004187, 2.499402 
3.913229e+2, 7.871231e+1, 71466.95, -233100.75, -18188.537, 0.0034816617, 0.0038306832, 72549.31, 72549.31, 0.0, 2.5004108, 2.499402 
3.9132282e+2, 8.12118e+1, 115607.9, -136136.38, -14076.311, 0.0034742097, 0.0040403767, 116392.53, 116392.53, 0.0, 2.500405, 2.499571 
3.9132276e+2, 8.3711356e+1, 113390.3, -136550.02, -12424.039, 0.0028279582, 0.002710432, 114006.35, 114006.35, 0.0, 2.5004005, 2.4995728 
3.913227e+2, 8.621091e+1, 110761.86, -137797.66, -12145.967, 0.0022139791, 0.0013779665, 111353.96, 111353.96, 0.0, 2.500396, 2.4995728 
3.9132264e+2, 8.871048e+1, 108126.266, -139048.72, -11868.257, 0.001633404, 0.000046450747, 108694.82, 108694.82, 0.0, 2.5003915, 2.4995728 
3.913226e+2, 9.121014e+1, 150339.63, -46654.777, -5268.0474, 0.0013869341, 0.00060275843, 150480.4, 150480.4, 0.0, 2.5003865, 2.499734 
3.913226e+2, 9.3709886e+1, 146145.5, -48226.332, -2958.432, 0.0022020126, 0.0025985404, 146190.52, 146190.52, 0.0, 2.5003788, 2.4997349 
3.913226e+2, 9.6209633e+1, 141660.98, -50367.08, -2525.4587, 0.0030754493, 0.004570593, 141694.19, 141694.19, 0.0, 2.500371, 2.4997349 
3.913226e+2, 9.8709387e+1, 137164.66, -52513.504, -2091.0132, 0.0040016733, 0.0065226164, 137187.72, 137187.72, 0.0, 2.5003633, 2.4997349 
3.9382625e+2, 1.24911726e+0, -155249.27, -865360.56, -3156.0205, 0.0015364966, 0.000009386263, -155235.23, -155235.23, 0.0, 2.5005844, 2.4982338 
3.9382622e+2, 3.7473518e+0, -155266.39, -865471.56, -3690.6726, 0.0011795821, 0.000028442566, -155247.22, -155247.22, 0.0, 2.5005844, 2.4982336 
3.938262e+2, 6.245586e+0, -155212.08, -865431.94, -4234.8276, 0.0008261924, 0.00004787758, -155186.83, -155186.83, 0.0, 2.5005844, 2.4982336 
3.9382613e+2, 8.7438214e+0, -155159.1, -865392.94, -4779.4053, 0.0004763276, 0.00006769124, -155126.92, -155126.92, 0.0, 2.5005846, 2.4982336 
3.938261e+2, 1.1242136e+1, -112019.54, -774069.2, -10131.848, 0.00036772838, 0.00027349967, -111864.52, -111864.52, 0.0, 2.5005827, 2.498391 
3.9382607e+2, 1.3740529e+1, -113896.82, -774674.9, -10600.878, 0.0005380843, 0.0003993821, -113726.79, -113726.79, 0.0, 2.500579, 2.4983916 
3.93826e+2, 1.6238922e+1, -115936.61, -775616.9, -10918.194, 0.00070915266, 0.0005256689, -115755.95, -115755.95, 0.0, 2.5005755, 2.4983919 
3.9382595e+2, 1.8737316e+1, -117977.46, -776559.3, -11236.181, 0.00088088127, 0.0006526909, -117785.81, -117785.81, 0.0, 2.500572, 2.4983919 
3.938259e+2, 2.1235791e+1, -75635.83, -684090.8, -16390.318, 0.0008788386, 0.00075306755, -75194.63, -75194.63, 0.0, 2.5005672, 2.4985528 
3.938258e+2, 2.3734343e+1, -78627.72, -685081.1, -16900.229, 0.00052814593, 0.00048625452, -78157.125, -78157.125, 0.0, 2.5005615, 2.4985538 
3.938257e+2, 2.6232892e+1, -81866.23, -686582.5, -17235.48, 0.00018233401, 0.00021720852, -81375.38, -81375.38, 0.0, 2.500556, 2.498554 
3.9382562e+2, 2.8731444e+1, -85106.36, -688084.6, -17571.46, -0.0001581119, -0.00005319833, -84594.74, -84594.74, 0.0, 2.5005503, 2.498554 
3.9382553e+2, 3.123008e+1, -41526.848, -592794.1, -21681.654, -0.00018093834, -0.000106358864, -40675.41, -40675.41, 0.0, 2.5005453, 2.49872 
3.938254e+2, 3.3728802e+1, -43566.62, -593132.75, -22132.734, -0.000019706693, -0.00031500828, -42676.707, -42676.707, 0.0, 2.500541, 2.4987214 
3.9382532e+2, 3.622752e+1, -45965.934, -594217.06, -22483.727, 0.00014874611, -0.0005266828, -45045.426, -45045.426, 0.0, 2.500537, 2.4987216 
3.938252e+2, 3.8726243e+1, -48366.96, -595302.25, -22835.773, 0.00032497288, -0.0007399674, -47415.17, -47415.17, 0.0, 2.5005326, 2.4987218 
3.9382508e+2, 4.122505e+1, -6155.067, -501335.72, -25242.066, 0.00040284873, -0.0004883234, -4871.667, -4871.667, 0.0, 2.500526, 2.498886 
3.9382496e+2, 4.3723938e+1, -10893.777, -502722.97, -25259.434, 0.00025581286, -0.00021190011, -9599.904, -9599.904, 0.0, 2.500517, 2.4988883 
3.9382482e+2, 4.6222833e+1, -16152.716, -505188.5, -25261.121, 0.00011633995, 0.00006156142, -14851.316, -14851.316, 0.0, 2.5005076, 2.4988883 
3.938247e+2, 4.8721722e+1, -21413.922, -507655.13, -25264.043, -0.000014950975, 0.000334199, -20104.781, -20104.781, 0.0, 2.5004985, 2.4988885 
3.9382458e+2, 5.12207e+1, 22292.223, -410268.4, -26436.945, 0.00024595176, 0.0006943973, 23901.988, 23901.988, 0.0, 2.5004914, 2.499059 
3.9382446e+2, 5.371976e+1, 19966.031, -410389.1, -26295.648, 0.00088697724, 0.00063461997, 21566.799, 21566.799, 0.0, 2.5004864, 2.4990613 
3.938243e+2, 5.621882e+1, 17044.75, -411740.94, -26348.809, 0.0015444829, 0.0005751099, 18657.813, 18657.813, 0.0, 2.5004814, 2.4990613 
3.938242e+2, 5.871788e+1, 14120.325, -413094.28, -26403.2, 0.002218558, 0.0005187564, 15745.939, 15745.939, 0.0, 2.5004764, 2.4990616 
3.9382407e+2, 6.121703e+1, 57449.367, -316865.25, -25069.229, 0.002359333, 0.0005939343, 59120.88, 59120.88, 0.0, 2.5004697, 2.49923 
3.9382395e+2, 6.3716257e+1, 52855.24, -318141.3, -24395.266, 0.001993259, 0.00031774046, 54452.496, 54452.496, 0.0, 2.5004606, 2.499232 
3.9382383e+2, 6.6215485e+1, 47693.883, -320586.53, -24228.447, 0.0016447398, 0.000043305532, 49280.984, 49280.984, 0.0, 2.5004518, 2.499232 
3.938237e+2, 6.8714714e+1, 42528.71, -323033.6, -24062.941, 0.0013134442, -0.00022632026, 44105.836, 44105.836, 0.0, 2.5004427, 2.499232 
3.9382356e+2, 7.121403e+1, 85578.77, -226294.25, -21240.277, 0.001509661, 0.0002983788, 87018.7, 87018.7, 0.0, 2.5004349, 2.499402 
3.9382347e+2, 7.3713446e+1, 81520.55, -227351.47, -20001.17, 0.0022320366, 0.0010851822, 82810.34, 82810.34, 0.0, 2.500427, 2.499404 
3.938234e+2, 7.621286e+1, 76903.664, -229554.31, -19689.748, 0.002969201, 0.001870115, 78163.54, 78163.54, 0.0, 2.5004191, 2.499404 
3.938233e+2, 7.871227e+1, 72281.91, -231759.52, -19378.943, 0.0037212253, 0.0026569283, 73512.1, 73512.1, 0.0, 2.500411, 2.4994042 
3.9382324e+2, 8.1211764e+1, 116312.67, -135078.08, -14741.729, 0.003667202, 0.0029088042, 117174.19, 117174.19, 0.0, 2.5004056, 2.4995728 
3.9382315e+2, 8.3711326e+1, 114215.59, -135247.2, -13105.3545, 0.0026680536, 0.0021424056, 114902.18, 114902.18, 0.0, 2.500401, 2.4995747 
3.938231e+2, 8.6210895e+1, 111591.28, -136491.3, -12821.832, 0.0016866853, 0.0013728659, 112252.195, 112252.195, 0.0, 2.5003965, 2.4995747 
3.9382303e+2, 8.871046e+1, 108959.82, -137738.81, -12538.673, 0.0007239437, 0.00060336926, 109595.47, 109595.47, 0.0, 2.500392, 2.4995747 
3.9382297e+2, 9.1210115e+1, 151441.31, -44889.24, -6373.273, 0.0007430708, 0.0010073291, 151647.98, 151647.98, 0.0, 2.500387, 2.4997365 
3.9382297e+2, 9.370986e+1, 147421.48, -46088.44, -4109.1104, 0.0018509416, 0.002062508, 147508.7, 147508.7, 0.0, 2.5003793, 2.4997382 
3.9382297e+2, 9.620961e+1, 142929.97, -48231.91, -3666.373, 0.0029873876, 0.0030968648, 143000.25, 143000.25, 0.0, 2.5003715, 2.4997382 
3.9382297e+2, 9.870935e+1, 138426.64, -50381.06, -3222.1633, 0.0041519487, 0.0041145603, 138481.61, 138481.61, 0.0, 2.5003638, 2.4997382 
3.9632678e+2, 1.249115e+0, -156264.47, -867471.0, -3149.9734, -0.000031617375, -0.000031515116, -156250.53, -156250.53, 0.0, 2.5005844, 2.49823 
3.9632678e+2, 3.7473452e+0, -156280.7, -867582.4, -3681.5525, 0.0005418283, -0.000094448136, -156261.66, -156261.66, 0.0, 2.5005844, 2.4982297 
3.9632675e+2, 6.2455755e+0, -156225.06, -867542.3, -4223.8643, 0.0011135043, -0.00015725123, -156199.98, -156199.98, 0.0, 2.5005844, 2.49823 
3.9632675e+2, 8.7438047e+0, -156170.75, -867502.8, -4766.5986, 0.0016834108, -0.00021992443, -156138.81, -156138.81, 0.0, 2.5005846, 2.49823 
3.9632672e+2, 1.1242118e+1, -112599.97, -775293.75, -10686.253, 0.0016319605, 0.00003347694, -112427.69, -112427.69, 0.0, 2.5005827, 2.498389 
3.9632666e+2, 1.3740511e+1, -114476.516, -775901.56, -11140.117, 0.000988195, 0.00033963326, -114288.94, -114288.94, 0.0, 2.500579, 2.4983895 
3.963266e+2, 1.6238905e+1, -116515.59, -776845.6, -11455.807, 0.00034237726, 0.0006466308, -116316.914, -116316.914, 0.0, 2.5005755, 2.4983897 
3.9632654e+2, 1.8737297e+1, -118555.73, -777790.1, -11772.166, -0.00030553475, 0.0009548001, -118345.57, -118345.57, 0.0, 2.500572, 2.4983897 
3.9632645e+2, 2.123577e+1, -76220.375, -685358.06, -17277.701, -0.00044374698, 0.0011289527, -75730.7, -75730.7, 0.0, 2.5005672, 2.4985507 
3.9632636e+2, 2.3734319e+1, -79221.92, -686371.6, -17752.94, -0.00023119895, 0.00085671415, -78703.27, -78703.27, 0.0, 2.5005617, 2.4985516 
3.9632627e+2, 2.6232868e+1, -82459.766, -687874.75, -18086.416, -0.000016710517, 0.00058263825, -81919.92, -81919.92, 0.0, 2.500556, 2.4985516 
3.9632618e+2, 2.8731418e+1, -85699.22, -689378.7, -18420.623, 0.00020018592, 0.0003075222, -85137.66, -85137.66, 0.0, 2.5005505, 2.4985518 
3.963261e+2, 3.123005e+1, -42146.113, -594169.5, -22341.594, 0.000329099, 0.00014283284, -41243.38, -41243.38, 0.0, 2.5005453, 2.4987175 
3.9632595e+2, 3.3728766e+1, -44171.773, -594483.9, -22770.176, 0.0002826916, -0.00031667287, -43231.223, -43231.223, 0.0, 2.5005412, 2.498719 
3.9632583e+2, 3.6227483e+1, -46570.043, -595570.94, -23119.217, 0.00024013325, -0.00077945035, -45598.18, -45598.18, 0.0, 2.500537, 2.4987192 
3.9632574e+2, 3.8726196e+1, -48970.027, -596658.75, -23469.316, 0.00020177817, -0.0012439681, -47966.168, -47966.168, 0.0, 2.5005326, 2.4987195 
3.9632562e+2, 4.1225e+1, -6097.2114, -501336.97, -26640.74, 0.00017567363, -0.0009657326, -4668.2324, -4668.2324, 0.0, 2.500526, 2.498886 
3.9632547e+2, 4.3723896e+1, -10827.788, -502714.22, -26637.602, -0.000018457606, -0.00034856232, -9389.462, -9389.462, 0.0, 2.500517, 2.498888 
3.9632535e+2, 4.622279e+1, -16084.889, -505182.75, -26636.893, -0.00021050205, 0.00026503627, -14638.487, -14638.487, 0.0, 2.5005078, 2.4988883 
3.963252e+2, 4.8721686e+1, -21344.26, -507652.34, -26637.416, -0.000399581, 0.0008770591, -19889.553, -19889.553, 0.0, 2.5004988, 2.4988885 
3.9632508e+2, 5.122066e+1, 22279.482, -410488.34, -27226.764, -0.00009047204, 0.0013018487, 23985.676, 23985.676, 0.0, 2.5004916, 2.4990585 
3.9632493e+2, 5.3719723e+1, 19982.477, -410556.97, -27063.363, 0.00075938157, 0.0010078249, 21676.988, 21676.988, 0.0, 2.5004866, 2.4990609 
3.963248e+2, 5.621878e+1, 17064.79, -411909.4, -27113.701, 0.0016187634, 0.00071235915, 18771.744, 18771.744, 0.0, 2.5004816, 2.4990609 
3.9632466e+2, 5.871784e+1, 14143.957, -413263.34, -27165.27, 0.0024874713, 0.00041844568, 15863.615, 15863.615, 0.0, 2.5004766, 2.499061 
3.9632455e+2, 6.1216986e+1, 57849.87, -316278.4, -26411.902, 0.0026342897, 0.00044389206, 59705.242, 59705.242, 0.0, 2.50047, 2.4992309 
3.963244e+2, 6.3716215e+1, 53320.383, -317431.84, -25742.533, 0.001959983, 0.00029743006, 55099.234, 55099.234, 0.0, 2.5004609, 2.499233 
3.9632428e+2, 6.6215444e+1, 48165.656, -319874.66, -25572.266, 0.0012940262, 0.0001498426, 49933.977, 49933.977, 0.0, 2.500452, 2.4992332 
3.9632413e+2, 6.871468e+1, 43007.113, -322319.28, -25403.309, 0.00063684786, 0.0000042679853, 44765.098, 44765.098, 0.0, 2.5004432, 2.4992332 
3.96324e+2, 7.1213996e+1, 86296.52, -225133.34, -22411.082, 0.00085279613, 0.00039072076, 87901.0, 87901.0, 0.0, 2.5004354, 2.4994037 
3.9632392e+2, 7.371341e+1, 82325.89, -226016.25, -21199.104, 0.0018806059, 0.00075364736, 83776.55, 83776.55, 0.0, 2.5004275, 2.499406 
3.9632383e+2, 7.621281e+1, 77713.49, -228216.75, -20883.729, 0.002911539, 0.0011133607, 79132.5, 79132.5, 0.0, 2.5004194, 2.499406 
3.9632374e+2, 7.8712225e+1, 73096.22, -230419.61, -20568.969, 0.003946186, 0.001473745, 74483.81, 74483.81, 0.0, 2.5004115, 2.4994063 
3.9632365e+2, 8.1211716e+1, 116998.055, -134060.06, -15400.043, 0.0038564238, 0.0017780503, 117939.18, 117939.18, 0.0, 2.500406, 2.4995744 
3.9632356e+2, 8.371129e+1, 115040.125, -133945.98, -13786.521, 0.0025019897, 0.0015717669, 115801.164, 115801.164, 0.0, 2.5004015, 2.4995768 
3.9632347e+2, 8.621087e+1, 112419.94, -135186.53, -13497.55, 0.0011506559, 0.0013615349, 113153.54, 113153.54, 0.0, 2.500397, 2.4995768 
3.9632338e+2, 8.871044e+1, 109792.6, -136430.5, -13208.941, -0.00019682807, 0.0011504396, 110499.19, 110499.19, 0.0, 2.5003924, 2.4995768 
3.9632335e+2, 9.12101e+1, 152518.28, -43175.098, -7462.8213, 0.00008345315, 0.0014269756, 152802.45, 152802.45, 0.0, 2.5003877, 2.4997392 
3.9632335e+2, 9.370984e+1, 148696.58, -43952.42, -5260.5576, 0.0014852333, 0.0015367903, 148840.13, 148840.13, 0.0, 2.5003798, 2.4997416 
3.9632332e+2, 9.620958e+1, 144198.05, -46098.61, -4808.056, 0.0028858816, 0.0016282513, 144319.45, 144319.45, 0.0, 2.5003722, 2.4997418 
3.9632332e+2, 9.870932e+1, 139687.73, -48250.477, -4354.0825, 0.0042899717, 0.0017064193, 139788.55, 139788.55, 0.0, 2.5003643, 2.4997418 
3.9882737e+2, 1.24911286e+0, -157627.88, -869749.75, -3140.8623, -0.0015952466, -0.00007318326, -157614.02, -157614.02, 0.0, 2.5005836, 2.4982264 
3.9882737e+2, 3.7473387e+0, -157648.83, -869865.9, -3666.703, -0.00009355016, -0.00021962835, -157629.95, -157629.95, 0.0, 2.5005836, 2.4982262 
3.9882737e+2, 6.245564e+0, -157648.63, -869852.7, -4203.3945, 0.0014017652, -0.00036617782, -157623.83, -157623.83, 0.0, 2.5005836, 2.4982262 
3.9882737e+2, 8.74379e+0, -157701.98, -869865.3, -4740.382, 0.0028906988, -0.0005128317, -157670.44, -157670.44, 0.0, 2.5005836, 2.4982264 
3.988273e+2, 1.12421e+1, -113770.89, -776818.9, -11226.428, 0.002899983, -0.00020688091, -113580.87, -113580.87, 0.0, 2.5005817, 2.4983869 
3.9882725e+2, 1.3740493e+1, -115641.6, -777413.56, -11674.949, 0.0014419579, 0.00027564616, -115435.7, -115435.7, 0.0, 2.5005782, 2.4983873 
3.9882714e+2, 1.6238886e+1, -117721.58, -778380.0, -11999.606, -0.000020359807, 0.00075937953, -117503.7, -117503.7, 0.0, 2.5005746, 2.4983876 
3.9882708e+2, 1.8737277e+1, -119841.16, -779365.56, -12326.911, -0.001486994, 0.0012446671, -119610.84, -119610.84, 0.0, 2.500571, 2.4983876 
3.98827e+2, 2.123575e+1, -77583.586, -687025.8, -18193.76, -0.0017665894, 0.0015032459, -77040.92, -77040.92, 0.0, 2.500566, 2.4985483 
3.988269e+2, 2.3734297e+1, -80611.04, -688050.94, -18657.602, -0.0009916342, 0.0012218462, -80038.51, -80038.51, 0.0, 2.5005603, 2.4985492 
3.988268e+2, 2.6232845e+1, -83899.0, -689580.75, -19010.428, -0.00021729755, 0.0009388906, -83302.914, -83302.914, 0.0, 2.5005546, 2.4985495 
3.9882675e+2, 2.873139e+1, -87210.555, -691121.94, -19366.637, 0.00055683736, 0.000655171, -86590.125, -86590.125, 0.0, 2.5005488, 2.4985495 
3.9882663e+2, 3.123002e+1, -43794.727, -596078.06, -23136.92, 0.00083870016, 0.00038890314, -42827.145, -42827.145, 0.0, 2.5005436, 2.4987152 
3.988265e+2, 3.372873e+1, -45904.61, -596388.5, -23613.518, 0.00058536313, -0.00032515655, -44893.543, -44893.543, 0.0, 2.5005393, 2.4987166 
3.988264e+2, 3.622744e+1, -48438.434, -597544.75, -24031.805, 0.00033282745, -0.0010428192, -47388.68, -47388.68, 0.0, 2.5005348, 2.4987168 
3.9882627e+2, 3.872615e+1, -50994.797, -598711.9, -24456.04, 0.0000812567, -0.0017623425, -49904.98, -49904.98, 0.0, 2.5005305, 2.4987168 
3.9882615e+2, 4.1224957e+1, -7521.462, -502092.38, -28471.318, -0.000054771772, -0.0014464614, -5887.829, -5887.829, 0.0, 2.5005236, 2.4988859 
3.98826e+2, 4.3723854e+1, -12157.31, -503392.1, -28540.496, -0.0002952901, -0.0004933202, -10504.681, -10504.681, 0.0, 2.5005147, 2.498888 
3.9882582e+2, 4.6222752e+1, -17366.953, -505842.13, -28630.342, -0.00053853734, 0.00045556357, -15694.606, -15694.606, 0.0, 2.5005057, 2.4988883 
3.9882568e+2, 4.872165e+1, -22603.326, -508305.0, -28724.63, -0.00078343705, 0.0014021761, -20910.438, -20910.438, 0.0, 2.5004966, 2.4988883 
3.9882556e+2, 5.1220626e+1, 20951.455, -411380.78, -28820.436, -0.00043091018, 0.0019014725, 22864.242, 22864.242, 0.0, 2.5004897, 2.499058 
3.988254e+2, 5.371968e+1, 18727.72, -411351.16, -28746.088, 0.00062593597, 0.0013700547, 20640.576, 20640.576, 0.0, 2.5004847, 2.4990604 
3.988253e+2, 5.621874e+1, 15802.652, -412709.88, -28898.813, 0.0016860618, 0.0008353126, 17742.799, 17742.799, 0.0, 2.5004797, 2.4990606 
3.9882517e+2, 5.8717793e+1, 12835.284, -414089.0, -29055.434, 0.0027489115, 0.00030048686, 14803.651, 14803.651, 0.0, 2.5004745, 2.4990606 
3.9882502e+2, 6.121694e+1, 56991.7, -316339.28, -28952.223, 0.002907368, 0.00028699657, 59223.633, 59223.633, 0.0, 2.500468, 2.4992316 
3.9882487e+2, 6.3716173e+1, 52785.48, -317215.4, -28332.332, 0.0019224478, 0.0002659659, 54942.418, 54942.418, 0.0, 2.5004594, 2.4992342 
3.9882472e+2, 6.621541e+1, 47828.74, -319564.2, -28209.975, 0.00093732186, 0.00024080616, 49982.2, 49982.2, 0.0, 2.5004508, 2.4992342 
3.9882454e+2, 6.8714637e+1, 42820.08, -321938.0, -28097.498, -0.000046739686, 0.00021491984, 44971.75, 44971.75, 0.0, 2.5004423, 2.4992342 
3.9882442e+2, 7.121396e+1, 86585.56, -224213.33, -24964.975, 0.00019404755, 0.0004754779, 88578.11, 88578.11, 0.0, 2.5004349, 2.4994056 
3.9882433e+2, 7.3713374e+1, 83078.18, -224712.44, -23792.408, 0.0015225661, 0.000411117, 84906.49, 84906.49, 0.0, 2.5004277, 2.4994082 
3.9882424e+2, 7.6212776e+1, 78750.664, -226775.92, -23483.371, 0.0028437348, 0.00034200185, 80545.1, 80545.1, 0.0, 2.5004203, 2.4994082 
3.9882413e+2, 7.8712183e+1, 74341.01, -228878.97, -23178.512, 0.004158742, 0.0002723605, 76102.56, 76102.56, 0.0, 2.5004127, 2.4994082 
3.9882404e+2, 8.121168e+1, 118395.46, -132727.55, -17442.695, 0.004044034, 0.00063839345, 119601.22, 119601.22, 0.0, 2.5004077, 2.4995759 
3.9882395e+2, 8.371126e+1, 116948.42, -132121.77, -15792.548, 0.0023315225, 0.0009875555, 117945.77, 117945.77, 0.0, 2.5004036, 2.4995787 
3.988239e+2, 8.621084e+1, 114539.695, -133259.28, -15439.11, 0.0006089153, 0.001331801, 115497.92, 115497.92, 0.0, 2.5003996, 2.4995787 
3.988238e+2, 8.871042e+1, 111978.01, -134470.47, -15093.422, -0.0011229563, 0.0016743027, 112898.945, 112898.945, 0.0, 2.500395, 2.4995787 
3.9882374e+2, 9.1210085e+1, 155301.1, -40666.95, -9622.121, -0.000586105, 0.0018478709, 155772.42, 155772.42, 0.0, 2.500391, 2.4997418 
3.9882374e+2, 9.3709815e+1, 152308.38, -40680.746, -7293.087, 0.0011083804, 0.0010078626, 152583.6, 152583.6, 0.0, 2.5003843, 2.4997451 
3.9882374e+2, 9.620955e+1, 148083.61, -42694.76, -6628.3335, 0.0027753462, 0.00015144591, 148313.63, 148313.63, 0.0, 2.5003772, 2.4997451 
3.988237e+2, 9.870928e+1, 143520.53, -44871.688, -5964.6143, 0.004424326, -0.0007149794, 143709.19, 143709.19, 0.0, 2.5003693, 2.4997451 
4.0132794e+2, 1.24911174e+0, -143957.73, -864480.9, -3201.8655, -0.0019829173, -0.000032016666, -143943.52, -143943.52, 0.0, 2.5006087, 2.4982235 
4.0132794e+2, 3.747335e+0, -145192.27, -865185.4, -3546.722, -0.00030705566, -0.00009613296, -145174.8, -145174.8, 0.0, 2.5006065, 2.4982233 
4.0132794e+2, 6.245559e+0, -146353.08, -865733.5, -3901.2, 0.0013789276, -0.00016035954, -146331.92, -146331.92, 0.0, 2.5006046, 2.4982233 
4.0132794e+2, 8.743782e+0, -147515.89, -866282.56, -4255.788, 0.0030750327, -0.00022469647, -147490.69, -147490.69, 0.0, 2.5006025, 2.4982233 
4.013279e+2, 1.12420894e+1, -104264.41, -773552.9, -11170.984, 0.003127474, 0.00004094027, -104078.0, -104078.0, 0.0, 2.5005994, 2.4983838 
4.0132782e+2, 1.3740477e+1, -106363.234, -774271.8, -11835.329, 0.0015242449, 0.00036468415, -106153.58, -106153.58, 0.0, 2.5005956, 2.4983845 
4.0132776e+2, 1.6238867e+1, -108630.234, -775337.6, -12388.62, -0.00006922677, 0.0006871357, -108400.11, -108400.11, 0.0, 2.5005918, 2.4983845 
4.0132767e+2, 1.8737255e+1, -110899.08, -776404.25, -12942.541, -0.0016529332, 0.0010086343, -110647.47, -110647.47, 0.0, 2.5005877, 2.4983845 
4.0132758e+2, 2.1235724e+1, -68092.11, -683399.06, -19083.877, -0.0019513282, 0.0012404639, -67500.79, -67500.79, 0.0, 2.5005834, 2.4985461 
4.013275e+2, 2.3734269e+1, -70588.805, -684191.5, -19435.18, -0.0010494427, 0.0010788965, -69973.83, -69973.83, 0.0, 2.5005786, 2.498547 
4.013274e+2, 2.6232815e+1, -73320.195, -685468.5, -19683.352, -0.00014065123, 0.00091467134, -72687.945, -72687.945, 0.0, 2.5005739, 2.4985473 
4.013273e+2, 2.873136e+1, -76053.68, -686746.5, -19932.29, 0.00077532226, 0.00074856303, -75403.805, -75403.805, 0.0, 2.500569, 2.4985473 
4.013272e+2, 3.122999e+1, -33675.125, -592246.2, -23766.613, 0.0010917939, 0.0005301208, -32665.707, -32665.707, 0.0, 2.5005622, 2.4987128 
4.0132704e+2, 3.3728698e+1, -38574.688, -593920.1, -24034.635, 0.00075340737, -0.00019658558, -37536.44, -37536.44, 0.0, 2.5005531, 2.4987142 
4.0132692e+2, 3.6227405e+1, -43879.54, -596433.25, -24241.727, 0.00042432666, -0.00092729623, -42818.043, -42818.043, 0.0, 2.5005438, 2.4987144 
4.013268e+2, 3.8726112e+1, -49186.258, -598947.3, -24449.701, 0.00010475749, -0.0016603014, -48101.04, -48101.04, 0.0, 2.5005348, 2.4987144 
4.0132666e+2, 4.1224915e+1, -5849.984, -501708.94, -28430.15, -0.00003491394, -0.0014112862, -4225.2603, -4225.2603, 0.0, 2.500527, 2.498885 
4.013265e+2, 4.3723813e+1, -8934.62, -502266.53, -28441.875, -0.00019314725, -0.000587334, -7300.286, -7300.286, 0.0, 2.5005207, 2.498887 
4.0132636e+2, 4.6222705e+1, -12576.527, -503977.78, -28479.523, -0.0003361936, 0.00023334491, -10931.482, -10931.482, 0.0, 2.5005143, 2.4988873 
4.013262e+2, 4.8721603e+1, -16221.057, -505690.3, -28518.139, -0.00046304238, 0.0010527845, -14565.096, -14565.096, 0.0, 2.500508, 2.4988873 
4.0132606e+2, 5.122058e+1, 26468.365, -409178.1, -28544.81, -0.00015185056, 0.0015161001, 28330.742, 28330.742, 0.0, 2.5004997, 2.499057 
4.013259e+2, 5.3719634e+1, 20852.791, -410763.84, -28316.877, 0.00067390216, 0.0010394041, 22702.635, 22702.635, 0.0, 2.5004888, 2.4990594 
4.0132576e+2, 5.621869e+1, 14553.6045, -413763.03, -28315.58, 0.001519625, 0.0005589531, 16417.408, 16417.408, 0.0, 2.500478, 2.4990594 
4.013256e+2, 5.8717746e+1, 8251.011, -416763.88, -28315.348, 0.0023849118, 0.0000780087, 10129.138, 10129.138, 0.0, 2.500467, 2.4990597 
4.0132546e+2, 6.121689e+1, 51151.68, -318747.5, -28064.79, 0.0025660624, 0.00009321231, 53268.88, 53268.88, 0.0, 2.5004575, 2.4992325 
4.0132532e+2, 6.3716125e+1, 46901.47, -319574.72, -27237.201, 0.001800095, 0.000059021113, 48914.73, 48914.73, 0.0, 2.500449, 2.4992352 
4.0132517e+2, 6.621536e+1, 41892.89, -321968.78, -26898.445, 0.0010546268, 0.00002306471, 43870.605, 43870.605, 0.0, 2.5004404, 2.4992352 
4.0132502e+2, 6.8714595e+1, 36880.207, -324364.8, -26560.52, 0.00033115936, -0.000011126769, 38822.625, 38822.625, 0.0, 2.5004315, 2.4992352 
4.0132487e+2, 7.121391e+1, 80421.37, -226631.6, -23154.842, 0.00060262065, 0.00015954586, 82157.66, 82157.66, 0.0, 2.500424, 2.4994068 
4.0132478e+2, 7.3713326e+1, 76687.18, -227109.48, -22095.824, 0.0016115733, -0.00011208609, 78285.84, 78285.84, 0.0, 2.500416, 2.4994097 
4.0132466e+2, 7.621273e+1, 72122.555, -229298.94, -21874.928, 0.0026497676, -0.00038878436, 73701.8, 73701.8, 0.0, 2.5004082, 2.4994097 
4.0132454e+2, 7.8712136e+1, 67552.62, -231490.95, -21654.602, 0.0037193114, -0.00066609366, 69112.555, 69112.555, 0.0, 2.5004003, 2.4994097 
4.0132442e+2, 8.121163e+1, 109926.55, -135854.39, -15759.581, 0.0035694558, -0.0003080266, 110932.94, 110932.94, 0.0, 2.500392, 2.499578 
4.0132433e+2, 8.371122e+1, 105023.27, -136692.08, -14113.836, 0.0021073057, 0.00023374669, 105844.59, 105844.59, 0.0, 2.500382, 2.4995813 
4.0132424e+2, 8.6210805e+1, 99157.47, -139506.03, -13712.882, 0.0006816878, 0.00077004347, 99942.79, 99942.79, 0.0, 2.500372, 2.4995813 
4.0132415e+2, 8.87104e+1, 93283.61, -142323.88, -13312.0, -0.00070703577, 0.0013040854, 94033.36, 94033.36, 0.0, 2.500362, 2.4995813 
4.0132412e+2, 9.1210055e+1, 135788.39, -48377.43, -7387.64, 0.0000823737, 0.0014697022, 136084.27, 136084.27, 0.0, 2.5003557, 2.4997456 
4.013241e+2, 9.370979e+1, 135047.94, -46962.195, -5219.4795, 0.0013527507, 0.0002919537, 135197.5, 135197.5, 0.0, 2.5003526, 2.4997497 
4.013241e+2, 9.6209526e+1, 133185.27, -47844.813, -4687.4487, 0.0026772532, -0.0009073943, 133306.56, 133306.56, 0.0, 2.5003493, 2.4997497 
4.0132406e+2, 9.870926e+1, 131307.05, -48734.918, -4154.477, 0.004070334, -0.0021209815, 131402.86, 131402.86, 0.0, 2.5003462, 2.4997497 
4.0382856e+2, 1.2491117e+0, -144615.88, -865849.1, -3508.9795, -0.0015712511, 0.00007624689, -144598.8, -144598.8, 0.0, 2.5006087, 2.4982212 
4.0382856e+2, 3.747335e+0, -145850.92, -866556.3, -3853.1096, -0.00034208831, 0.0002287926, -145830.33, -145830.33, 0.0, 2.5006065, 2.498221 
4.0382856e+2, 6.245558e+0, -147011.52, -867105.56, -4204.5474, 0.0008881867, 0.00038140785, -146986.97, -146986.97, 0.0, 2.5006046, 2.498221 
4.0382856e+2, 8.743782e+0, -148174.11, -867655.75, -4556.095, 0.0021195742, 0.00053409254, -148145.25, -148145.25, 0.0, 2.5006025, 2.498221 
4.038285e+2, 1.1242084e+1, -105269.38, -775659.6, -11786.8545, 0.0021943366, 0.00066338724, -105062.21, -105062.21, 0.0, 2.5005994, 2.4983802 
4.0382844e+2, 1.3740464e+1, -107377.5, -776402.75, -12432.002, 0.0010838056, 0.0005162472, -107146.57, -107146.57, 0.0, 2.5005956, 2.498381 
4.0382835e+2, 1.6238844e+1, -109641.766, -777467.7, -12982.693, -0.00002254923, 0.00036736976, -109389.48, -109389.48, 0.0, 2.5005918, 2.498381 
4.0382823e+2, 1.8737225e+1, -111907.875, -778533.5, -13534.013, -0.0011246891, 0.00021706804, -111633.22, -111633.22, 0.0, 2.5005877, 2.498381 
4.0382814e+2, 2.123569e+1, -68522.26, -684336.06, -19804.236, -0.0013294069, 0.00032116193, -67886.02, -67886.02, 0.0, 2.5005834, 2.4985445 
4.0382805e+2, 2.3734236e+1, -71027.06, -685149.1, -20155.271, -0.00066264876, 0.0003932499, -70366.29, -70366.29, 0.0, 2.5005786, 2.4985454 
4.0382797e+2, 2.6232782e+1, -73758.07, -686428.94, -20401.096, 0.0000062515164, 0.00046278074, -73079.49, -73079.49, 0.0, 2.5005739, 2.4985456 
4.0382788e+2, 2.8731328e+1, -76491.16, -687709.75, -20647.688, 0.0006773957, 0.0005305002, -75794.445, -75794.445, 0.0, 2.500569, 2.4985456 
4.0382776e+2, 3.1229958e+1, -34004.555, -593001.25, -25146.22, 0.0009090202, 0.0005024609, -32875.645, -32875.645, 0.0, 2.5005622, 2.4987113 
4.038276e+2, 3.3728665e+1, -38924.78, -594722.75, -25422.957, 0.0006053051, -0.000016043958, -37764.324, -37764.324, 0.0, 2.5005531, 2.4987128 
4.038275e+2, 3.6227375e+1, -44228.45, -597237.94, -25628.0, 0.0003067605, -0.00053921144, -43043.316, -43043.316, 0.0, 2.500544, 2.498713 
4.0382734e+2, 3.8726082e+1, -49533.984, -599754.0, -25833.926, 0.000013750753, -0.0010655526, -48323.69, -48323.69, 0.0, 2.5005348, 2.498713 
4.038272e+2, 4.1224885e+1, -5859.262, -501840.4, -29390.531, -0.000024990288, -0.0009545937, -4123.73, -4123.73, 0.0, 2.5005271, 2.4988847 
4.03827e+2, 4.3723774e+1, -8948.23, -502411.1, -29398.094, 0.000045521283, -0.00063435733, -7203.0083, -7203.0083, 0.0, 2.5005207, 2.4988868 
4.0382686e+2, 4.6222663e+1, -12589.71, -504125.34, -29433.162, 0.00012614181, -0.00031767762, -10833.526, -10833.526, 0.0, 2.5005145, 2.4988868 
4.038267e+2, 4.8721555e+1, -16233.8125, -505840.88, -29469.197, 0.0002176171, -0.0000024370515, -14466.456, -14466.456, 0.0, 2.5005083, 2.498887 
4.0382653e+2, 5.122053e+1, 26553.527, -409163.0, -30184.38, 0.00040846525, 0.00036594193, 28634.62, 28634.62, 0.0, 2.5004997, 2.4990568 
4.038264e+2, 5.371959e+1, 20947.045, -410736.16, -29960.354, 0.00068173354, 0.00023711345, 23016.48, 23016.48, 0.0, 2.500489, 2.4990594 
4.0382624e+2, 5.621865e+1, 14649.204, -413738.44, -29956.209, 0.00096793537, 0.00010461522, 16733.832, 16733.832, 0.0, 2.500478, 2.4990594 
4.038261e+2, 5.8717704e+1, 8347.955, -416742.34, -29953.13, 0.0012671443, -0.00002839728, 10448.165, 10448.165, 0.0, 2.5004673, 2.4990597 
4.0382594e+2, 6.1216855e+1, 51882.68, -317464.47, -29373.893, 0.0014940593, 0.00011910909, 54204.168, 54204.168, 0.0, 2.5004578, 2.4992344 
4.038258e+2, 6.371609e+1, 47673.16, -318213.2, -28539.77, 0.0014492801, 0.0000006364272, 49885.93, 49885.93, 0.0, 2.5004492, 2.4992373 
4.038256e+2, 6.6215324e+1, 42667.797, -320605.97, -28198.096, 0.0014176712, -0.00011955097, 44843.563, 44843.563, 0.0, 2.5004406, 2.4992375 
4.0382543e+2, 6.871456e+1, 37658.332, -323000.72, -27857.256, 0.0014004712, -0.0002379311, 39797.336, 39797.336, 0.0, 2.500432, 2.4992375 
4.038253e+2, 7.1213883e+1, 80965.27, -225814.5, -24327.55, 0.0017236888, -0.000081323255, 82882.46, 82882.46, 0.0, 2.5004241, 2.499408 
4.038252e+2, 7.3713297e+1, 77309.664, -226135.22, -23279.168, 0.0019624291, -0.00031104888, 79085.17, 79085.17, 0.0, 2.5004163, 2.4994113 
4.0382507e+2, 7.62127e+1, 72747.17, -228325.5, -23054.613, 0.0022187526, -0.0005453471, 74502.34, 74502.34, 0.0, 2.5004084, 2.4994113 
4.0382493e+2, 7.871211e+1, 68179.37, -230518.33, -22830.629, 0.002495851, -0.0007796264, 69914.32, 69914.32, 0.0, 2.5004005, 2.4994113 
4.0382484e+2, 8.121161e+1, 110838.54, -134353.66, -17223.785, 0.0023058783, -0.000440523, 112042.53, 112042.53, 0.0, 2.5003924, 2.4995804 
4.0382475e+2, 8.3711195e+1, 106072.06, -134909.97, -15629.919, 0.0017052804, 0.000024069053, 107081.58, 107081.58, 0.0, 2.5003824, 2.4995842 
4.0382466e+2, 8.621079e+1, 100207.84, -137722.48, -15223.472, 0.0011260592, 0.00048337496, 101177.93, 101177.93, 0.0, 2.5003724, 2.4995842 
4.0382457e+2, 8.8710374e+1, 94335.57, -140538.89, -14817.097, 0.0005676537, 0.0009406001, 95266.62, 95266.62, 0.0, 2.5003622, 2.4995842 
4.038245e+2, 9.1210043e+1, 137055.14, -46266.773, -7881.994, 0.0015967104, 0.0012133685, 137393.4, 137393.4, 0.0, 2.5003562, 2.499749 
4.0382445e+2, 9.3709785e+1, 136523.16, -44416.59, -5683.9746, 0.0019189785, 0.00024645135, 136701.55, 136701.55, 0.0, 2.500353, 2.4997537 
4.0382442e+2, 9.6209526e+1, 134659.86, -45296.656, -5139.8164, 0.0022594985, -0.0007432472, 134806.53, 134806.53, 0.0, 2.50035, 2.4997537 
4.038244e+2, 9.870927e+1, 132781.0, -46184.21, -4594.7173, 0.0026373104, -0.0017476727, 132898.88, 132898.88, 0.0, 2.5003467, 2.4997537 
4.0632918e+2, 1.2491115e+0, -145274.42, -867218.2, -3815.1428, -0.001159585, 0.00018364283, -145254.27, -145254.27, 0.0, 2.5006087, 2.4982188 
4.0632915e+2, 3.7473348e+0, -146510.98, -867930.1, -4159.2896, -0.00037712127, 0.0005511153, -146487.02, -146487.02, 0.0, 2.5006065, 2.4982185 
4.0632915e+2, 6.2455577e+0, -147671.34, -868480.5, -4507.687, 0.0003974453, 0.0009188371, -147643.16, -147643.16, 0.0, 2.5006046, 2.4982185 
4.0632913e+2, 8.743781e+0, -148833.72, -869031.9, -4856.1943, 0.0011641152, 0.0012868082, -148800.98, -148800.98, 0.0, 2.5006025, 2.4982185 
4.0632907e+2, 1.124208e+1, -106284.28, -777787.0, -12400.655, 0.0012601904, 0.0012858894, -106055.36, -106055.36, 0.0, 2.5005996, 2.4983766 
4.06329e+2, 1.374045e+1, -108393.16, -778536.56, -13028.224, 0.00064116524, 0.00066416536, -108139.98, -108139.98, 0.0, 2.5005956, 2.498377 
4.0632892e+2, 1.6238824e+1, -110654.695, -779600.7, -13576.313, 0.000020739006, 0.0000402377, -110379.27, -110379.27, 0.0, 2.5005918, 2.498377 
4.0632886e+2, 1.8737194e+1, -112918.06, -780665.6, -14125.033, -0.0006010228, -0.0005855857, -112619.41, -112619.41, 0.0, 2.5005877, 2.4983773 
4.0632877e+2, 2.1235655e+1, -68967.03, -685303.5, -20523.793, -0.0007049871, -0.00060103333, -68284.35, -68284.35, 0.0, 2.5005834, 2.4985428 
4.0632865e+2, 2.3734201e+1, -71466.5, -686109.1, -20874.582, -0.00027238773, -0.00029879305, -70758.37, -70758.37, 0.0, 2.5005786, 2.4985437 
4.0632856e+2, 2.623275e+1, -74197.11, -687391.8, -21118.06, 0.0001575499, 0.0000009343528, -73470.67, -73470.67, 0.0, 2.5005739, 2.4985437 
4.0632844e+2, 2.8731298e+1, -76929.805, -688675.5, -21362.305, 0.0005847934, 0.0002989223, -76184.734, -76184.734, 0.0, 2.5005693, 2.498544 
4.0632832e+2, 3.1229928e+1, -34351.69, -593793.1, -26520.816, 0.0007183551, 0.00047471665, -33097.258, -33097.258, 0.0, 2.5005624, 2.49871 
4.0632814e+2, 3.3728635e+1, -39275.9, -595527.5, -26810.602, 0.0004502476, 0.000160801, -37986.65, -37986.65, 0.0, 2.5005531, 2.4987113 
4.06328e+2, 3.6227345e+1, -44578.383, -598044.7, -27013.594, 0.00018327856, -0.000158554, -43263.03, -43263.03, 0.0, 2.500544, 2.4987116 
4.0632787e+2, 3.8726056e+1, -49882.734, -600562.8, -27217.47, -0.000082132436, -0.00048196202, -48540.777, -48540.777, 0.0, 2.500535, 2.4987116 
4.063277e+2, 4.122485e+1, -5885.0537, -502006.16, -30345.895, -0.000017554647, -0.00050208444, -4035.8003, -4035.8003, 0.0, 2.5005271, 2.4988844 
4.0632755e+2, 4.3723735e+1, -8962.802, -502557.66, -30353.475, 0.00028310003, -0.0006896556, -7103.2295, -7103.2295, 0.0, 2.500521, 2.4988866 
4.063274e+2, 4.622262e+1, -12603.8545, -504274.9, -30385.963, 0.0005887621, -0.0008811551, -10733.077, -10733.077, 0.0, 2.5005147, 2.4988866 
4.0632725e+2, 4.8721507e+1, -16247.529, -505993.44, -30419.418, 0.0008999361, -0.0010742934, -14365.332, -14365.332, 0.0, 2.5005083, 2.4988866 
4.0632707e+2, 5.122048e+1, 26617.473, -409192.03, -31814.752, 0.0009556438, -0.0007837909, 28927.75, 28927.75, 0.0, 2.5005, 2.4990568 
4.0632686e+2, 5.3719544e+1, 21040.383, -410710.38, -31602.877, 0.0006766732, -0.00056822307, 23341.357, 23341.357, 0.0, 2.5004892, 2.4990594 
4.063267e+2, 5.6218606e+1, 14743.886, -413715.75, -31595.887, 0.00040378023, -0.00035646337, 17061.326, 17061.326, 0.0, 2.5004783, 2.4990594 
4.0632653e+2, 5.871767e+1, 8443.981, -416722.75, -31589.965, 0.0001373376, -0.00014523875, 10778.305, 10778.305, 0.0, 2.5004675, 2.4990594 
4.0632635e+2, 6.1216813e+1, 52596.77, -316216.56, -30675.018, 0.00042272985, 0.00014283143, 55130.668, 55130.668, 0.0, 2.500458, 2.4992366 
4.063262e+2, 6.3716054e+1, 48444.137, -316853.2, -29841.896, 0.0010967525, -0.00006289221, 50865.93, 50865.93, 0.0, 2.5004494, 2.4992397 
4.0632606e+2, 6.6215295e+1, 43441.992, -319244.7, -29497.309, 0.001776456, -0.00027041542, 45825.344, 45825.344, 0.0, 2.5004408, 2.4992397 
4.063259e+2, 6.871453e+1, 38435.742, -321638.13, -29153.55, 0.0024629761, -0.00047608896, 40780.9, 40780.9, 0.0, 2.5004323, 2.4992397 
4.0632576e+2, 7.1213853e+1, 81492.66, -225031.75, -25489.656, 0.0028355028, -0.00032173225, 83597.84, 83597.84, 0.0, 2.5004244, 2.4994092 
4.0632558e+2, 7.3713267e+1, 77931.555, -225162.22, -24462.066, 0.0023020299, -0.00051207066, 79893.14, 79893.14, 0.0, 2.5004168, 2.4994128 
4.0632546e+2, 7.6212674e+1, 73371.19, -227353.31, -24233.852, 0.0017745121, -0.00070668507, 75311.55, 75311.55, 0.0, 2.500409, 2.4994128 
4.063253e+2, 7.871209e+1, 68805.51, -229546.97, -24006.209, 0.0012571949, -0.00090065046, 70724.766, 70724.766, 0.0, 2.500401, 2.4994128 
4.063252e+2, 8.1211585e+1, 111734.586, -132886.05, -18678.545, 0.0010433085, -0.00057420693, 113152.61, 113152.61, 0.0, 2.500393, 2.4995825 
4.063251e+2, 8.371117e+1, 107120.2, -133129.23, -17145.992, 0.0013029372, -0.00018989043, 108337.7, 108337.7, 0.0, 2.500383, 2.499587 
4.06325e+2, 8.621077e+1, 101257.57, -135940.31, -16734.053, 0.0015685231, 0.00018920864, 102432.32, 102432.32, 0.0, 2.500373, 2.499587 
4.0632492e+2, 8.8710356e+1, 95386.875, -138755.28, -16322.184, 0.0018388459, 0.0005664011, 96519.23, 96519.23, 0.0, 2.5003626, 2.499587 
4.0632486e+2, 9.121003e+1, 138299.4, -44202.836, -8354.1, 0.0030849439, 0.0009730119, 138681.02, 138681.02, 0.0, 2.500357, 2.4997523 
4.0632483e+2, 9.370978e+1, 137997.64, -41872.535, -6149.197, 0.0024582043, 0.00021242918, 138207.61, 138207.61, 0.0, 2.5003536, 2.4997578 
4.0632477e+2, 9.6209526e+1, 136133.69, -42750.05, -5592.911, 0.001814204, -0.0005725757, 136308.39, 136308.39, 0.0, 2.5003505, 2.4997578 
4.0632474e+2, 9.8709273e+1, 134254.2, -43635.055, -5035.685, 0.0011762098, -0.0013727951, 134396.64, 134396.64, 0.0, 2.5003471, 2.499758 
4.088298e+2, 1.2491115e+0, -147456.95, -869321.56, -4118.024, -0.00074321515, 0.0002901068, -147433.47, -147433.47, 0.0, 2.500606, 2.4982164 
4.0882978e+2, 3.7473345e+0, -148542.61, -869966.6, -4463.6997, -0.0004094936, 0.000870697, -148515.0, -148515.0, 0.0, 2.5006042, 2.4982162 
4.0882975e+2, 6.245557e+0, -149642.06, -870489.1, -4813.0015, -0.0000913646, 0.0014517896, -149609.92, -149609.92, 0.0, 2.5006022, 2.4982162 
4.0882972e+2, 8.74378e+0, -150836.25, -871057.25, -5165.912, 0.00021117085, 0.0020333843, -150799.2, -150799.2, 0.0, 2.5006003, 2.4982162 
4.088297e+2, 1.1242074e+1, -108666.66, -780588.5, -13015.328, 0.0003277767, 0.0019085206, -108414.63, -108414.63, 0.0, 2.5005972, 2.4983728 
4.088296e+2, 1.3740438e+1, -110738.15, -781312.9, -13608.188, 0.00019843523, 0.00080877426, -110462.11, -110462.11, 0.0, 2.5005934, 2.4983735 
4.0882954e+2, 1.6238803e+1, -113014.68, -782385.06, -14138.64, 0.000062709085, -0.00029356015, -112716.17, -112716.17, 0.0, 2.5005894, 2.4983735 
4.0882945e+2, 1.8737164e+1, -115340.38, -783480.9, -14673.44, -0.000079314224, -0.0013981588, -115018.29, -115018.29, 0.0, 2.5005853, 2.4983735 
4.0882933e+2, 2.1235621e+1, -70871.555, -687000.8, -21211.008, -0.00007541954, -0.0015249045, -70142.2, -70142.2, 0.0, 2.500581, 2.498541 
4.088292e+2, 2.3734169e+1, -73348.39, -687770.0, -21598.566, 0.00012348608, -0.0009963914, -72590.08, -72590.08, 0.0, 2.5005763, 2.498542 
4.0882912e+2, 2.6232716e+1, -76112.484, -689072.5, -21882.61, 0.00031552554, -0.00047039764, -75332.27, -75332.27, 0.0, 2.5005715, 2.498542 
4.08829e+2, 2.8731266e+1, -78916.43, -690394.2, -22173.342, 0.0005005697, 0.000053934782, -78113.44, -78113.44, 0.0, 2.5005667, 2.4985423 
4.0882885e+2, 3.1229895e+1, -36263.445, -595374.2, -28040.002, 0.0005231995, 0.00044666443, -34860.73, -34860.73, 0.0, 2.5005598, 2.4987085 
4.088287e+2, 3.3728603e+1, -41089.95, -597046.56, -28405.979, 0.00029133362, 0.0003335173, -39642.348, -39642.348, 0.0, 2.5005507, 2.49871 
4.0882856e+2, 3.6227313e+1, -46326.957, -599535.5, -28671.63, 0.000057061196, 0.00021412154, -44844.938, -44844.938, 0.0, 2.5005417, 2.4987102 
4.088284e+2, 3.8726026e+1, -51586.55, -602035.3, -28944.066, -0.00017924872, 0.00008987902, -50068.777, -50068.777, 0.0, 2.5005326, 2.4987102 
4.0882826e+2, 4.122482e+1, -7259.825, -502859.16, -31730.19, -0.000008974416, -0.00005418518, -5236.5957, -5236.5957, 0.0, 2.500525, 2.498884 
4.0882805e+2, 4.3723696e+1, -10325.385, -503366.88, -31852.412, 0.00052270887, -0.00075333833, -8276.111, -8276.111, 0.0, 2.5005188, 2.498886 
4.088279e+2, 4.622258e+1, -14015.9795, -505111.78, -31996.654, 0.0010546913, -0.0014569494, -11940.058, -11940.058, 0.0, 2.5005124, 2.498886 
4.0882775e+2, 4.872146e+1, -17744.602, -506875.03, -32145.75, 0.0015872583, -0.0021624682, -15641.023, -15641.023, 0.0, 2.500506, 2.4988863 
4.0882757e+2, 5.1220435e+1, 25220.951, -409969.63, -34315.293, 0.0014931645, -0.001932904, 27910.135, 27910.135, 0.0, 2.5004978, 2.4990566 
4.0882736e+2, 5.3719497e+1, 19884.33, -411299.56, -34213.848, 0.0006621042, -0.0013767922, 22582.27, 22582.27, 0.0, 2.500487, 2.4990592 
4.088272e+2, 5.6218565e+1, 13757.157, -414227.47, -34297.387, -0.00016915427, -0.00082496327, 16488.219, 16488.219, 0.0, 2.5004766, 2.4990594 
4.08827e+2, 5.8717626e+1, 7603.7134, -417168.03, -34385.305, -0.0010001244, -0.0002738015, 10369.202, 10369.202, 0.0, 2.500466, 2.4990594 
4.088268e+2, 6.1216784e+1, 52504.395, -315394.28, -33220.22, -0.00064377004, 0.00016263148, 55480.02, 55480.02, 0.0, 2.5004568, 2.4992385 
4.0882665e+2, 6.371602e+1, 48567.09, -315816.97, -32484.62, 0.0007455781, -0.00013363769, 51440.418, 51440.418, 0.0, 2.5004485, 2.4992418 
4.088265e+2, 6.621525e+1, 43676.88, -318155.1, -32227.97, 0.002133489, -0.0004321193, 46524.97, 46524.97, 0.0, 2.5004401, 2.4992418 
4.0882632e+2, 6.87145e+1, 38748.992, -320511.34, -31974.014, 0.0035211537, -0.0007289004, 41572.477, 41572.477, 0.0, 2.5004318, 2.4992418 
4.0882617e+2, 7.1213824e+1, 81707.02, -224430.34, -28215.008, 0.003940167, -0.0005654774, 84285.73, 84285.73, 0.0, 2.5004244, 2.4994104 
4.0882602e+2, 7.371323e+1, 78501.46, -224219.61, -27225.785, 0.0026319392, -0.00071912224, 80930.57, 80930.57, 0.0, 2.500417, 2.4994142 
4.0882587e+2, 7.6212645e+1, 74122.984, -226325.14, -27003.748, 0.0013188372, -0.0008770914, 76530.74, 76530.74, 0.0, 2.5004094, 2.4994142 
4.0882573e+2, 7.871206e+1, 69673.78, -228464.73, -26784.654, 0.0000061225874, -0.0010339286, 72060.99, 72060.99, 0.0, 2.5004017, 2.4994142 
4.088256e+2, 8.121156e+1, 113095.34, -131217.3, -21704.486, -0.0002156842, -0.00071455864, 115008.57, 115008.57, 0.0, 2.500394, 2.499585 
4.0882546e+2, 8.371116e+1, 109016.16, -130938.69, -20188.293, 0.0009016086, -0.00041435886, 110702.81, 110702.81, 0.0, 2.5003848, 2.49959 
4.0882537e+2, 8.6210746e+1, 103441.945, -133610.45, -19719.102, 0.0020103762, -0.00011931543, 105071.08, 105071.08, 0.0, 2.5003753, 2.49959 
4.0882528e+2, 8.8710344e+1, 97778.586, -136325.14, -19252.545, 0.0031089997, 0.00017410936, 99351.336, 99351.336, 0.0, 2.5003655, 2.49959 
4.0882522e+2, 9.1210014e+1, 141144.14, -41391.88, -10113.756, 0.0045487774, 0.00074043655, 141702.8, 141702.8, 0.0, 2.5003603, 2.4997554 
4.0882516e+2, 9.370977e+1, 141352.86, -38412.254, -7748.9854, 0.0029704696, 0.00018108533, 141686.27, 141686.27, 0.0, 2.5003574, 2.4997618 
4.0882513e+2, 9.6209526e+1, 139516.56, -39274.12, -7013.7344, 0.0013423994, -0.0004041522, 139791.28, 139791.28, 0.0, 2.5003543, 2.499762 
4.0882507e+2, 9.8709273e+1, 137434.33, -40254.414, -6286.6084, -0.0003083091, -0.001004458, 137656.47, 137656.47, 0.0, 2.5003507, 2.499762 
4.113304e+2, 1.24910995e+0, -135465.36, -864803.9, -4406.382, 0.0000129387445, 0.0002786699, -135438.73, -135438.73, 0.0, 2.500628, 2.4982138 
4.1133037e+2, 3.74733e+0, -136240.3, -865309.0, -4915.6445, -0.00012691451, 0.00083730766, -136207.16, -136207.16, 0.0, 2.5006268, 2.4982133 
4.1133034e+2, 6.24555e+0, -136934.27, -865642.3, -5420.5723, -0.00024760823, 0.0013976762, -136893.95, -136893.95, 0.0, 2.5006256, 2.4982133 
4.113303e+2, 8.7437695e+0, -137630.5, -865976.7, -5926.016, -0.00034914204, 0.0019597756, -137582.28, -137582.28, 0.0, 2.5006244, 2.4982133 
4.1133028e+2, 1.1242062e+1, -95005.27, -774898.06, -13976.233, -0.00025102549, 0.0018452576, -94718.086, -94718.086, 0.0, 2.5006216, 2.498371 
4.113302e+2, 1.3740423e+1, -97325.375, -775760.5, -14124.874, 0.000009665201, 0.00079654926, -97031.42, -97031.42, 0.0, 2.5006173, 2.4983714 
4.1133013e+2, 1.6238785e+1, -99799.19, -776939.1, -14205.288, 0.00027771815, -0.00025196513, -99501.32, -99501.32, 0.0, 2.5006132, 2.4983714 
4.1133004e+2, 1.8737146e+1, -102274.99, -778118.7, -14285.979, 0.0005531709, -0.0012999736, -101973.15, -101973.15, 0.0, 2.500609, 2.4983714 
4.1132995e+2, 2.1235602e+1, -58855.168, -682370.8, -20980.115, 0.0006444923, -0.0014551374, -58150.027, -58150.027, 0.0, 2.500603, 2.4985385 
4.1132984e+2, 2.3734146e+1, -63148.363, -684044.2, -21566.729, 0.00060149265, -0.0010319651, -62400.145, -62400.145, 0.0, 2.500595, 2.4985394 
4.1132972e+2, 2.623269e+1, -67685.56, -686221.5, -22032.492, 0.0005690252, -0.0006121506, -66901.75, -66901.75, 0.0, 2.5005872, 2.4985394 
4.113296e+2, 2.8731236e+1, -72224.41, -688399.6, -22498.838, 0.00054696127, -0.00019486221, -71403.984, -71403.984, 0.0, 2.5005796, 2.4985394 
4.1132945e+2, 3.1229863e+1, -29366.338, -592586.1, -28524.367, 0.00047430096, 0.00017247017, -27925.402, -27925.402, 0.0, 2.5005722, 2.4987073 
4.113293e+2, 3.3728573e+1, -33015.406, -593711.06, -28671.197, 0.00029414782, 0.00011966515, -31553.117, -31553.117, 0.0, 2.5005653, 2.4987087 
4.113291e+2, 3.622728e+1, -37055.594, -595644.75, -28686.506, 0.00012178888, 0.00006273865, -35586.254, -35586.254, 0.0, 2.5005584, 2.4987087 
4.1132894e+2, 3.872599e+1, -41097.76, -597579.3, -28702.568, -0.0000425644, 0.0000030943934, -39621.242, -39621.242, 0.0, 2.5005512, 2.4987087 
4.1132876e+2, 4.1224784e+1, 2174.3806, -498945.5, -31538.688, 0.0001609911, -0.00012512035, 4151.5117, 4151.5117, 0.0, 2.500542, 2.4988825 
4.113286e+2, 4.3723664e+1, -4424.559, -501170.34, -31707.303, 0.0007038409, -0.000863857, -2408.86, -2408.86, 0.0, 2.5005295, 2.4988847 
4.1132843e+2, 4.6222538e+1, -11616.528, -504620.44, -31869.777, 0.0012578673, -0.001609552, -9564.874, -9564.874, 0.0, 2.5005171, 2.4988847 
4.1132826e+2, 4.8721418e+1, -18811.4, -508071.88, -32033.152, 0.0018232784, -0.0023596382, -16723.021, -16723.021, 0.0, 2.5005047, 2.4988847 
4.1132808e+2, 5.1220393e+1, 23305.387, -410775.4, -33993.355, 0.0017024411, -0.002125624, 25951.316, 25951.316, 0.0, 2.5004942, 2.4990568 
4.1132784e+2, 5.3719455e+1, 18922.602, -411622.7, -33505.137, 0.0007790314, -0.0015377679, 21514.377, 21514.377, 0.0, 2.5004854, 2.4990597 
4.1132766e+2, 5.621852e+1, 13749.229, -414106.1, -33184.008, -0.0001337255, -0.00095665565, 16307.646, 16307.646, 0.0, 2.5004766, 2.4990597 
4.1132745e+2, 5.871759e+1, 8572.666, -416591.06, -32863.54, -0.0010353156, -0.00037853303, 11097.895, 11097.895, 0.0, 2.5004675, 2.4990597 
4.1132727e+2, 6.121674e+1, 53048.23, -315045.5, -31617.611, -0.00070260273, 0.00003632512, 55744.293, 55744.293, 0.0, 2.5004578, 2.4992387 
4.113271e+2, 6.371598e+1, 47376.227, -316245.16, -31170.482, 0.00068635086, -0.00034901136, 50028.883, 50028.883, 0.0, 2.5004463, 2.499242 
4.1132694e+2, 6.621522e+1, 40742.293, -319433.2, -31186.041, 0.0020883507, -0.000742651, 43422.613, 43422.613, 0.0, 2.5004349, 2.499242 
4.1132677e+2, 6.871445e+1, 34104.27, -322623.2, -31202.475, 0.003504785, -0.0011405712, 36812.94, 36812.94, 0.0, 2.5004237, 2.499242 
4.113266e+2, 7.121378e+1, 75146.516, -226712.66, -27371.367, 0.0039507737, -0.00092843734, 77608.36, 77608.36, 0.0, 2.500412, 2.4994123 
4.1132644e+2, 7.37132e+1, 69154.88, -227707.7, -26113.117, 0.0026057318, -0.0009152069, 71434.39, 71434.39, 0.0, 2.5003998, 2.4994166 
4.1132626e+2, 7.6212615e+1, 61965.78, -231175.8, -25592.64, 0.0012761133, -0.0009104332, 64183.363, 64183.363, 0.0, 2.5003874, 2.4994166 
4.113261e+2, 7.8712034e+1, 54770.918, -234646.64, -25072.316, -0.000032335145, -0.0009083801, 56926.88, 56926.88, 0.0, 2.500375, 2.4994166 
4.1132596e+2, 8.1211543e+1, 97331.59, -137415.58, -19466.89, -0.00022226833, -0.0006347202, 98934.98, 98934.98, 0.0, 2.5003655, 2.499588 
4.1132587e+2, 8.371113e+1, 94406.25, -136365.03, -17894.459, 0.0009194931, -0.0006097688, 95785.58, 95785.58, 0.0, 2.5003579, 2.4995935 
4.1132575e+2, 8.621072e+1, 89933.44, -138509.45, -17320.887, 0.0020851651, -0.00058968033, 91239.266, 91239.266, 0.0, 2.5003502, 2.4995935 
4.1132566e+2, 8.871032e+1, 85453.14, -140657.47, -16747.715, 0.0032734608, -0.00057072897, 86686.89, 86686.89, 0.0, 2.5003426, 2.4995935 
4.113256e+2, 9.121e+1, 127645.06, -46702.87, -7248.664, 0.00474646, 0.0000718741, 127945.914, 127945.914, 0.0, 2.5003357, 2.4997582 
4.1132554e+2, 9.3709755e+1, 125157.16, -44696.195, -5560.5293, 0.0028648172, -0.00016511051, 125339.0, 125339.0, 0.0, 2.500328, 2.4997654 
4.1132548e+2, 9.620952e+1, 120644.83, -46859.266, -5454.2627, 0.0009987899, -0.0004104361, 120822.24, 120822.24, 0.0, 2.5003202, 2.4997654 
4.113254e+2, 9.870928e+1, 116118.47, -49029.086, -5347.043, -0.0008220111, -0.0006522559, 116291.414, 116291.414, 0.0, 2.5003123, 2.4997654 
4.1383106e+2, 1.2491071e+0, -136401.34, -866750.94, -4586.706, 0.0007969283, 0.00015936785, -136372.53, -136372.53, 0.0, 2.500628, 2.4982104 
4.1383103e+2, 3.7473214e+0, -137173.78, -867255.5, -5098.2217, 0.0002860272, 0.00047840105, -137138.19, -137138.19, 0.0, 2.5006268, 2.49821 
4.13831e+2, 6.2455356e+0, -137863.16, -867583.8, -5599.5845, -0.00021584991, 0.0007978312, -137820.19, -137820.19, 0.0, 2.5006256, 2.49821 
4.1383097e+2, 8.74375e+0, -138554.78, -867913.25, -6101.463, -0.00070870266, 0.0011176583, -138503.75, -138503.75, 0.0, 2.5006244, 2.49821 
4.138309e+2, 1.1242041e+1, -95140.66, -775188.7, -14618.647, -0.0006660768, 0.0011335729, -94826.55, -94826.55, 0.0, 2.5006216, 2.4983704 
4.1383082e+2, 1.3740408e+1, -97467.26, -776068.56, -14774.106, -0.00006623603, 0.00061379257, -97145.76, -97145.76, 0.0, 2.5006173, 2.498371 
4.1383076e+2, 1.6238773e+1, -99939.555, -777247.94, -14851.027, 0.0005343911, 0.00009433599, -99614.086, -99614.086, 0.0, 2.5006132, 2.498371 
4.1383067e+2, 1.873714e+1, -102413.836, -778428.3, -14928.226, 0.0011357671, -0.00042451228, -102084.34, -102084.34, 0.0, 2.500609, 2.498371 
4.1383058e+2, 2.1235594e+1, -59689.74, -684137.7, -22145.281, 0.0012824644, -0.00052688096, -58905.37, -58905.37, 0.0, 2.500603, 2.4985354 
4.138304e+2, 2.3734131e+1, -63999.17, -685849.3, -22751.117, 0.001021566, -0.00050084817, -63167.906, -63167.906, 0.0, 2.500595, 2.4985363 
4.1383028e+2, 2.623267e+1, -68533.85, -688025.9, -23214.678, 0.0007671235, -0.00047897844, -67665.13, -67665.13, 0.0, 2.5005872, 2.4985363 
4.1383016e+2, 2.8731206e+1, -73070.18, -690203.25, -23678.82, 0.0005190171, -0.00046051736, -72162.98, -72162.98, 0.0, 2.5005796, 2.4985363 
4.1383e+2, 3.122983e+1, -29360.666, -592639.44, -29553.844, 0.00036122673, -0.0003306832, -27814.295, -27814.295, 0.0, 2.5005722, 2.4987073 
4.1382983e+2, 3.372854e+1, -33016.55, -593782.75, -29727.307, 0.00027286177, -0.00044098773, -31445.053, -31445.053, 0.0, 2.5005653, 2.4987085 
4.1382968e+2, 3.6227244e+1, -37055.676, -595718.25, -29740.533, 0.00018869688, -0.0005564611, -35476.89, -35476.89, 0.0, 2.5005584, 2.4987087 
4.138295e+2, 3.8725957e+1, -41096.777, -597654.75, -29754.51, 0.00010880111, -0.00067575, -39510.574, -39510.574, 0.0, 2.5005515, 2.4987087 
4.1382933e+2, 4.122475e+1, 1920.0702, -499552.97, -33376.28, 0.00026612662, -0.0006508363, 4131.7236, 4131.7236, 0.0, 2.500542, 2.4988816 
4.1382912e+2, 4.3723628e+1, -4688.809, -501803.4, -33581.203, 0.0006449452, -0.0010009101, -2430.5818, -2430.5818, 0.0, 2.5005298, 2.4988835 
4.1382894e+2, 4.622251e+1, -11879.322, -505255.4, -33741.03, 0.0010303908, -0.0013587916, -9582.531, -9582.531, 0.0, 2.5005174, 2.4988835 
4.1382876e+2, 4.8721394e+1, -19072.738, -508708.8, -33901.758, 0.0014225816, -0.0017219752, -16736.572, -16736.572, 0.0, 2.500505, 2.4988837 
4.1382855e+2, 5.122037e+1, 23970.518, -409545.4, -35336.1, 0.0013962986, -0.0014164358, 26831.896, 26831.896, 0.0, 2.5004945, 2.4990587 
4.1382834e+2, 5.371943e+1, 19593.273, -410385.63, -34854.027, 0.0008272596, -0.0010577725, 22400.213, 22400.213, 0.0, 2.5004857, 2.4990616 
4.1382816e+2, 5.62185e+1, 14421.029, -412870.5, -34530.617, 0.00026374878, -0.00070532085, 17193.555, 17193.555, 0.0, 2.5004766, 2.4990616 
4.1382796e+2, 5.871756e+1, 9245.595, -415356.9, -34207.87, -0.00029363335, -0.00035543475, 11983.875, 11983.875, 0.0, 2.5004678, 2.4990616 
4.1382772e+2, 6.121672e+1, 53110.742, -315120.4, -33324.336, -0.000073096984, -0.00008512677, 56102.242, 56102.242, 0.0, 2.500458, 2.4992385 
4.1382754e+2, 6.371595e+1, 47459.49, -316281.03, -32893.273, 0.000712258, -0.00053573964, 50410.113, 50410.113, 0.0, 2.5004466, 2.4992418 
4.1382736e+2, 6.6215193e+1, 40825.766, -319472.2, -32906.22, 0.0015048353, -0.0009935378, 43806.453, 43806.453, 0.0, 2.500435, 2.4992418 
4.1382718e+2, 6.8714434e+1, 34187.953, -322665.34, -32920.043, 0.0023061987, -0.0014544228, 37199.44, 37199.44, 0.0, 2.5004237, 2.499242 
4.13827e+2, 7.121376e+1, 76236.13, -224755.98, -29209.986, 0.0027837805, -0.0011207315, 79044.625, 79044.625, 0.0, 2.5004125, 2.4994154 
4.1382682e+2, 7.3713183e+1, 70321.664, -225590.4, -27976.012, 0.002141387, -0.00080596516, 72943.33, 72943.33, 0.0, 2.5004, 2.49942 
4.1382667e+2, 7.621261e+1, 63130.668, -229060.78, -27452.148, 0.0015059636, -0.0004976673, 65687.49, 65687.49, 0.0, 2.5003877, 2.49942 
4.1382647e+2, 7.871203e+1, 55933.914, -232533.92, -26928.441, 0.0008832498, -0.0001900029, 58426.15, 58426.15, 0.0, 2.5003755, 2.49942 
4.1382632e+2, 8.121153e+1, 98567.81, -135229.44, -20598.998, 0.0007621299, 0.000045384444, 100368.84, 100368.84, 0.0, 2.500366, 2.4995916 
4.1382623e+2, 8.371113e+1, 95756.6, -133945.89, -19049.508, 0.0012283507, -0.00034410405, 97325.68, 97325.68, 0.0, 2.5003583, 2.4995975 
4.138261e+2, 8.621072e+1, 91285.46, -136089.64, -18472.447, 0.001706374, -0.00073989935, 92776.43, 92776.43, 0.0, 2.5003507, 2.4995975 
4.13826e+2, 8.871032e+1, 86806.85, -138237.0, -17895.79, 0.0021956917, -0.0011380835, 88221.06, 88221.06, 0.0, 2.5003428, 2.4995975 
4.138259e+2, 9.121e+1, 128119.48, -46210.07, -8353.082, 0.003604598, -0.00045444397, 128518.805, 128518.805, 0.0, 2.5003362, 2.4997587 
4.1382584e+2, 9.370976e+1, 125807.555, -43838.69, -6703.179, 0.0021465104, -0.00023073333, 126072.01, 126072.01, 0.0, 2.5003285, 2.4997666 
4.1382578e+2, 9.620953e+1, 121297.17, -45996.855, -6587.267, 0.000678712, -0.000018254961, 121556.15, 121556.15, 0.0, 2.5003207, 2.4997666 
4.1382572e+2, 9.87093e+1, 116772.77, -48161.77, -6470.4014, -0.0007678106, 0.00019529594, 117026.22, 117026.22, 0.0, 2.500313, 2.4997666 
4.163317e+2, 1.2491043e+0, -137337.63, -868698.6, -4765.314, 0.0015793957, 0.000039017657, -137306.58, -137306.58, 0.0, 2.500628, 2.498207 
4.1633168e+2, 3.7473127e+0, -138108.63, -869204.75, -5280.6763, 0.0006944026, 0.00011635007, -138070.48, -138070.48, 0.0, 2.5006268, 2.4982066 
4.163316e+2, 6.2455213e+0, -138793.39, -869528.1, -5778.4736, -0.00019170206, 0.0001927456, -138747.7, -138747.7, 0.0, 2.5006256, 2.4982066 
4.1633156e+2, 8.7437296e+0, -139480.42, -869852.6, -6276.787, -0.0010789179, 0.00026820425, -139426.48, -139426.48, 0.0, 2.5006244, 2.4982066 
4.163315e+2, 1.1242021e+1, -95290.54, -775509.5, -15265.619, -0.0010722897, 0.00042342715, -94948.12, -94948.12, 0.0, 2.5006216, 2.4983697 
4.1633144e+2, 1.3740392e+1, -97610.64, -776379.75, -15422.89, -0.00013434801, 0.000427214, -97260.38, -97260.38, 0.0, 2.5006175, 2.4983704 
4.1633135e+2, 1.6238764e+1, -100081.42, -777559.9, -15496.318, 0.0007977488, 0.00043142465, -99727.15, -99727.15, 0.0, 2.5006132, 2.4983704 
4.1633126e+2, 1.8737134e+1, -102554.18, -778741.0, -15570.024, 0.0017239436, 0.0004363459, -102195.85, -102195.85, 0.0, 2.500609, 2.4983704 
4.1633117e+2, 2.1235587e+1, -60546.043, -685949.75, -23307.615, 0.0019156436, 0.0004047647, -59678.613, -59678.613, 0.0, 2.500603, 2.4985323 
4.1633102e+2, 2.3734118e+1, -64851.016, -687656.6, -23935.117, 0.0014362587, 0.000029466699, -63932.516, -63932.516, 0.0, 2.500595, 2.4985332 
4.1633087e+2, 2.6232648e+1, -69383.18, -689832.44, -24396.473, 0.0009593095, -0.00035090942, -68425.375, -68425.375, 0.0, 2.5005875, 2.4985332 
4.1633075e+2, 2.873118e+1, -73916.984, -692009.0, -24858.412, 0.00048462895, -0.00073557656, -72918.84, -72918.84, 0.0, 2.5005796, 2.4985332 
4.1633058e+2, 3.1229797e+1, -29370.32, -592724.56, -30581.281, 0.0002497867, -0.00083927106, -27715.102, -27715.102, 0.0, 2.5005724, 2.498707 
4.1633043e+2, 3.3728504e+1, -33018.58, -593856.25, -30782.705, 0.00025471058, -0.0010108977, -31334.066, -31334.066, 0.0, 2.5005653, 2.4987085 
4.1633022e+2, 3.622721e+1, -37056.637, -595793.6, -30793.85, 0.0002601711, -0.001188791, -35364.61, -35364.61, 0.0, 2.5005584, 2.4987085 
4.1633004e+2, 3.8725922e+1, -41096.68, -597732.0, -30805.744, 0.00026616416, -0.0013715976, -39396.992, -39396.992, 0.0, 2.5005515, 2.4987085 
4.1632986e+2, 4.1224715e+1, 1642.4021, -500208.97, -35211.35, 0.00036289264, -0.0011693537, 4100.889, 4100.889, 0.0, 2.5005422, 2.4988804 
4.1632965e+2, 4.3723598e+1, -4954.0225, -502438.5, -35454.254, 0.000578448, -0.0011351292, -2440.0068, -2440.0068, 0.0, 2.5005298, 2.4988825 
4.1632947e+2, 4.6222484e+1, -12143.08, -505892.44, -35611.43, 0.0007962257, -0.0011098208, -9587.848, -9587.848, 0.0, 2.5005174, 2.4988825 
4.1632926e+2, 4.8721367e+1, -19335.041, -509347.78, -35769.508, 0.0010161088, -0.0010907251, -16737.738, -16737.738, 0.0, 2.500505, 2.4988825 
4.1632903e+2, 5.122034e+1, 24615.275, -408357.75, -36669.855, 0.0010884105, -0.00070787384, 27699.0, 27699.0, 0.0, 2.5004947, 2.4990609 
4.1632882e+2, 5.371941e+1, 20263.113, -409150.28, -36202.324, 0.00087367895, -0.000582443, 23293.814, 23293.814, 0.0, 2.5004857, 2.4990637 
4.163286e+2, 5.621847e+1, 15091.998, -411636.63, -35876.637, 0.00065931084, -0.0004627904, 18087.254, 18087.254, 0.0, 2.5004768, 2.4990637 
4.163284e+2, 5.871754e+1, 9917.692, -414124.47, -35551.613, 0.00044603323, -0.00034527917, 12877.671, 12877.671, 0.0, 2.500468, 2.4990637 
4.163282e+2, 6.121669e+1, 53156.047, -315231.06, -35023.164, 0.0005520067, -0.00020343154, 56456.19, 56456.19, 0.0, 2.5004582, 2.4992383 
4.16328e+2, 6.371593e+1, 47541.844, -316318.8, -34615.215, 0.00073363923, -0.00072310213, 50805.625, 50805.625, 0.0, 2.5004468, 2.4992418 
4.1632777e+2, 6.6215163e+1, 40908.332, -319513.13, -34625.55, 0.0009167021, -0.0012490822, 44204.65, 44204.65, 0.0, 2.5004354, 2.4992418 
4.163276e+2, 6.8714404e+1, 34270.727, -322709.4, -34636.766, 0.0011029023, -0.0017769552, 37600.375, 37600.375, 0.0, 2.500424, 2.4992418 
4.163274e+2, 7.121374e+1, 77304.625, -222843.2, -31031.709, 0.0016119566, -0.0013094177, 80479.36, 80479.36, 0.0, 2.5004127, 2.4994187 
4.163272e+2, 7.3713166e+1, 71487.58, -223474.9, -29838.752, 0.0016722626, -0.00069677166, 74475.83, 74475.83, 0.0, 2.5004005, 2.4994235 
4.1632706e+2, 7.621259e+1, 64294.69, -226947.58, -29311.504, 0.0017310954, -0.00008882405, 67215.4, 67215.4, 0.0, 2.5003881, 2.4994235 
4.1632688e+2, 7.871202e+1, 57096.05, -230423.0, -28784.412, 0.0017941775, 0.00052057725, 59949.426, 59949.426, 0.0, 2.5003757, 2.4994235 
4.1632673e+2, 8.121153e+1, 99787.21, -133078.23, -21715.588, 0.0017409549, 0.0007253023, 101794.97, 101794.97, 0.0, 2.5003664, 2.4995952 
4.1632658e+2, 8.371113e+1, 97106.14, -131528.42, -20204.29, 0.0015314079, -0.00008139646, 98877.85, 98877.85, 0.0, 2.5003588, 2.4996014 
4.1632643e+2, 8.6210716e+1, 92636.68, -133671.53, -19623.744, 0.0013215573, -0.0008959972, 94325.695, 94325.695, 0.0, 2.500351, 2.4996014 
4.163263e+2, 8.8710314e+1, 88159.75, -135818.23, -19043.598, 0.001111672, -0.0017142385, 89767.375, 89767.375, 0.0, 2.5003433, 2.4996014 
4.1632622e+2, 9.121e+1, 128573.26, -45760.152, -9442.997, 0.00245035, -0.0009718785, 129083.26, 129083.26, 0.0, 2.500337, 2.4997592 
4.1632617e+2, 9.370977e+1, 126457.08, -42983.01, -7846.733, 0.0014145793, -0.00029243427, 126819.69, 126819.69, 0.0, 2.500329, 2.4997678 
4.1632608e+2, 9.6209544e+1, 121948.65, -45136.27, -7721.175, 0.00034385562, 0.0003725662, 122304.695, 122304.695, 0.0, 2.5003214, 2.4997678 
4.1632602e+2, 9.8709315e+1, 117426.195, -47296.285, -7594.6636, -0.000729543, 0.0010362059, 117775.62, 117775.62, 0.0, 2.5003135, 2.4997678 
4.1883233e+2, 1.2491014e+0, -140531.52, -871733.1, -4932.2124, 0.0023609716, -0.000082433166, -140498.25, -140498.25, 0.0, 2.500624, 2.4982038 
4.1883227e+2, 3.747304e+0, -141273.84, -872229.75, -5436.026, 0.0010988913, -0.00024893135, -141233.42, -141233.42, 0.0, 2.500623, 2.4982033 
4.1883224e+2, 6.245507e+0, -141984.63, -872563.3, -5918.3135, -0.00017362543, -0.000417605, -141936.69, -141936.69, 0.0, 2.5006218, 2.4982033 
4.1883218e+2, 8.7437093e+0, -142756.6, -872926.3, -6405.7427, -0.0014565788, -0.00058845425, -142700.39, -142700.39, 0.0, 2.5006204, 2.4982033 
4.1883212e+2, 1.1241999e+1, -97805.734, -776994.4, -15872.51, -0.0014663748, -0.0002852618, -97435.0, -97435.0, 0.0, 2.5006175, 2.4983692 
4.1883206e+2, 1.3740377e+1, -100007.79, -777781.2, -16043.209, -0.00019288521, 0.00023610418, -99628.25, -99628.25, 0.0, 2.5006135, 2.4983697 
4.1883197e+2, 1.6238752e+1, -102419.48, -778935.06, -16137.162, 0.0010688439, 0.0007579346, -102034.77, -102034.77, 0.0, 2.5006094, 2.4983697 
4.188319e+2, 1.8737127e+1, -104874.11, -780109.6, -16238.795, 0.0023187886, 0.0012805483, -104483.81, -104483.81, 0.0, 2.500605, 2.49837 
4.188318e+2, 2.1235579e+1, -63552.875, -688834.7, -24513.62, 0.0025454308, 0.0013373961, -62593.313, -62593.313, 0.0, 2.5005994, 2.4985292 
4.1883165e+2, 2.3734102e+1, -67740.77, -690450.25, -25173.566, 0.0018471546, 0.0005567829, -66724.766, -66724.766, 0.0, 2.5005918, 2.4985301 
4.1883147e+2, 2.6232627e+1, -72201.375, -692592.6, -25646.678, 0.0011476118, -0.00022978381, -71142.96, -71142.96, 0.0, 2.5005841, 2.4985301 
4.1883132e+2, 2.873115e+1, -76686.53, -694746.8, -26125.988, 0.0004465297, -0.0010213753, -75584.125, -75584.125, 0.0, 2.5005763, 2.4985301 
4.1883114e+2, 3.1229764e+1, -31259.867, -593746.25, -31740.156, 0.00014291394, -0.0013545129, -29474.49, -29474.49, 0.0, 2.500569, 2.4987068 
4.1883096e+2, 3.3728468e+1, -34823.684, -594806.94, -32044.215, 0.00024241801, -0.0015915205, -32995.97, -32995.97, 0.0, 2.5005624, 2.4987082 
4.1883078e+2, 3.6227176e+1, -38828.926, -596731.5, -32132.363, 0.0003391101, -0.0018357931, -36984.363, -36984.363, 0.0, 2.5005555, 2.4987082 
4.188306e+2, 3.8725883e+1, -42866.78, -598671.8, -32227.002, 0.00043297993, -0.0020859272, -41004.418, -41004.418, 0.0, 2.5005486, 2.4987082 
4.1883042e+2, 4.1224682e+1, -333.06326, -501728.34, -37495.89, 0.00045497995, -0.0016822075, 2455.4868, 2455.4868, 0.0, 2.5005393, 2.498879 
4.188302e+2, 4.3723568e+1, -6705.709, -503800.0, -37860.164, 0.0005078724, -0.0012681189, -3838.7026, -3838.7026, 0.0, 2.5005274, 2.4988813 
4.1882998e+2, 4.6222454e+1, -13732.678, -507179.1, -38103.79, 0.0005591041, -0.0008641156, -10807.653, -10807.653, 0.0, 2.5005152, 2.4988813 
4.1882974e+2, 4.872134e+1, -20790.855, -510573.25, -38355.684, 0.00060817495, -0.00046703854, -17805.355, -17805.355, 0.0, 2.500503, 2.4988813 
4.1882953e+2, 5.1220316e+1, 24161.746, -407742.0, -38820.996, 0.0007829097, -0.00000075133005, 27623.367, 27623.367, 0.0, 2.500493, 2.4990625 
4.1882932e+2, 5.3719383e+1, 19942.9, -408404.06, -38494.113, 0.00092159514, -0.00011234632, 23374.742, 23374.742, 0.0, 2.5004842, 2.4990656 
4.188291e+2, 5.621845e+1, 14813.925, -410872.53, -38288.348, 0.0010560171, -0.00022935873, 18230.35, 18230.35, 0.0, 2.5004754, 2.4990656 
4.1882887e+2, 5.8717513e+1, 9634.004, -413365.53, -38087.727, 0.0011870654, -0.00034806164, 13036.136, 13036.136, 0.0, 2.5004666, 2.4990656 
4.1882867e+2, 6.1216664e+1, 52324.406, -315799.03, -38001.703, 0.0011761507, -0.00031839113, 56206.418, 56206.418, 0.0, 2.500457, 2.4992378 
4.1882843e+2, 6.37159e+1, 46964.176, -316683.44, -37685.113, 0.00075371354, -0.0009108216, 50828.453, 50828.453, 0.0, 2.5004458, 2.4992416 
4.1882822e+2, 6.6215134e+1, 40481.215, -319808.5, -37753.72, 0.0003275547, -0.0015090434, 44394.805, 44394.805, 0.0, 2.5004349, 2.4992416 
4.18828e+2, 6.871437e+1, 33943.836, -322959.8, -37822.855, -0.000100512254, -0.0021080791, 37908.08, 37908.08, 0.0, 2.5004237, 2.4992416 
4.188278e+2, 7.1213704e+1, 78134.234, -221083.19, -34359.62, 0.00043948786, -0.0014945084, 82029.11, 82029.11, 0.0, 2.5004127, 2.4994216 
4.188276e+2, 7.371314e+1, 72721.086, -221332.2, -33271.62, 0.0012007036, -0.00058764796, 76438.71, 76438.71, 0.0, 2.5004008, 2.4994268 
4.188274e+2, 7.621258e+1, 65745.38, -224701.55, -32785.34, 0.0019527439, 0.00031588954, 69400.164, 69400.164, 0.0, 2.5003889, 2.4994268 
4.1882724e+2, 7.871202e+1, 58696.613, -228106.08, -32296.31, 0.002701299, 0.0012227931, 62288.457, 62288.457, 0.0, 2.5003767, 2.4994268 
4.188271e+2, 8.1211525e+1, 101580.47, -130674.34, -24478.04, 0.0027146349, 0.0014044101, 104132.25, 104132.25, 0.0, 2.5003679, 2.4995985 
4.1882694e+2, 8.3711123e+1, 99163.305, -128768.39, -22994.592, 0.0018291346, 0.00017820131, 101459.945, 101459.945, 0.0, 2.5003605, 2.4996054 
4.188268e+2, 8.6210716e+1, 94681.04, -130917.93, -22387.975, 0.0009326709, -0.0010576057, 96881.31, 96881.31, 0.0, 2.5003526, 2.4996054 
4.1882667e+2, 8.8710314e+1, 90058.914, -133134.83, -21784.705, 0.00002627833, -0.0022982552, 92165.31, 92165.31, 0.0, 2.5003448, 2.4996054 
4.1882658e+2, 9.120999e+1, 129697.4, -45003.383, -11987.098, 0.0012876797, -0.0014794774, 130516.06, 130516.06, 0.0, 2.5003386, 2.4997597 
4.188265e+2, 9.370977e+1, 128138.43, -41615.707, -10239.534, 0.00066916633, -0.0003497633, 128753.84, 128753.84, 0.0, 2.5003314, 2.499769 
4.188264e+2, 9.620955e+1, 123685.766, -43739.094, -9895.66, -0.000006404562, 0.0007620334, 124268.62, 124268.62, 0.0, 2.5003238, 2.499769 
4.1882634e+2, 9.8709327e+1, 118931.06, -46007.918, -9562.432, -0.00070555345, 0.0018700933, 119483.6, 119483.6, 0.0, 2.5003154, 2.4997692 
4.21333e+2, 1.24910034e+0, -123682.67, -864418.0, -4963.2456, 0.00203288, -0.00010607256, -123649.414, -123649.414, 0.0, 2.5006537, 2.4982018 
4.2133293e+2, 3.7473008e+0, -124949.84, -865182.25, -5083.037, 0.0009566239, -0.00031825158, -124914.945, -124914.945, 0.0, 2.5006518, 2.4982016 
4.213329e+2, 6.2455016e+0, -126122.49, -865747.75, -5167.7153, -0.00011026396, -0.0005304755, -126086.38, -126086.38, 0.0, 2.50065, 2.4982016 
4.2133284e+2, 8.743702e+0, -127296.555, -866314.0, -5252.2627, -0.001167783, -0.0007427444, -127259.23, -127259.23, 0.0, 2.5006478, 2.4982016 
4.2133278e+2, 1.124199e+1, -82950.05, -770862.3, -15178.523, -0.0011616598, -0.00044462545, -82615.305, -82615.305, 0.0, 2.5006442, 2.4983668 
4.2133266e+2, 1.3740364e+1, -85874.47, -772025.8, -15851.511, -0.000082025756, 0.000112028225, -85508.46, -85508.46, 0.0, 2.500639, 2.4983675 
4.2133257e+2, 1.6238739e+1, -88962.86, -773528.25, -16431.156, 0.0010066207, 0.0006669879, -88568.7, -88568.7, 0.0, 2.5006337, 2.4983673 
4.213325e+2, 1.8737112e+1, -92052.24, -775031.1, -17011.078, 0.0021042596, 0.001220563, -91628.805, -91628.805, 0.0, 2.5006285, 2.4983673 
4.213324e+2, 2.1235561e+1, -50646.293, -683105.8, -25590.37, 0.0023076704, 0.0013053877, -49612.55, -49612.55, 0.0, 2.500622, 2.498528 
4.213322e+2, 2.3734084e+1, -54873.637, -684752.6, -25655.521, 0.0017430886, 0.0005548015, -53830.39, -53830.39, 0.0, 2.5006144, 2.498529 
4.2133206e+2, 2.6232606e+1, -59354.25, -686922.44, -25497.111, 0.00118255, -0.00019710856, -58320.047, -58320.047, 0.0, 2.5006068, 2.498529 
4.213319e+2, 2.873113e+1, -63836.434, -689092.94, -25339.123, 0.00062567374, -0.0009494092, -62811.223, -62811.223, 0.0, 2.500599, 2.498529 
4.2133173e+2, 3.1229743e+1, -19773.252, -588730.94, -30881.676, 0.00040442732, -0.0013117029, -18101.977, -18101.977, 0.0, 2.5005896, 2.4987056 
4.2133155e+2, 3.3728448e+1, -26246.885, -591211.9, -31338.186, 0.00053825486, -0.001654242, -24513.895, -24513.895, 0.0, 2.5005777, 2.498707 
4.2133135e+2, 3.6227155e+1, -33132.176, -594542.75, -31534.6, 0.0006793629, -0.0020009559, -31366.42, -31366.42, 0.0, 2.5005658, 2.498707 
4.2133114e+2, 3.8725856e+1, -40019.617, -597874.6, -31731.545, 0.0008277009, -0.0023504174, -38220.484, -38220.484, 0.0, 2.500554, 2.498707 
4.2133096e+2, 4.1224656e+1, 2178.6997, -500623.06, -36929.0, 0.00075020996, -0.0019047684, 4876.528, 4876.528, 0.0, 2.5005438, 2.4988787 
4.2133072e+2, 4.3723541e+1, -2708.6433, -501975.97, -36840.656, 0.00059309637, -0.0013351144, -4.834312, -4.834312, 0.0, 2.5005343, 2.498881 
4.213305e+2, 4.622243e+1, -8237.684, -504653.5, -36577.16, 0.0004424304, -0.0007697693, -5557.0615, -5557.0615, 0.0, 2.5005248, 2.498881 
4.2133027e+2, 4.8721316e+1, -13769.999, -507332.63, -36314.234, 0.00029746894, -0.00020541363, -11112.462, -11112.462, 0.0, 2.5005152, 2.498881 
4.2133003e+2, 5.12203e+1, 30270.783, -404685.75, -36744.305, 0.00047827893, 0.00028824573, 33353.03, 33353.03, 0.0, 2.5005033, 2.499063 
4.213298e+2, 5.3719354e+1, 22390.809, -407108.88, -36662.04, 0.0008196869, 0.000047022517, 25497.799, 25497.799, 0.0, 2.5004883, 2.4990659 
4.213296e+2, 5.621842e+1, 13636.907, -411339.2, -36664.684, 0.001172617, -0.00020047012, 16776.941, 16776.941, 0.0, 2.5004733, 2.4990659 
4.2132935e+2, 5.871749e+1, 4879.264, -415571.3, -36668.082, 0.0015380547, -0.00045044575, 8053.179, 8053.179, 0.0, 2.5004582, 2.4990659 
4.2132914e+2, 6.1216635e+1, 45820.473, -318400.88, -36218.38, 0.0015260953, -0.0003938417, 49387.12, 49387.12, 0.0, 2.5004451, 2.499239 
4.213289e+2, 6.3715875e+1, 40082.176, -319413.0, -35309.133, 0.00085268915, -0.0008252928, 43517.363, 43517.363, 0.0, 2.5004334, 2.4992428 
4.2132863e+2, 6.6215116e+1, 33233.574, -322719.34, -34752.688, 0.00019086701, -0.0012670219, 36594.84, 36594.84, 0.0, 2.5004218, 2.4992428 
4.2132843e+2, 6.8714356e+1, 26380.148, -326028.03, -34196.77, -0.0004575177, -0.0017138815, 29667.842, 29667.842, 0.0, 2.5004098, 2.4992428 
4.2132822e+2, 7.121369e+1, 70330.2, -223987.2, -30546.922, 0.00007034686, -0.0010520712, 73467.2, 73467.2, 0.0, 2.5003984, 2.4994235 
4.21328e+2, 7.371313e+1, 64760.395, -224195.31, -29768.342, 0.0009990454, -0.00024172397, 67795.266, 67795.266, 0.0, 2.5003862, 2.499429 
4.2132783e+2, 7.6212573e+1, 57624.645, -227639.88, -29549.547, 0.0019341339, 0.0005580428, 60653.42, 60653.42, 0.0, 2.5003738, 2.499429 
4.2132765e+2, 7.8712004e+1, 50482.285, -231087.64, -29331.484, 0.0028815793, 0.0013541881, 53505.324, 53505.324, 0.0, 2.5003617, 2.499429 
4.2132744e+2, 8.121152e+1, 91587.83, -134396.61, -21498.664, 0.0029282789, 0.0015703541, 93614.89, 93614.89, 0.0, 2.5003495, 2.499601 
4.213273e+2, 8.3711123e+1, 86039.766, -133816.64, -20474.518, 0.00185648, 0.00051031925, 87930.234, 87930.234, 0.0, 2.5003364, 2.4996083 
4.2132714e+2, 8.6210716e+1, 78444.91, -137467.72, -20284.793, 0.0008120634, -0.0005568006, 80334.11, 80334.11, 0.0, 2.5003233, 2.4996083 
4.2132697e+2, 8.8710314e+1, 70841.336, -141123.0, -20094.867, -0.00020342879, -0.0016260335, 72729.57, 72729.57, 0.0, 2.5003104, 2.4996083 
4.2132688e+2, 9.121e+1, 109087.12, -52522.54, -9522.008, 0.0010518469, -0.00071891485, 109646.22, 109646.22, 0.0, 2.5003004, 2.4997652 
4.213268e+2, 9.3709785e+1, 106803.305, -49195.637, -6996.933, 0.00045765928, 0.0002897035, 107116.51, 107116.51, 0.0, 2.5002918, 2.499775 
4.2132673e+2, 9.6209574e+1, 101719.91, -51643.684, -5789.82, -0.00012096021, 0.0012804199, 101938.17, 101938.17, 0.0, 2.500283, 2.499775 
4.2132664e+2, 9.870935e+1, 96621.02, -54099.18, -4581.473, -0.00064956857, 0.0022684045, 96760.16, 96760.16, 0.0, 2.5002742, 2.499775 
4.238336e+2, 1.2491007e+0, -123838.38, -864742.0, -5263.4893, 0.000615406, -0.00003582363, -123800.984, -123800.984, 0.0, 2.5006537, 2.4982014 
4.2383355e+2, 3.7473023e+0, -125107.64, -865511.56, -5388.2983, 0.00026133156, -0.00010722307, -125068.43, -125068.43, 0.0, 2.5006518, 2.498201 
4.2383352e+2, 6.2455034e+0, -126279.88, -866077.25, -5470.5947, -0.00008977033, -0.00017829183, -126239.44, -126239.44, 0.0, 2.50065, 2.498201 
4.238335e+2, 8.7437046e+0, -127453.55, -866643.6, -5552.7593, -0.00043789926, -0.00024902998, -127411.84, -127411.84, 0.0, 2.5006478, 2.498201 
4.2383343e+2, 1.124199e+1, -84005.38, -773063.3, -15964.243, -0.00040102718, -0.00008704556, -83635.72, -83635.72, 0.0, 2.5006442, 2.498363 
4.238333e+2, 1.3740356e+1, -86945.96, -774264.25, -16654.844, 0.00007900192, 0.00008062151, -86542.625, -86542.625, 0.0, 2.500639, 2.4983635 
4.2383322e+2, 1.6238722e+1, -90031.45, -775764.44, -17231.61, 0.0005652641, 0.00024643415, -89598.72, -89598.72, 0.0, 2.5006337, 2.4983635 
4.2383313e+2, 1.873709e+1, -93117.94, -777265.1, -17808.654, 0.0010576801, 0.0004106689, -92654.68, -92654.68, 0.0, 2.5006285, 2.4983635 
4.23833e+2, 2.1235536e+1, -50332.297, -682485.5, -26726.15, 0.0011750961, 0.00048868003, -49204.383, -49204.383, 0.0, 2.500622, 2.4985292 
4.2383283e+2, 2.3734064e+1, -54565.223, -684145.2, -26823.377, 0.0010688151, 0.000163595, -53424.477, -53424.477, 0.0, 2.5006144, 2.49853 
4.2383268e+2, 2.623259e+1, -59046.336, -686317.2, -26662.717, 0.00096325605, -0.00016267522, -57915.055, -57915.055, 0.0, 2.5006068, 2.49853 
4.238325e+2, 2.873112e+1, -63529.02, -688489.94, -26502.48, 0.00085798244, -0.00048930146, -62407.152, -62407.152, 0.0, 2.500599, 2.49853 
4.2383233e+2, 3.1229737e+1, -20107.904, -589468.25, -32628.7, 0.00084093906, -0.0006924244, -18244.13, -18244.13, 0.0, 2.5005896, 2.4987044 
4.2383212e+2, 3.372844e+1, -26595.29, -591981.1, -33128.68, 0.0009684276, -0.001161958, -24660.74, -24660.74, 0.0, 2.5005777, 2.4987056 
4.238319e+2, 3.622714e+1, -33479.414, -595312.94, -33323.105, 0.0010993509, -0.0016372821, -31509.88, -31509.88, 0.0, 2.500566, 2.4987056 
4.2383173e+2, 3.872584e+1, -40365.69, -598645.75, -33518.066, 0.0012334936, -0.0021169083, -38360.53, -38360.53, 0.0, 2.500554, 2.4987056 
4.2383152e+2, 4.1224635e+1, 2705.9116, -499609.66, -38316.324, 0.0010241946, -0.0017805197, 5611.846, 5611.846, 0.0, 2.5005438, 2.4988806 
4.2383125e+2, 4.3723527e+1, -2183.6226, -500973.16, -38278.65, 0.00062729215, -0.0012532366, 736.89886, 736.89886, 0.0, 2.5005343, 2.4988828 
4.2383102e+2, 4.6222416e+1, -7709.8506, -503650.6, -38012.324, 0.00023059508, -0.00073192955, -4813.2417, -4813.2417, 0.0, 2.500525, 2.4988828 
4.2383078e+2, 4.8721305e+1, -13239.3545, -506329.66, -37746.574, -0.00016672823, -0.00021349118, -10366.553, -10366.553, 0.0, 2.5005155, 2.4988828 
4.2383054e+2, 5.122028e+1, 30336.389, -404666.06, -38986.246, -0.000057940102, 0.00024571852, 33802.832, 33802.832, 0.0, 2.5005035, 2.4990628 
4.238303e+2, 5.371935e+1, 22442.04, -407124.1, -38934.64, 0.00039247127, -0.000030992203, 25942.44, 25942.44, 0.0, 2.5004885, 2.4990659 
4.2383006e+2, 5.621841e+1, 13690.505, -411354.34, -38934.508, 0.00084789906, -0.00031546046, 17227.51, 17227.51, 0.0, 2.5004735, 2.4990659 
4.238298e+2, 5.871747e+1, 4935.228, -415586.4, -38935.13, 0.0013093743, -0.0006037902, 8509.758, 8509.758, 0.0, 2.5004585, 2.4990659 
4.2382956e+2, 6.121663e+1, 46932.504, -316284.5, -37963.92, 0.0013942951, -0.00039482364, 50858.117, 50858.117, 0.0, 2.5004454, 2.4992425 
4.2382932e+2, 6.3715875e+1, 41221.797, -317242.25, -37087.523, 0.0008304564, -0.00044843223, 45018.74, 45018.74, 0.0, 2.5004337, 2.4992466 
4.2382908e+2, 6.6215116e+1, 34371.77, -320553.7, -36527.43, 0.0002702298, -0.00051159214, 38092.023, 38092.023, 0.0, 2.500422, 2.4992464 
4.2382884e+2, 6.871437e+1, 27516.914, -323867.47, -35967.86, -0.0002846459, -0.00057932327, 31160.813, 31160.813, 0.0, 2.50041, 2.4992464 
4.238286e+2, 7.1213704e+1, 70884.22, -223110.66, -32367.818, 0.00020608275, 0.000048624624, 74405.625, 74405.625, 0.0, 2.5003986, 2.499425 
4.238284e+2, 7.371314e+1, 65344.363, -223258.92, -31618.375, 0.0009054812, 0.00039257825, 68767.76, 68767.76, 0.0, 2.5003865, 2.4994307 
4.2382818e+2, 7.621258e+1, 58208.31, -226705.45, -31395.49, 0.0015994769, 0.00072678865, 61626.855, 61626.855, 0.0, 2.5003743, 2.4994307 
4.2382798e+2, 7.871201e+1, 51065.645, -230155.19, -31173.34, 0.0022944736, 0.0010582913, 54479.76, 54479.76, 0.0, 2.500362, 2.4994304 
4.238278e+2, 8.1211525e+1, 92141.65, -133617.48, -23439.613, 0.002371005, 0.0013743665, 94549.6, 94549.6, 0.0, 2.50035, 2.499602 
4.2382765e+2, 8.371113e+1, 86680.81, -132858.11, -22438.707, 0.0015856506, 0.0010027913, 88950.766, 88950.766, 0.0, 2.500337, 2.4996097 
4.2382744e+2, 8.621074e+1, 79085.414, -136510.67, -22244.3, 0.00081319234, 0.00062516023, 81356.56, 81356.56, 0.0, 2.5003238, 2.4996097 
4.238273e+2, 8.8710344e+1, 71481.31, -140167.42, -22049.693, 0.000055415676, 0.00024642568, 73754.055, 73754.055, 0.0, 2.5003107, 2.4996097 
4.2382717e+2, 9.121004e+1, 111618.266, -47768.773, -10739.314, 0.0014187979, 0.0012538232, 112338.61, 112338.61, 0.0, 2.5003011, 2.499773 
4.2382708e+2, 9.3709826e+1, 109514.18, -44069.453, -8284.967, 0.00070368336, 0.0016361645, 109959.81, 109959.81, 0.0, 2.5002923, 2.4997835 
4.23827e+2, 9.620961e+1, 104435.414, -46506.496, -7066.1377, -0.000025011797, 0.0019986532, 104765.484, 104765.484, 0.0, 2.5002837, 2.4997835 
4.238269e+2, 9.87094e+1, 99341.17, -48950.992, -5846.075, -0.00073221145, 0.00235741, 99571.28, 99571.28, 0.0, 2.500275, 2.4997835 
4.2633426e+2, 1.24910116e+0, -123994.11, -865066.06, -5563.4487, -0.0008025246, 0.000033370543, -123952.34, -123952.34, 0.0, 2.5006537, 2.4982007 
4.263342e+2, 3.7473035e+0, -125266.51, -865843.1, -5693.588, -0.00043533056, 0.00010064113, -125222.74, -125222.74, 0.0, 2.5006518, 2.4982004 
4.2633417e+2, 6.245506e+0, -126438.35, -866408.94, -5773.502, -0.00007155964, 0.000168618, -126393.305, -126393.305, 0.0, 2.50065, 2.4982004 
4.2633414e+2, 8.743709e+0, -127611.61, -866975.4, -5853.2847, 0.00028878843, 0.0002373011, -127565.28, -127565.28, 0.0, 2.5006478, 2.4982004 
4.2633408e+2, 1.1241989e+1, -85078.46, -775301.25, -16749.828, 0.00036017367, 0.0002762568, -84672.23, -84672.23, 0.0, 2.5006442, 2.4983592 
4.2633396e+2, 1.3740347e+1, -88018.88, -776505.7, -17458.066, 0.00023852431, 0.000047938138, -87576.484, -87576.484, 0.0, 2.500639, 2.4983597 
4.2633387e+2, 1.6238707e+1, -91101.48, -778003.6, -18031.957, 0.00012032057, -0.0001824381, -90628.445, -90628.445, 0.0, 2.5006337, 2.4983597 
4.2633373e+2, 1.8737064e+1, -94185.055, -779502.06, -18606.123, 0.0000054321226, -0.00041458543, -93680.27, -93680.27, 0.0, 2.5006285, 2.4983597 
4.263336e+2, 2.1235512e+1, -50047.45, -681925.7, -27860.484, 0.000042015607, -0.00032542148, -48821.414, -48821.414, 0.0, 2.500622, 2.4985301 
4.2633343e+2, 2.3734045e+1, -54257.75, -683539.6, -27990.645, 0.00039552426, -0.00022961463, -53015.17, -53015.17, 0.0, 2.5006144, 2.498531 
4.2633328e+2, 2.623258e+1, -58739.363, -685713.9, -27827.736, 0.00074640237, -0.00013496786, -57506.676, -57506.676, 0.0, 2.5006068, 2.4985309 
4.263331e+2, 2.873111e+1, -63222.547, -687888.9, -27665.25, 0.001094189, -0.000040642477, -61999.7, -61999.7, 0.0, 2.5005991, 2.4985309 
4.2633292e+2, 3.1229728e+1, -20458.66, -590239.0, -34373.367, 0.0012750934, -0.000071038456, -18392.496, -18392.496, 0.0, 2.5005896, 2.498703 
4.263327e+2, 3.3728427e+1, -26944.432, -592751.94, -34918.59, 0.0013976273, -0.0006707358, -24797.59, -24797.59, 0.0, 2.5005777, 2.4987044 
4.263325e+2, 3.6227128e+1, -33827.39, -596084.7, -35111.03, 0.0015197988, -0.0012779611, -31643.313, -31643.313, 0.0, 2.500566, 2.4987044 
4.2633227e+2, 3.8725826e+1, -40712.5, -599418.5, -35304.004, 0.0016411791, -0.0018910427, -38490.516, -38490.516, 0.0, 2.500554, 2.4987042 
4.2633203e+2, 4.122462e+1, 3217.1375, -498629.44, -39698.684, 0.0012936195, -0.0016568416, 6338.101, 6338.101, 0.0, 2.5005438, 2.498882 
4.263318e+2, 4.3723512e+1, -1659.3474, -499971.88, -39716.047, 0.00065735617, -0.0011757308, 1486.2084, 1486.2084, 0.0, 2.5005345, 2.4988844 
4.2633155e+2, 4.62224e+1, -7182.7637, -502649.28, -39446.895, 0.00001512445, -0.00070235436, -4061.8313, -4061.8313, 0.0, 2.500525, 2.4988844 
4.263313e+2, 4.872129e+1, -12709.456, -505328.25, -39178.316, -0.00063406414, -0.00023372557, -9613.04, -9613.04, 0.0, 2.5005155, 2.4988844 
4.26331e+2, 5.122027e+1, 30385.287, -404681.13, -41227.418, -0.00059048185, 0.00020522458, 34257.582, 34257.582, 0.0, 2.5005035, 2.4990628 
4.2633078e+2, 5.3719336e+1, 22492.563, -407140.8, -41206.5, -0.00003077902, -0.000110455265, 26409.012, 26409.012, 0.0, 2.5004885, 2.4990659 
4.263305e+2, 5.62184e+1, 13743.394, -411371.0, -41203.59, 0.00052735175, -0.00043556825, 17700.164, 17700.164, 0.0, 2.5004735, 2.4990659 
4.2633027e+2, 5.871746e+1, 4990.4834, -415603.03, -41201.434, 0.0010850698, -0.0007659212, 8988.579, 8988.579, 0.0, 2.5004585, 2.4990656 
4.2633003e+2, 6.1216617e+1, 48022.08, -314214.8, -39698.336, 0.0012580105, -0.00039159058, 52321.67, 52321.67, 0.0, 2.5004456, 2.499246 
4.2632973e+2, 6.371587e+1, 42360.465, -315073.5, -38865.063, 0.0008062167, -0.00007197507, 46537.586, 46537.586, 0.0, 2.500434, 2.4992502 
4.263295e+2, 6.621513e+1, 35509.01, -318390.03, -38301.316, 0.00035018197, 0.00023860608, 39606.79, 39606.79, 0.0, 2.5004222, 2.4992502 
4.2632926e+2, 6.871438e+1, 28652.73, -321708.9, -37738.094, -0.00010858849, 0.0005451755, 32671.473, 32671.473, 0.0, 2.5004103, 2.49925 
4.2632902e+2, 7.121372e+1, 71418.836, -222274.42, -34174.195, 0.00033778627, 0.0011524762, 75342.92, 75342.92, 0.0, 2.5003989, 2.4994261 
4.263288e+2, 7.371315e+1, 65927.65, -222324.0, -33467.785, 0.0008086358, 0.0010269935, 69762.445, 69762.445, 0.0, 2.5003867, 2.499432 
4.2632854e+2, 7.6212585e+1, 58791.285, -225772.5, -33240.813, 0.0012624032, 0.000892381, 62622.668, 62622.668, 0.0, 2.5003746, 2.499432 
4.2632833e+2, 7.871201e+1, 51648.316, -229224.19, -33014.57, 0.0017058155, 0.0007559745, 55476.76, 55476.76, 0.0, 2.5003622, 2.499432 
4.2632812e+2, 8.121153e+1, 92681.78, -132866.84, -25363.676, 0.0018142419, 0.001179118, 95498.82, 95498.82, 0.0, 2.5003502, 2.4996033 
4.2632797e+2, 8.371114e+1, 87321.17, -131901.03, -24402.973, 0.0013149088, 0.0014929911, 90004.766, 90004.766, 0.0, 2.5003374, 2.4996111 
4.263278e+2, 8.6210763e+1, 79725.24, -135555.06, -24203.885, 0.0008139744, 0.0018016925, 82412.92, 82412.92, 0.0, 2.5003242, 2.4996111 
4.2632762e+2, 8.8710374e+1, 72120.6, -139213.28, -24004.596, 0.00031347875, 0.0021103001, 74812.89, 74812.89, 0.0, 2.5003111, 2.4996111 
4.263275e+2, 9.1210073e+1, 114128.2, -43059.08, -11934.076, 0.0017790549, 0.0032372463, 115029.1, 115029.1, 0.0, 2.5003016, 2.499781 
4.263274e+2, 9.370987e+1, 112223.984, -38945.484, -9574.732, 0.0009347163, 0.002986315, 112828.016, 112828.016, 0.0, 2.5002928, 2.499792 
4.263273e+2, 9.620966e+1, 107149.86, -41371.527, -8344.1875, 0.00004776296, 0.0027132255, 107617.18, 107617.18, 0.0, 2.5002842, 2.499792 
4.2632717e+2, 9.870944e+1, 102060.26, -43805.02, -7112.409, -0.00084621063, 0.0024354039, 102406.234, 102406.234, 0.0, 2.5002754, 2.499792 
4.2883486e+2, 1.2491016e+0, -127559.74, -867034.1, -5867.403, -0.0022167307, 0.00010142381, -127513.19, -127513.19, 0.0, 2.500648, 2.4982002 
4.2883486e+2, 3.7473047e+0, -128726.6, -867768.0, -6012.3887, -0.0011306714, 0.0003050016, -128677.695, -128677.695, 0.0, 2.500646, 2.4981997 
4.2883483e+2, 6.245508e+0, -129830.875, -868301.75, -6100.6187, -0.00005371938, 0.00050955336, -129780.484, -129780.484, 0.0, 2.5006442, 2.4981997 
4.288348e+2, 8.743712e+0, -130979.07, -868856.7, -6189.58, 0.0010141243, 0.0007150792, -130927.16, -130927.16, 0.0, 2.5006423, 2.4981997 
4.288347e+2, 1.1241989e+1, -89337.25, -779102.1, -17566.63, 0.0011241985, 0.0006435637, -88890.164, -88890.164, 0.0, 2.5006387, 2.4983554 
4.288346e+2, 1.374034e+1, -92186.26, -780240.2, -18273.236, 0.00039921433, 0.000011759498, -91701.3, -91701.3, 0.0, 2.5006337, 2.4983559 
4.2883447e+2, 1.6238691e+1, -95205.92, -781707.1, -18823.893, -0.0003250076, -0.0006223834, -94690.16, -94690.16, 0.0, 2.5006285, 2.4983559 
4.2883435e+2, 1.8737042e+1, -98241.54, -783181.7, -19373.766, -0.0010486407, -0.0012585255, -97693.984, -97693.984, 0.0, 2.5006232, 2.4983559 
4.2883423e+2, 2.1235487e+1, -52680.574, -682822.9, -28980.236, -0.0010878626, -0.0011407125, -51350.582, -51350.582, 0.0, 2.5006173, 2.4985309 
4.2883405e+2, 2.3734026e+1, -56686.625, -684259.06, -29206.863, -0.00027375956, -0.0006289459, -55330.285, -55330.285, 0.0, 2.5006099, 2.498532 
4.288339e+2, 2.6232564e+1, -61038.63, -686373.25, -29106.248, 0.00053478737, -0.000118573, -59686.8, -59686.8, 0.0, 2.5006022, 2.498532 
4.2883372e+2, 2.8731102e+1, -65415.61, -688499.44, -29007.902, 0.0013373209, 0.0003913691, -64068.05, -64068.05, 0.0, 2.5005949, 2.4985318 
4.288335e+2, 3.1229722e+1, -23163.164, -592173.94, -36347.81, 0.0017100732, 0.0005469237, -20850.703, -20850.703, 0.0, 2.5005856, 2.4987016 
4.2883328e+2, 3.3728418e+1, -29434.77, -594560.56, -36981.63, 0.0018290418, -0.00018579331, -27024.98, -27024.98, 0.0, 2.500574, 2.498703 
4.2883307e+2, 3.6227116e+1, -36157.98, -597818.4, -37220.098, 0.0019442932, -0.0009276354, -33702.215, -33702.215, 0.0, 2.5005627, 2.498703 
4.2883283e+2, 3.872581e+1, -42921.934, -601095.8, -37465.535, 0.0020551342, -0.0016766273, -40418.414, -40418.414, 0.0, 2.500551, 2.498703 
4.288326e+2, 4.1224605e+1, 1989.8198, -498518.16, -41524.65, 0.001562787, -0.0015370506, 5411.5205, 5411.5205, 0.0, 2.500541, 2.4988837 
4.2883232e+2, 4.3723497e+1, -2709.9355, -499737.1, -41696.56, 0.0006868851, -0.0011057127, 763.7904, 763.7904, 0.0, 2.500532, 2.498886 
4.2883205e+2, 4.622239e+1, -8148.9663, -502375.75, -41527.953, -0.00020017818, -0.0006837109, -4683.829, -4683.829, 0.0, 2.5005226, 2.498886 
4.288318e+2, 4.8721278e+1, -13658.238, -505048.28, -41368.125, -0.0010996251, -0.0002680913, -10199.963, -10199.963, 0.0, 2.500513, 2.4988859 
4.2883155e+2, 5.1220256e+1, 29094.7, -405374.6, -44318.88, -0.0011142073, 0.00016536041, 33569.445, 33569.445, 0.0, 2.5005014, 2.4990625 
4.2883128e+2, 5.371932e+1, 21518.947, -407658.9, -44402.668, -0.00044581163, -0.00019226858, 26064.691, 26064.691, 0.0, 2.5004869, 2.4990656 
4.2883098e+2, 5.6218386e+1, 13012.436, -411773.66, -44476.52, 0.00021486235, -0.0005609421, 17619.313, 17619.313, 0.0, 2.5004723, 2.4990656 
4.288307e+2, 5.871745e+1, 4443.139, -415918.66, -44556.676, 0.0008691796, -0.0009359848, 9114.067, 9114.067, 0.0, 2.5004578, 2.4990656 
4.2883044e+2, 6.1216605e+1, 48645.297, -312412.22, -42608.758, 0.0011209792, -0.00038266374, 53605.457, 53605.457, 0.0, 2.5004451, 2.4992492 
4.288302e+2, 6.371587e+1, 43190.008, -313061.56, -41934.445, 0.00078296405, 0.0003057663, 48059.56, 48059.56, 0.0, 2.5004337, 2.4992537 
4.2882994e+2, 6.6215134e+1, 36399.3, -316352.97, -41467.926, 0.00043375086, 0.0009856155, 41208.516, 41208.516, 0.0, 2.500422, 2.4992537 
4.2882964e+2, 6.871439e+1, 29530.09, -319682.2, -40997.215, 0.000074485135, 0.0016621578, 34278.56, 34278.56, 0.0, 2.50041, 2.4992537 
4.288294e+2, 7.121374e+1, 71772.82, -221556.52, -37513.355, 0.0004688713, 0.002262763, 76494.336, 76494.336, 0.0, 2.500399, 2.4994276 
4.2882916e+2, 7.3713166e+1, 66550.15, -221371.34, -36887.375, 0.00071056, 0.0016657818, 71200.89, 71200.89, 0.0, 2.5003872, 2.4994335 
4.2882895e+2, 7.621259e+1, 59516.465, -224771.86, -36677.168, 0.00092487596, 0.0010600839, 64172.09, 64172.09, 0.0, 2.500375, 2.4994335 
4.2882872e+2, 7.871202e+1, 52377.883, -228222.9, -36465.0, 0.0011187444, 0.00045352866, 57039.2, 57039.2, 0.0, 2.5003629, 2.4994335 
4.2882848e+2, 8.1211543e+1, 93443.96, -132023.14, -28855.408, 0.0012609473, 0.0009913737, 97078.31, 97078.31, 0.0, 2.5003512, 2.4996042 
4.288283e+2, 8.371116e+1, 88378.19, -130736.51, -27888.896, 0.0010454305, 0.0019876217, 91872.17, 91872.17, 0.0, 2.5003383, 2.4996126 
4.288281e+2, 8.621079e+1, 80857.6, -134355.55, -27624.383, 0.0008148852, 0.0029794527, 84346.85, 84346.85, 0.0, 2.5003254, 2.4996126 
4.288279e+2, 8.871041e+1, 73222.49, -138029.75, -27361.842, 0.00057161023, 0.0039722137, 76708.914, 76708.914, 0.0, 2.5003123, 2.4996126 
4.288278e+2, 9.1210115e+1, 117067.16, -38162.395, -14416.643, 0.0021328006, 0.005238191, 118394.72, 118394.72, 0.0, 2.5003028, 2.4997888 
4.2882767e+2, 9.370991e+1, 115336.69, -33615.676, -12059.838, 0.001149906, 0.0043476475, 116306.78, 116306.78, 0.0, 2.5002942, 2.4998007 
4.2882758e+2, 9.620969e+1, 110008.53, -36155.977, -10712.256, 0.00009749856, 0.0034323263, 110789.45, 110789.45, 0.0, 2.500285, 2.4998007 
4.2882746e+2, 9.870949e+1, 104452.234, -38806.13, -9374.786, -0.000988431, 0.0025113104, 105063.11, 105063.11, 0.0, 2.5002754, 2.4998007 
4.3133554e+2, 1.249101e+0, -111082.5, -859608.44, -6216.499, -0.0028048072, 0.000106728156, -111030.875, -111030.875, 0.0, 2.5006769, 2.498199 
4.313355e+2, 3.7473032e+0, -112330.05, -860391.5, -6534.8325, -0.0014345688, 0.00031842582, -112272.96, -112272.96, 0.0, 2.500675, 2.4981985 
4.3133548e+2, 6.245505e+0, -113469.67, -860948.44, -6787.238, -0.000056069646, 0.00052777893, -113408.05, -113408.05, 0.0, 2.500673, 2.4981985 
4.3133545e+2, 8.7437075e+0, -114610.484, -861505.94, -7039.6084, 0.0013306906, 0.0007347873, -114544.14, -114544.14, 0.0, 2.500671, 2.4981985 
4.313354e+2, 1.1241984e+1, -73130.6, -771545.56, -18577.969, 0.0014994808, 0.00064302754, -72636.77, -72636.77, 0.0, 2.5006669, 2.4983547 
4.3133527e+2, 1.3740334e+1, -76683.63, -773026.5, -18392.805, 0.0005687606, -0.000026414113, -76198.15, -76198.15, 0.0, 2.5006607, 2.4983554 
4.3133512e+2, 1.6238683e+1, -80392.05, -774828.3, -18032.352, -0.00036017652, -0.0006983925, -79924.12, -79924.12, 0.0, 2.5006542, 2.4983554 
4.31335e+2, 1.8737034e+1, -84101.5, -776630.6, -17671.77, -0.0012875197, -0.0013725705, -83650.84, -83650.84, 0.0, 2.5006478, 2.4983552 
4.3133485e+2, 2.1235478e+1, -39536.16, -676745.4, -27326.9, -0.001330152, -0.0012902428, -38366.387, -38366.387, 0.0, 2.50064, 2.4985304 
4.3133464e+2, 2.3734017e+1, -44893.508, -678868.94, -27932.139, -0.00032418122, -0.0007928378, -43665.234, -43665.234, 0.0, 2.5006304, 2.4985313 
4.313345e+2, 2.6232553e+1, -50558.938, -681629.1, -28177.346, 0.00068731216, -0.0003008257, -49303.313, -49303.313, 0.0, 2.5006206, 2.4985313 
4.3133432e+2, 2.873109e+1, -56225.883, -684390.06, -28422.738, 0.0017039039, 0.00018670023, -54942.453, -54942.453, 0.0, 2.5006108, 2.498531 
4.313341e+2, 3.122971e+1, -14165.161, -587783.06, -36000.12, 0.0020601754, 0.00041519065, -11914.632, -11914.632, 0.0, 2.500601, 2.4987018 
4.3133387e+2, 3.372841e+1, -20165.291, -590046.06, -36144.25, 0.0019804402, -0.00015865396, -17882.018, -17882.018, 0.0, 2.50059, 2.498703 
4.3133366e+2, 3.6227107e+1, -26585.867, -593175.25, -35831.83, 0.0019058639, -0.0007339812, -24328.809, -24328.809, 0.0, 2.500579, 2.498703 
4.313334e+2, 3.8725802e+1, -33009.055, -596305.75, -35519.71, 0.001835544, -0.0013087344, -30778.129, -30778.129, 0.0, 2.5005682, 2.498703 
4.3133312e+2, 4.1224602e+1, 10267.388, -493885.03, -39409.86, 0.0013737319, -0.0011969253, 13329.479, 13329.479, 0.0, 2.5005546, 2.4988852 
4.3133286e+2, 4.372349e+1, 1314.6682, -497182.94, -39514.348, 0.00073455554, -0.0009899022, 4427.41, 4427.41, 0.0, 2.500538, 2.4988875 
4.313326e+2, 4.6222383e+1, -8303.777, -501857.03, -39222.508, 0.00011032845, -0.00078610406, -5206.2188, -5206.2188, 0.0, 2.5005217, 2.4988873 
4.3133232e+2, 4.8721272e+1, -17925.063, -506532.5, -38931.105, -0.0005000572, -0.0005826296, -14842.569, -14842.569, 0.0, 2.5005052, 2.4988873 
4.3133202e+2, 5.122025e+1, 23819.496, -407432.0, -41434.445, -0.00055871817, -0.00011899033, 27764.412, 27764.412, 0.0, 2.5004919, 2.4990637 
4.3133175e+2, 5.371932e+1, 18211.316, -408781.78, -41039.57, -0.00023540953, -0.00021876131, 22119.97, 22119.97, 0.0, 2.5004807, 2.4990668 
4.3133146e+2, 5.6218386e+1, 11728.879, -411935.16, -40578.598, 0.00009150408, -0.00032271867, 15580.486, 15580.486, 0.0, 2.5004697, 2.4990666 
4.313312e+2, 5.871745e+1, 5242.006, -415090.7, -40118.164, 0.00042308628, -0.00042606832, 9036.778, 9036.778, 0.0, 2.5004585, 2.4990666 
4.313309e+2, 6.1216617e+1, 49145.47, -311163.84, -38105.29, 0.0006415241, 0.00021362967, 53131.285, 53131.285, 0.0, 2.500445, 2.4992516 
4.3133062e+2, 6.3715875e+1, 40454.31, -313333.44, -37641.71, 0.00053556636, 0.0007837915, 44414.91, 44414.91, 0.0, 2.5004277, 2.4992561 
4.3133035e+2, 6.621514e+1, 30482.152, -318152.03, -37336.453, 0.00043837485, 0.0013472905, 34435.81, 34435.81, 0.0, 2.5004106, 2.4992561 
4.3133005e+2, 6.8714404e+1, 20505.43, -322972.84, -37031.78, 0.0003513356, 0.0019094765, 24452.615, 24452.615, 0.0, 2.5003936, 2.499256 
4.3132982e+2, 7.1213746e+1, 60605.008, -226015.72, -33125.863, 0.0007398139, 0.0025201396, 64383.676, 64383.676, 0.0, 2.5003788, 2.4994295 
4.3132955e+2, 7.3713183e+1, 54699.39, -226089.38, -32304.55, 0.0006856102, 0.0020501977, 58368.074, 58368.074, 0.0, 2.5003657, 2.4994357 
4.3132928e+2, 7.621261e+1, 47045.41, -229779.38, -31855.652, 0.00064059003, 0.0015714837, 50663.906, 50663.906, 0.0, 2.5003526, 2.4994357 
4.3132904e+2, 7.8712034e+1, 39385.617, -233472.19, -31407.365, 0.00061181484, 0.0010919371, 42954.1, 42954.1, 0.0, 2.5003395, 2.4994357 
4.3132883e+2, 8.121156e+1, 79938.34, -136876.14, -23476.191, 0.0007617684, 0.0017180648, 82451.164, 82451.164, 0.0, 2.5003262, 2.499608 
4.3132862e+2, 8.371119e+1, 73831.64, -135962.17, -22039.623, 0.0007606808, 0.0027405603, 76121.984, 76121.984, 0.0, 2.5003114, 2.4996166 
4.3132842e+2, 8.621082e+1, 65295.19, -140071.97, -21247.152, 0.0007704628, 0.003757921, 67470.37, 67470.37, 0.0, 2.5002968, 2.4996166 
4.313282e+2, 8.871044e+1, 56749.44, -144186.25, -20454.87, 0.00079358276, 0.0047756694, 58810.566, 58810.566, 0.0, 2.500282, 2.4996166 
4.3132806e+2, 9.1210157e+1, 98503.805, -44909.332, -7340.115, 0.0023984576, 0.0060495012, 98878.51, 98878.51, 0.0, 2.5002687, 2.4997935 
4.3132797e+2, 9.370995e+1, 93803.664, -41582.65, -6411.121, 0.0012667791, 0.005060475, 94106.58, 94106.58, 0.0, 2.5002546, 2.499806 
4.3132785e+2, 9.6209747e+1, 85580.84, -45537.34, -6374.4043, 0.00011545846, 0.004048532, 85890.016, 85890.016, 0.0, 2.5002403, 2.4998062 
4.3132773e+2, 9.870954e+1, 77344.21, -49498.68, -6337.099, -0.0010196598, 0.003033471, 77660.03, 77660.03, 0.0, 2.5002263, 2.4998062 
4.3383622e+2, 1.24909975e+0, -111545.79, -860570.56, -6505.9746, -0.0028422691, 0.000054262928, -111489.28, -111489.28, 0.0, 2.5006769, 2.4981973 
4.338362e+2, 3.7472993e+0, -112795.43, -861356.94, -6831.6025, -0.0015050297, 0.00016200029, -112733.09, -112733.09, 0.0, 2.500675, 2.4981968 
4.3383616e+2, 6.2454987e+0, -113936.164, -861915.1, -7081.9556, -0.00016450927, 0.00026868662, -113869.12, -113869.12, 0.0, 2.500673, 2.4981968 
4.3383613e+2, 8.743698e+0, -115078.086, -862473.9, -7332.2734, 0.0011792924, 0.00037432177, -115006.16, -115006.16, 0.0, 2.500671, 2.4981968 
4.3383607e+2, 1.12419754e+1, -72439.31, -770120.2, -19524.904, 0.0013967884, 0.0003784952, -71893.33, -71893.33, 0.0, 2.5006669, 2.4983573 
4.338359e+2, 1.3740331e+1, -76002.73, -771618.06, -19358.52, 0.00061331014, 0.00003482713, -75464.414, -75464.414, 0.0, 2.5006607, 2.4983578 
4.3383577e+2, 1.6238688e+1, -79715.586, -773424.44, -18994.307, -0.00017132667, -0.00030819667, -79195.9, -79195.9, 0.0, 2.5006542, 2.4983578 
4.3383566e+2, 1.8737043e+1, -83429.48, -775231.3, -18629.963, -0.00095731614, -0.0006502741, -82928.14, -82928.14, 0.0, 2.5006478, 2.4983575 
4.3383548e+2, 2.1235487e+1, -39914.69, -677557.5, -28771.828, -0.00093849946, -0.0006289162, -38619.08, -38619.08, 0.0, 2.5006402, 2.498529 
4.338353e+2, 2.3734018e+1, -45334.06, -679808.75, -29406.291, 0.00004962073, -0.00053491816, -43974.066, -43974.066, 0.0, 2.5006304, 2.4985297 
4.3383512e+2, 2.6232553e+1, -51002.22, -682573.3, -29648.596, 0.0010393545, -0.0004455585, -49613.44, -49613.44, 0.0, 2.5006206, 2.4985297 
4.3383494e+2, 2.8731084e+1, -56671.895, -685338.6, -29891.086, 0.0020302588, -0.0003600741, -55253.867, -55253.867, 0.0, 2.500611, 2.4985297 
4.3383473e+2, 3.1229702e+1, -13565.752, -586575.7, -37608.71, 0.00216509, -0.00014527173, -11107.899, -11107.899, 0.0, 2.500601, 2.4987037 
4.3383446e+2, 3.3728406e+1, -19566.703, -588842.9, -37811.24, 0.0017035392, -0.0002973327, -17066.27, -17066.27, 0.0, 2.50059, 2.4987051 
4.338342e+2, 3.6227113e+1, -25986.875, -591973.56, -37496.37, 0.0012417344, -0.00045183516, -23513.564, -23513.564, 0.0, 2.500579, 2.4987051 
4.3383396e+2, 3.8725814e+1, -32409.656, -595105.44, -37181.81, 0.00077860424, -0.00060686097, -29963.39, -29963.39, 0.0, 2.5005682, 2.498705 
4.338337e+2, 4.1224614e+1, 10872.163, -492699.28, -41871.51, 0.0005173072, -0.00048125166, 14329.998, 14329.998, 0.0, 2.5005546, 2.498887 
4.338334e+2, 4.3723503e+1, 1892.272, -496058.28, -42009.098, 0.000607418, -0.0006674366, 5411.456, 5411.456, 0.0, 2.500538, 2.4988892 
4.3383312e+2, 4.622239e+1, -7723.84, -500731.94, -41714.72, 0.0007064191, -0.00085799454, -4219.161, -4219.161, 0.0, 2.5005217, 2.4988892 
4.3383282e+2, 4.8721278e+1, -17342.791, -505406.94, -41420.773, 0.00081357453, -0.001050055, -13852.474, -13852.474, 0.0, 2.5005052, 2.4988892 
4.3383256e+2, 5.122026e+1, 24742.479, -405626.1, -43051.453, 0.00070986105, -0.00054631627, 29006.83, 29006.83, 0.0, 2.5004919, 2.4990668 
4.3383226e+2, 5.3719336e+1, 19126.475, -406995.97, -42720.324, 0.00032519133, -0.00012709646, 23367.14, 23367.14, 0.0, 2.500481, 2.4990697 
4.3383193e+2, 5.621841e+1, 12645.177, -410150.5, -42255.637, -0.000063825915, 0.00028678987, 16826.988, 16826.988, 0.0, 2.5004697, 2.4990697 
4.3383163e+2, 5.8717483e+1, 6159.443, -413307.16, -41791.496, -0.0004568541, 0.0006999467, 10282.6045, 10282.6045, 0.0, 2.5004587, 2.4990697 
4.3383133e+2, 6.1216646e+1, 49838.58, -309894.84, -40644.977, -0.00036770766, 0.0013063805, 54373.73, 54373.73, 0.0, 2.5004451, 2.4992537 
4.3383104e+2, 6.371591e+1, 41122.984, -312119.06, -40231.234, -0.00009147211, 0.0012957082, 45647.035, 45647.035, 0.0, 2.500428, 2.499258 
4.3383074e+2, 6.6215163e+1, 31150.744, -316941.1, -39922.742, 0.00018505163, 0.0012769022, 35670.8, 35670.8, 0.0, 2.5004108, 2.499258 
4.3383044e+2, 6.871442e+1, 21173.938, -321765.3, -39614.832, 0.0004638938, 0.0012552177, 25690.584, 25690.584, 0.0, 2.5003936, 2.499258 
4.3383017e+2, 7.1213776e+1, 61595.18, -224212.5, -35078.95, 0.00091603847, 0.0018625854, 65837.664, 65837.664, 0.0, 2.500379, 2.4994326 
4.3382993e+2, 7.3713213e+1, 55705.65, -224256.64, -34288.29, 0.00060260267, 0.0020299018, 59843.926, 59843.926, 0.0, 2.500366, 2.4994388 
4.3382967e+2, 7.6212656e+1, 48052.09, -227948.66, -33835.65, 0.0002888351, 0.0021882444, 52139.555, 52139.555, 0.0, 2.5003529, 2.4994388 
4.3382937e+2, 7.87121e+1, 40392.715, -231643.45, -33383.62, -0.00001815367, 0.0023452882, 44429.566, 44429.566, 0.0, 2.5003397, 2.4994388 
4.3382913e+2, 8.1211627e+1, 81630.41, -133709.2, -25639.37, 0.00011671963, 0.0030152, 84641.06, 84641.06, 0.0, 2.5003264, 2.4996133 
4.3382892e+2, 8.371125e+1, 75582.15, -132678.06, -24252.494, 0.00037905824, 0.0034544135, 78369.125, 78369.125, 0.0, 2.5003119, 2.499622 
4.338287e+2, 8.6210877e+1, 67047.83, -136786.34, -23455.531, 0.00063930097, 0.0038884492, 69712.07, 69712.07, 0.0, 2.500297, 2.499622 
4.338285e+2, 8.8710505e+1, 58504.215, -140899.1, -22658.756, 0.00089986564, 0.0043229666, 61046.574, 61046.574, 0.0, 2.5002825, 2.499622 
4.3382832e+2, 9.121021e+1, 98948.734, -44486.55, -9362.96, 0.0025575345, 0.005475298, 99557.336, 99557.336, 0.0, 2.5002692, 2.499794 
4.338282e+2, 9.371002e+1, 94331.94, -40987.62, -8512.615, 0.0013404771, 0.0048507177, 94865.34, 94865.34, 0.0, 2.500255, 2.499807 
4.3382806e+2, 9.620982e+1, 86110.7, -44937.49, -8466.472, 0.00008322002, 0.004203615, 86655.42, 86655.42, 0.0, 2.500241, 2.499807 
4.3382794e+2, 9.870961e+1, 77875.66, -48894.008, -8419.74, -0.0011787629, 0.0035537335, 78432.43, 78432.43, 0.0, 2.5002267, 2.499807 
4.3633687e+2, 1.2490984e+0, -112009.016, -861532.56, -6795.351, -0.0028797206, 0.00000057682064, -111947.414, -111947.414, 0.0, 2.5006769, 2.4981956 
4.3633685e+2, 3.747295e+0, -113261.76, -862324.3, -7128.2905, -0.0015754589, 0.0000019121155, -113193.93, -113193.93, 0.0, 2.500675, 2.4981954 
4.3633682e+2, 6.245492e+0, -114403.6, -862883.75, -7376.5913, -0.00027289605, 0.0000034899044, -114330.91, -114330.91, 0.0, 2.5006728, 2.4981952 
4.363368e+2, 8.7436885e+0, -115546.625, -863443.75, -7624.8574, 0.0010279684, 0.0000053100534, -115468.9, -115468.9, 0.0, 2.500671, 2.4981952 
4.363367e+2, 1.1241968e+1, -71771.71, -768744.06, -20467.79, 0.0012923912, 0.00012237023, -71171.16, -71171.16, 0.0, 2.5006669, 2.4983597 
4.3633658e+2, 1.374033e+1, -75323.48, -770213.06, -20323.936, 0.00065809547, 0.00009483391, -74729.555, -74729.555, 0.0, 2.5006607, 2.4983602 
4.3633643e+2, 1.6238691e+1, -79040.77, -772024.0, -19955.96, 0.000019708596, 0.00007106811, -78466.58, -78466.58, 0.0, 2.5006542, 2.4983602 
4.363363e+2, 1.8737052e+1, -82759.1, -773835.44, -19587.855, -0.0006229777, 0.00005139477, -82204.35, -82204.35, 0.0, 2.5006478, 2.4983602 
4.3633616e+2, 2.1235496e+1, -40334.324, -678455.06, -30208.654, -0.00055290683, 0.000040720875, -38907.438, -38907.438, 0.0, 2.5006402, 2.4985273 
4.3633595e+2, 2.3734023e+1, -45775.773, -680751.0, -30879.889, 0.00042074357, -0.00027481365, -44277.57, -44277.57, 0.0, 2.5006304, 2.498528 
4.3633574e+2, 2.623255e+1, -51446.664, -683519.94, -31119.291, 0.0013921594, -0.00059441186, -49918.242, -49918.242, 0.0, 2.5006206, 2.498528 
4.3633553e+2, 2.8731075e+1, -57119.074, -686289.56, -31358.879, 0.002360818, -0.0009172743, -55559.957, -55559.957, 0.0, 2.500611, 2.498528 
4.3633533e+2, 3.1229696e+1, -12981.273, -585399.3, -39213.336, 0.002269009, -0.00070763455, -10307.465, -10307.465, 0.0, 2.500601, 2.4987059 
4.3633506e+2, 3.3728406e+1, -18968.838, -587641.2, -39477.656, 0.0014274631, -0.0004407333, -16241.352, -16241.352, 0.0, 2.50059, 2.4987073 
4.363348e+2, 3.6227116e+1, -25388.604, -590773.3, -39160.344, 0.0005802989, -0.0001773217, -22689.123, -22689.123, 0.0, 2.500579, 2.498707 
4.363345e+2, 3.8725826e+1, -31810.979, -593906.75, -38843.336, -0.00027377307, 0.0000844692, -29139.428, -29139.428, 0.0, 2.5005682, 2.498707 
4.3633422e+2, 4.1224626e+1, 11461.189, -491546.28, -44328.992, -0.0003400431, 0.00023466868, 15337.932, 15337.932, 0.0, 2.5005548, 2.4988892 
4.3633392e+2, 4.3723512e+1, 2469.1843, -494935.1, -44503.293, 0.0004792785, -0.00034848147, 6419.568, 6419.568, 0.0, 2.5005383, 2.498891 
4.3633366e+2, 4.6222398e+1, -7144.5933, -499608.28, -44206.375, 0.0013014958, -0.0009372702, -3207.845, -3207.845, 0.0, 2.500522, 2.498891 
4.3633336e+2, 4.8721284e+1, -16761.209, -504282.84, -43909.89, 0.0021261806, -0.00152874, -12837.925, -12837.925, 0.0, 2.5005054, 2.498891 
4.3633303e+2, 5.122027e+1, 25645.594, -403861.47, -44666.01, 0.0019865362, -0.00097053713, 30241.4, 30241.4, 0.0, 2.500492, 2.4990697 
4.3633273e+2, 5.3719354e+1, 20040.889, -405211.72, -44400.36, 0.00089561957, -0.00003619673, 24627.238, 24627.238, 0.0, 2.500481, 2.4990728 
4.363324e+2, 5.6218433e+1, 13560.7295, -408367.4, -43931.965, -0.00020771324, 0.00089146406, 18086.465, 18086.465, 0.0, 2.50047, 2.4990726 
4.3633205e+2, 5.871752e+1, 7076.1343, -411525.22, -43464.113, -0.0013237366, 0.0018170582, 11541.456, 11541.456, 0.0, 2.5004587, 2.4990726 
4.3633175e+2, 6.121669e+1, 50513.504, -308663.63, -43175.555, -0.0013797572, 0.0024003307, 55630.6, 55630.6, 0.0, 2.5004451, 2.4992557 
4.3633145e+2, 6.371594e+1, 41790.938, -310906.22, -42819.89, -0.0007182599, 0.0018048303, 46915.125, 46915.125, 0.0, 2.5004282, 2.49926 
4.3633115e+2, 6.6215193e+1, 31818.615, -315731.7, -42508.164, -0.00006474576, 0.0011995633, 36942.17, 36942.17, 0.0, 2.500411, 2.49926 
4.3633085e+2, 6.8714446e+1, 21841.727, -320559.34, -42197.02, 0.000583253, 0.00058985257, 26965.357, 26965.357, 0.0, 2.5003939, 2.49926 
4.3633056e+2, 7.12138e+1, 62563.37, -222454.97, -37019.59, 0.0010959154, 0.0012093392, 67293.164, 67293.164, 0.0, 2.5003793, 2.4994354 
4.363303e+2, 7.371325e+1, 56711.137, -222425.55, -36271.3, 0.0005246206, 0.0020101017, 61347.266, 61347.266, 0.0, 2.5003662, 2.4994416 
4.3633e+2, 7.62127e+1, 49057.996, -226119.56, -35814.918, -0.000056464793, 0.0028014362, 53642.984, 53642.984, 0.0, 2.500353, 2.4994416 
4.3632972e+2, 7.8712153e+1, 41399.04, -229816.36, -35359.152, -0.0006402376, 0.0035910055, 45933.117, 45933.117, 0.0, 2.50034, 2.4994416 
4.3632945e+2, 8.1211686e+1, 83305.016, -130578.555, -27787.299, -0.00052643195, 0.0043136617, 86856.125, 86856.125, 0.0, 2.5003269, 2.4996183 
4.3632922e+2, 8.3711314e+1, 77332.03, -129395.29, -26465.313, -0.0000029411924, 0.0041666552, 80666.35, 80666.35, 0.0, 2.5003123, 2.4996274 
4.36329e+2, 8.6210936e+1, 68799.84, -133502.05, -25663.857, 0.0005056016, 0.0040142527, 72004.77, 72004.77, 0.0, 2.5002975, 2.4996276 
4.363288e+2, 8.8710564e+1, 60258.363, -137613.28, -24862.588, 0.0010014502, 0.0038624262, 63334.527, 63334.527, 0.0, 2.5002828, 2.4996276 
4.3632862e+2, 9.1210276e+1, 99372.875, -44107.0, -11363.925, 0.0027315523, 0.0049131997, 100267.34, 100267.34, 0.0, 2.5002697, 2.4997945 
4.3632847e+2, 9.371008e+1, 94859.04, -40395.08, -10614.761, 0.0014255809, 0.004644607, 95687.016, 95687.016, 0.0, 2.5002556, 2.4998076 
4.3632832e+2, 9.6209884e+1, 86639.39, -44340.117, -10559.189, 0.000058540434, 0.004353507, 87485.18, 87485.18, 0.0, 2.5002415, 2.4998076 
4.3632814e+2, 9.8709685e+1, 78405.92, -48291.81, -10503.031, -0.001334154, 0.0040599676, 79270.7, 79270.7, 0.0, 2.5002272, 2.4998076 
4.388376e+2, 1.249097e+0, -116699.78, -864531.94, -7080.293, -0.0029101083, -0.000054850654, -116632.75, -116632.75, 0.0, 2.5006695, 2.498194 
4.3883753e+2, 3.747291e+0, -117924.97, -865315.9, -7410.4697, -0.0016400536, -0.00016353966, -117851.5, -117851.5, 0.0, 2.5006676, 2.4981937 
4.388375e+2, 6.2454855e+0, -119077.664, -865881.1, -7643.8945, -0.0003760539, -0.00027087837, -118999.43, -118999.43, 0.0, 2.5006657, 2.4981935 
4.3883747e+2, 8.743679e+0, -120272.96, -866466.94, -7874.421, 0.0008818902, -0.0003768666, -120189.875, -120189.875, 0.0, 2.5006638, 2.4981935 
4.3883738e+2, 1.12419605e+1, -75314.2, -769438.56, -21381.115, 0.0011912829, -0.0001303633, -74656.23, -74656.23, 0.0, 2.5006597, 2.4983618 
4.3883726e+2, 1.3740326e+1, -78622.86, -770732.44, -21323.027, 0.00070762314, 0.00014917117, -77966.55, -77966.55, 0.0, 2.5006537, 2.4983625 
4.388371e+2, 1.6238694e+1, -82163.414, -772460.9, -21010.26, 0.00021744985, 0.00043493786, -81524.52, -81524.52, 0.0, 2.5006478, 2.4983625 
4.3883693e+2, 1.873706e+1, -85733.31, -774203.44, -20696.822, -0.0002794704, 0.0007273363, -85111.69, -85111.69, 0.0, 2.5006416, 2.4983623 
4.3883678e+2, 2.1235506e+1, -44265.72, -681112.2, -31824.965, -0.00016812513, 0.00071294064, -42679.29, -42679.29, 0.0, 2.5006342, 2.4985256 
4.3883657e+2, 2.3734026e+1, -49511.582, -683284.25, -32554.75, 0.0007943339, -0.000018291828, -47843.746, -47843.746, 0.0, 2.5006247, 2.4985266 
4.3883637e+2, 2.6232547e+1, -55050.535, -685992.5, -32802.07, 0.0017513103, -0.00075320574, -53349.77, -53349.77, 0.0, 2.5006154, 2.4985263 
4.3883616e+2, 2.8731066e+1, -60634.113, -688722.25, -33046.15, 0.002702137, -0.0014907857, -58900.215, -58900.215, 0.0, 2.5006058, 2.4985263 
4.3883595e+2, 3.1229687e+1, -15304.267, -585651.4, -41067.633, 0.0023784025, -0.001278001, -12362.381, -12362.381, 0.0, 2.5005963, 2.4987078 
4.3883562e+2, 3.3728406e+1, -20993.82, -587708.56, -41468.81, 0.0011575011, -0.0005951156, -17975.457, -17975.457, 0.0, 2.5005856, 2.4987092 
4.3883535e+2, 3.622712e+1, -27188.57, -590734.3, -41225.24, -0.00007360103, 0.00008324523, -24188.775, -24188.775, 0.0, 2.500575, 2.4987092 
4.3883508e+2, 3.8725838e+1, -33431.844, -593783.4, -40986.44, -0.0013164646, 0.00075898896, -30449.795, -30449.795, 0.0, 2.5005643, 2.498709 
4.388348e+2, 4.122464e+1, 10077.453, -491373.4, -47340.402, -0.0011932212, 0.0009450737, 14507.573, 14507.573, 0.0, 2.5005515, 2.4988909 
4.3883446e+2, 4.3723524e+1, 1433.5895, -494594.66, -47628.746, 0.00035456245, -0.0000377925, 5965.507, 5965.507, 0.0, 2.5005355, 2.498893 
4.3883416e+2, 4.622241e+1, -7873.9966, -499121.2, -47406.574, 0.0018994408, -0.0010275585, -3340.9731, -3340.9731, 0.0, 2.5005198, 2.498893 
4.3883386e+2, 4.872129e+1, -17225.773, -503668.97, -47188.426, 0.0034412267, -0.0020210638, -12690.448, -12690.448, 0.0, 2.5005035, 2.4988928 
4.3883356e+2, 5.122028e+1, 25674.771, -402553.5, -47154.453, 0.003274242, -0.0013931311, 30805.717, 30805.717, 0.0, 2.5004907, 2.4990726 
4.388332e+2, 5.371937e+1, 20201.635, -403795.78, -47046.984, 0.0014787463, 0.0000531126, 25359.256, 25359.256, 0.0, 2.50048, 2.4990757 
4.3883285e+2, 5.621846e+1, 13750.428, -406939.25, -46666.313, -0.00033620888, 0.0014911968, 18864.855, 18864.855, 0.0, 2.5004687, 2.4990757 
4.3883252e+2, 5.8717555e+1, 7221.364, -410120.22, -46286.617, -0.002171407, 0.0029259417, 12293.292, 12293.292, 0.0, 2.5004575, 2.4990757 
4.3883222e+2, 6.121672e+1, 50512.066, -307788.7, -46922.348, -0.0023881109, 0.003497102, 56555.004, 56555.004, 0.0, 2.5004442, 2.4992576 
4.3883187e+2, 6.371597e+1, 42086.88, -309875.16, -46694.86, -0.0013402178, 0.0023141638, 48176.53, 48176.53, 0.0, 2.5004277, 2.499262 
4.3883157e+2, 6.6215223e+1, 32329.133, -314600.56, -46443.29, -0.0003077063, 0.0011200253, 38438.87, 38438.87, 0.0, 2.500411, 2.499262 
4.3883124e+2, 6.8714476e+1, 22494.479, -319363.03, -46193.797, 0.00071211526, -0.00007976628, 28626.465, 28626.465, 0.0, 2.500394, 2.4992619 
4.3883094e+2, 7.121383e+1, 63604.406, -220693.08, -40399.09, 0.001281688, 0.0005683342, 69233.71, 69233.71, 0.0, 2.5003798, 2.4994383 
4.3883064e+2, 7.3713285e+1, 57879.773, -220512.58, -39710.773, 0.00045358937, 0.0019987551, 63433.453, 63433.453, 0.0, 2.5003667, 2.4994447 
4.3883035e+2, 7.6212746e+1, 50205.31, -224218.86, -39255.15, -0.0003929932, 0.003419327, 55710.156, 55710.156, 0.0, 2.5003536, 2.4994447 
4.3883005e+2, 7.87122e+1, 42434.07, -227971.73, -38798.703, -0.0012510294, 0.0048379498, 47890.914, 47890.914, 0.0, 2.5003402, 2.4994447 
4.3882978e+2, 8.1211746e+1, 84958.266, -127476.4, -31361.93, -0.0011645907, 0.005623365, 89491.52, 89491.52, 0.0, 2.500327, 2.4996235 
4.3882954e+2, 8.371136e+1, 79143.28, -126074.39, -30077.174, -0.0003835655, 0.004888571, 83460.63, 83460.63, 0.0, 2.5003128, 2.4996328 
4.388293e+2, 8.621099e+1, 70587.85, -130191.91, -29230.047, 0.00037121045, 0.004147998, 74756.68, 74756.68, 0.0, 2.500298, 2.4996328 
4.3882906e+2, 8.871062e+1, 61931.664, -134357.94, -28384.707, 0.0011017029, 0.0034081035, 65953.85, 65953.85, 0.0, 2.500283, 2.4996328 
4.388289e+2, 9.1210335e+1, 99590.305, -43838.777, -14548.219, 0.002923972, 0.0043782042, 101051.08, 101051.08, 0.0, 2.50027, 2.4997947 
4.3882874e+2, 9.371014e+1, 95049.44, -39945.164, -13734.25, 0.0015245947, 0.004457472, 96432.58, 96432.58, 0.0, 2.5002556, 2.4998083 
4.3882856e+2, 9.6209955e+1, 86481.055, -44054.08, -13478.584, 0.000044827684, 0.004513425, 87858.27, 87858.27, 0.0, 2.5002408, 2.4998083 
4.388284e+2, 9.870976e+1, 77697.84, -48266.438, -13220.057, -0.0014796794, 0.0045668357, 79070.34, 79070.34, 0.0, 2.5002258, 2.4998085 
4.4133827e+2, 1.2490972e+0, -96211.07, -854434.56, -7247.3823, -0.0018409936, -0.000054210777, -96141.805, -96141.805, 0.0, 2.5007045, 2.4981945 
4.4133824e+2, 3.747292e+0, -98931.59, -855937.3, -6976.192, -0.0011520467, -0.00016570969, -98867.31, -98867.31, 0.0, 2.5007, 2.4981942 
4.4133818e+2, 6.245486e+0, -101538.305, -857201.25, -6604.1016, -0.0004555914, -0.00028131146, -101480.59, -101480.59, 0.0, 2.5006955, 2.4981942 
4.4133812e+2, 8.743681e+0, -104146.414, -858465.94, -6231.8936, 0.00024837293, -0.0004010163, -104094.93, -104094.93, 0.0, 2.5006912, 2.4981942 
4.4133803e+2, 1.1241963e+1, -59785.71, -761620.06, -19940.322, 0.00050298905, -0.0001859985, -59219.63, -59219.63, 0.0, 2.5006862, 2.4983625 
4.4133788e+2, 1.374033e+1, -62982.137, -762890.0, -20281.72, 0.00046261257, 0.000054672506, -62394.91, -62394.91, 0.0, 2.5006802, 2.4983633 
4.4133776e+2, 1.6238697e+1, -66370.59, -764556.6, -20348.318, 0.00042746248, 0.0002857623, -65778.055, -65778.055, 0.0, 2.5006745, 2.498363 
4.4133762e+2, 1.8737063e+1, -69760.266, -766223.9, -20414.725, 0.00039731094, 0.0005076426, -69162.38, -69162.38, 0.0, 2.5006688, 2.498363 
4.4133744e+2, 2.1235508e+1, -28826.994, -673143.7, -31971.26, 0.00055956974, 0.0005154658, -27244.455, -27244.455, 0.0, 2.5006602, 2.4985268 
4.4133723e+2, 2.3734032e+1, -35627.33, -676068.5, -31893.863, 0.0011806482, -0.000087193985, -34042.94, -34042.94, 0.0, 2.500648, 2.4985275 
4.4133702e+2, 2.6232556e+1, -42674.668, -679502.0, -31293.898, 0.0018088482, -0.0006922358, -41140.57, -41140.57, 0.0, 2.5006359, 2.4985275 
4.4133675e+2, 2.8731078e+1, -49723.84, -682936.4, -30693.875, 0.00244343, -0.0012986438, -48239.49, -48239.49, 0.0, 2.500624, 2.4985275 
4.413365e+2, 3.12297e+1, -6202.272, -580171.4, -38389.55, 0.002081389, -0.0010798605, -3645.9966, -3645.9966, 0.0, 2.5006106, 2.4987102 
4.413362e+2, 3.3728418e+1, -14544.068, -583553.6, -38599.65, 0.0010804468, -0.00047965202, -11937.542, -11937.542, 0.0, 2.5005956, 2.4987116 
4.4133595e+2, 3.6227134e+1, -23321.03, -587835.06, -38119.176, 0.0000877532, 0.00011976691, -20758.637, -20758.637, 0.0, 2.5005805, 2.4987113 
4.4133562e+2, 3.8725853e+1, -32099.781, -592117.3, -37638.95, -0.00089813204, 0.0007201588, -29581.38, -29581.38, 0.0, 2.5005655, 2.4987113 
4.4133532e+2, 4.1224658e+1, 11121.94, -489950.13, -43898.188, -0.0007700946, 0.0009432597, 14938.723, 14938.723, 0.0, 2.5005522, 2.498893 
4.4133502e+2, 4.3723544e+1, 4358.8384, -492312.84, -44065.086, 0.00055428676, 0.00010903456, 8238.028, 8238.028, 0.0, 2.5005398, 2.498895 
4.413347e+2, 4.622243e+1, -3002.18, -495908.88, -43661.86, 0.0018762134, -0.00072837994, 835.524, 835.524, 0.0, 2.5005271, 2.498895 
4.4133437e+2, 4.8721322e+1, -10365.75, -499506.13, -43258.66, 0.0031952823, -0.0015658174, -6569.4976, -6569.4976, 0.0, 2.5005145, 2.4988947 
4.4133404e+2, 5.122031e+1, 31191.191, -398231.47, -43103.902, 0.003000863, -0.00092092645, 35475.07, 35475.07, 0.0, 2.5004983, 2.4990764 
4.4133368e+2, 5.37194e+1, 20060.36, -402224.8, -42703.383, 0.0013739325, 0.0004315921, 24335.438, 24335.438, 0.0, 2.5004778, 2.4990795 
4.4133335e+2, 5.62185e+1, 8037.5723, -408060.2, -41964.582, -0.00024240422, 0.00177625, 12227.621, 12227.621, 0.0, 2.5004573, 2.4990792 
4.4133297e+2, 5.871759e+1, -3988.7876, -413897.25, -41226.02, -0.0018487662, 0.0031176785, 116.354836, 116.354836, 0.0, 2.5004365, 2.4990792 
4.4133264e+2, 6.121676e+1, 37460.03, -312702.7, -41187.61, -0.0020679676, 0.0036797207, 42239.457, 42239.457, 0.0, 2.5004203, 2.4992607 
4.413323e+2, 6.371602e+1, 31394.266, -313667.22, -40609.39, -0.0012639646, 0.0025798243, 36109.06, 36109.06, 0.0, 2.500408, 2.499265 
4.4133198e+2, 6.621527e+1, 24077.564, -317218.44, -39954.74, -0.00046009631, 0.0014773923, 28692.57, 28692.57, 0.0, 2.5003953, 2.499265 
4.4133162e+2, 6.8714523e+1, 16756.277, -320771.8, -39300.32, 0.00034629225, 0.0003779662, 21271.828, 21271.828, 0.0, 2.5003827, 2.499265 
4.413313e+2, 7.1213883e+1, 57906.82, -221594.31, -33206.805, 0.000844358, 0.0010514738, 61797.867, 61797.867, 0.0, 2.500368, 2.4994423 
4.41331e+2, 7.371335e+1, 49235.773, -222801.08, -32306.69, 0.00010173774, 0.0024298166, 53019.832, 53019.832, 0.0, 2.50035, 2.499449 
4.413307e+2, 7.6212806e+1, 38690.92, -227883.56, -31579.52, -0.000645013, 0.0038045836, 42380.883, 42380.883, 0.0, 2.5003319, 2.499449 
4.4133037e+2, 7.871227e+1, 28140.309, -232968.81, -30853.45, -0.0013889755, 0.0051836553, 31736.516, 31736.516, 0.0, 2.5003138, 2.499449 
4.4133008e+2, 8.121182e+1, 68743.59, -133397.55, -23328.34, -0.0012831452, 0.005961802, 71400.89, 71400.89, 0.0, 2.5002973, 2.4996278 
4.4132984e+2, 8.371144e+1, 62320.727, -132234.27, -22648.133, -0.0006160688, 0.0052312287, 64922.402, 64922.402, 0.0, 2.5002818, 2.4996374 
4.413296e+2, 8.6211073e+1, 53221.54, -136611.53, -22342.387, 0.000062697305, 0.00449625, 55815.676, 55815.676, 0.0, 2.500266, 2.4996374 
4.4132936e+2, 8.87107e+1, 44115.242, -140992.22, -22036.79, 0.00075554085, 0.003763468, 46702.53, 46702.53, 0.0, 2.5002503, 2.4996374 
4.4132912e+2, 9.1210425e+1, 80642.336, -50395.746, -7960.419, 0.0026210223, 0.0047365883, 81124.16, 81124.16, 0.0, 2.5002346, 2.4998004 
4.4132897e+2, 9.371024e+1, 74172.31, -47350.316, -6363.124, 0.0015104314, 0.0048523867, 74504.586, 74504.586, 0.0, 2.5002167, 2.4998143 
4.413288e+2, 9.621005e+1, 63830.695, -52310.16, -5220.9194, 0.00035626738, 0.004936304, 64064.918, 64064.918, 0.0, 2.500199, 2.4998143 
4.4132861e+2, 9.8709863e+1, 53474.434, -57277.047, -4077.4253, -0.0008071295, 0.0050087636, 53624.344, 53624.344, 0.0, 2.5001812, 2.4998143 
4.4383898e+2, 1.2490992e+0, -95508.03, -852972.5, -7922.234, -0.000084058534, 0.000022243346, -95425.18, -95425.18, 0.0, 2.5007045, 2.498197 
4.4383892e+2, 3.7472978e+0, -98229.26, -854474.1, -7652.5005, -0.0004170807, 0.000065138855, -98151.83, -98151.83, 0.0, 2.5007, 2.4981966 
4.4383886e+2, 6.245496e+0, -100838.58, -855741.0, -7277.4717, -0.0007486311, 0.00010591303, -100768.43, -100768.43, 0.0, 2.5006955, 2.4981966 
4.438388e+2, 8.743695e+0, -103449.305, -857008.5, -6902.324, -0.0010787091, 0.00014456568, -103386.086, -103386.086, 0.0, 2.5006912, 2.4981966 
4.4383872e+2, 1.12419754e+1, -59838.984, -761748.25, -20811.105, -0.0009699433, 0.00020538263, -59222.492, -59222.492, 0.0, 2.5006862, 2.4983623 
4.4383857e+2, 1.3740338e+1, -63083.855, -763111.8, -21164.094, -0.00026559064, 0.000039658804, -62444.582, -62444.582, 0.0, 2.5006802, 2.4983628 
4.4383845e+2, 1.6238701e+1, -66478.7, -764784.56, -21226.28, 0.0004399107, -0.00013165826, -65834.086, -65834.086, 0.0, 2.5006745, 2.4983628 
4.438383e+2, 1.8737063e+1, -69874.766, -766457.94, -21288.275, 0.0011463402, -0.00030827223, -69224.78, -69224.78, 0.0, 2.5006688, 2.4983625 
4.438381e+2, 2.1235512e+1, -27662.82, -670745.9, -33764.004, 0.0013579493, -0.00022239758, -25894.959, -25894.959, 0.0, 2.5006602, 2.4985309 
4.4383785e+2, 2.3734045e+1, -34490.934, -673724.75, -33723.977, 0.0013354715, -0.00018826479, -32716.688, -32716.688, 0.0, 2.500648, 2.4985316 
4.438376e+2, 2.623258e+1, -41543.2, -677164.7, -33120.3, 0.0013149902, -0.00015447041, -39822.063, -39822.063, 0.0, 2.500636, 2.4985316 
4.438374e+2, 2.873111e+1, -48597.305, -680605.56, -32516.563, 0.0012957532, -0.000120189914, -46928.746, -46928.746, 0.0, 2.500624, 2.4985313 
4.4383714e+2, 3.1229737e+1, -5232.5576, -578196.0, -40643.098, 0.0010671124, 0.0001285111, -2363.9065, -2363.9065, 0.0, 2.5006106, 2.4987135 
4.438368e+2, 3.3728454e+1, -13629.448, -581694.75, -40874.848, 0.00091332494, 0.00019382035, -10703.392, -10703.392, 0.0, 2.5005956, 2.4987147 
4.438365e+2, 3.622717e+1, -22405.906, -585976.9, -40392.49, 0.00076345925, 0.00025854562, -19525.6, -19525.6, 0.0, 2.5005805, 2.4987147 
4.438362e+2, 3.8725883e+1, -31184.156, -590259.94, -39910.37, 0.000616399, 0.00032422142, -28349.475, -28349.475, 0.0, 2.5005655, 2.4987144 
4.438359e+2, 4.1224694e+1, 11949.182, -488299.38, -45745.18, 0.0005937612, 0.0005656732, 16097.9375, 16097.9375, 0.0, 2.5005524, 2.498896 
4.4383556e+2, 4.3723586e+1, 5145.447, -490746.6, -45974.66, 0.0008408105, 0.00034666838, 9371.785, 9371.785, 0.0, 2.5005398, 2.4988978 
4.438352e+2, 4.6222484e+1, -2216.453, -494344.3, -45568.273, 0.0010806844, 0.00012645245, 1967.3444, 1967.3444, 0.0, 2.5005271, 2.4988976 
4.4383487e+2, 4.8721382e+1, -9580.904, -497943.28, -45161.914, 0.0013125669, -0.00009194785, -5439.618, -5439.618, 0.0, 2.5005145, 2.4988976 
4.4383454e+2, 5.1220375e+1, 32665.47, -395272.53, -46160.234, 0.0010990733, 0.0004836276, 37587.996, 37587.996, 0.0, 2.5004985, 2.4990814 
4.4383416e+2, 5.3719467e+1, 21492.227, -399354.25, -45820.902, 0.00046438308, 0.0011431777, 26423.334, 26423.334, 0.0, 2.500478, 2.4990842 
4.438338e+2, 5.621855e+1, 9466.632, -405195.22, -45078.605, -0.00016724241, 0.0017965673, 14310.618, 14310.618, 0.0, 2.5004573, 2.4990842 
4.4383344e+2, 5.871765e+1, -2562.5364, -411037.94, -44336.547, -0.0007959685, 0.0024479863, 2194.4224, 2194.4224, 0.0, 2.5004368, 2.499084 
4.4383308e+2, 6.1216825e+1, 38805.168, -310082.75, -43048.26, -0.0008837267, 0.0029626142, 44038.273, 44038.273, 0.0, 2.5004206, 2.4992652 
4.438327e+2, 6.371609e+1, 32719.889, -311090.3, -42505.227, -0.00079416414, 0.0025004735, 37896.855, 37896.855, 0.0, 2.500408, 2.4992695 
4.4383237e+2, 6.6215354e+1, 25404.33, -314640.63, -41846.98, -0.0007134559, 0.0020343417, 30478.434, 30478.434, 0.0, 2.5003955, 2.4992692 
4.43832e+2, 6.8714625e+1, 18084.186, -318193.16, -41188.965, -0.00063914066, 0.0015695848, 23055.72, 23055.72, 0.0, 2.500383, 2.4992692 
4.4383165e+2, 7.1213984e+1, 59441.703, -218626.72, -35885.23, -0.00030882948, 0.0022139824, 63998.098, 63998.098, 0.0, 2.5003684, 2.4994473 
4.4383132e+2, 7.371344e+1, 50757.74, -219870.88, -35043.016, -0.00062816404, 0.002907302, 55221.734, 55221.734, 0.0, 2.5003502, 2.4994538 
4.4383103e+2, 7.6212907e+1, 40217.617, -224953.44, -34311.477, -0.00096172094, 0.0035935666, 44585.363, 44585.363, 0.0, 2.500332, 2.4994538 
4.438307e+2, 7.871236e+1, 29671.736, -230038.78, -33581.035, -0.0013027271, 0.0042804517, 33943.563, 33943.563, 0.0, 2.500314, 2.4994538 
4.4383037e+2, 8.1211907e+1, 69585.33, -131970.47, -25649.479, -0.0011130135, 0.004934641, 72798.2, 72798.2, 0.0, 2.5002975, 2.49963 
4.438301e+2, 8.3711547e+1, 63148.09, -130839.445, -25005.924, -0.00081773574, 0.0046900697, 66319.625, 66319.625, 0.0, 2.500282, 2.4996395 
4.4382983e+2, 8.621118e+1, 54050.36, -135215.06, -24696.805, -0.00052206207, 0.0044410876, 57219.906, 57219.906, 0.0, 2.5002663, 2.4996395 
4.438296e+2, 8.8710815e+1, 44945.516, -139594.1, -24387.834, -0.00022259819, 0.0041941637, 48114.086, 48114.086, 0.0, 2.5002508, 2.4996395 
4.438294e+2, 9.121054e+1, 83246.98, -45494.383, -10539.977, 0.0016351452, 0.005206811, 84104.17, 84104.17, 0.0, 2.500235, 2.4998085 
4.4382918e+2, 9.371036e+1, 76767.08, -42465.23, -9023.224, 0.0012450896, 0.0050510527, 77446.07, 77446.07, 0.0, 2.5002174, 2.4998224 
4.4382897e+2, 9.621018e+1, 66423.13, -47422.688, -7869.975, 0.000792383, 0.004867177, 66964.59, 66964.59, 0.0, 2.5001996, 2.4998224 
4.438288e+2, 9.871e+1, 56064.535, -52387.19, -6715.4365, 0.00030868535, 0.004674497, 56478.78, 56478.78, 0.0, 2.5001817, 2.4998226 
4.4633973e+2, 1.2491013e+0, -94804.7, -851509.9, -8597.701, 0.0016733451, 0.0000966041, -94707.02, -94707.02, 0.0, 2.5007045, 2.4981995 
4.4633964e+2, 3.747304e+0, -97528.49, -853014.25, -8328.683, 0.00031929105, 0.0002897073, -97436.68, -97436.68, 0.0, 2.5007, 2.4981992 
4.4633958e+2, 6.2455064e+0, -100140.43, -854284.0, -7950.715, -0.001039328, 0.00048267073, -100056.62, -100056.62, 0.0, 2.5006955, 2.4981992 
4.4633952e+2, 8.743709e+0, -102753.77, -855554.4, -7572.6284, -0.0024025114, 0.00067549414, -102677.6, -102677.6, 0.0, 2.5006912, 2.498199 
4.463394e+2, 1.124199e+1, -59929.49, -761953.9, -21674.174, -0.0024484482, 0.0006112407, -59260.96, -59260.96, 0.0, 2.5006862, 2.498362 
4.4633925e+2, 1.3740347e+1, -63187.53, -763337.7, -22046.105, -0.0009963361, 0.000028299, -62494.035, -62494.035, 0.0, 2.5006802, 2.4983623 
4.463391e+2, 1.6238707e+1, -66588.766, -765016.6, -22103.879, 0.00045287595, -0.0005563389, -65889.914, -65889.914, 0.0, 2.5006745, 2.4983623 
4.4633895e+2, 1.8737064e+1, -69991.21, -766696.06, -22161.463, 0.0018989458, -0.001142361, -69286.99, -69286.99, 0.0, 2.5006688, 2.4983623 
4.4633877e+2, 2.1235515e+1, -26535.285, -668424.25, -35548.848, 0.0021543687, -0.000955698, -24572.535, -24572.535, 0.0, 2.5006602, 2.498535 
4.463385e+2, 2.3734058e+1, -33356.117, -671384.4, -35553.477, 0.0014928007, -0.00029256346, -31381.05, -31381.05, 0.0, 2.500648, 2.4985356 
4.4633827e+2, 2.62326e+1, -40413.313, -674830.75, -34946.086, 0.0008281448, 0.00037212484, -38494.156, -38494.156, 0.0, 2.500636, 2.4985356 
4.46338e+2, 2.8731146e+1, -47472.344, -678278.0, -34338.637, 0.00015959579, 0.0010391518, -45608.59, -45608.59, 0.0, 2.500624, 2.4985354 
4.4633773e+2, 3.1229773e+1, -4287.9336, -576272.75, -42887.945, 0.000043681408, 0.0013349409, -1090.0354, -1090.0354, 0.0, 2.5006106, 2.4987168 
4.463374e+2, 3.372849e+1, -12715.677, -579837.7, -43149.508, 0.0007375434, 0.0008622811, -9451.433, -9451.433, 0.0, 2.5005958, 2.4987178 
4.463371e+2, 3.6227202e+1, -21491.633, -584120.56, -42665.258, 0.0014311817, 0.00038907857, -18274.637, -18274.637, 0.0, 2.5005808, 2.4987178 
4.463368e+2, 3.872592e+1, -30269.38, -588404.3, -42181.254, 0.0021236225, -0.00008319584, -27099.52, -27099.52, 0.0, 2.5005658, 2.4987175 
4.4633645e+2, 4.1224727e+1, 12752.783, -486697.75, -47590.934, 0.001971493, 0.00019015241, 17247.117, 17247.117, 0.0, 2.5005524, 2.4988985 
4.463361e+2, 4.3723634e+1, 5931.0015, -489182.6, -47883.84, 0.0011414301, 0.00058059, 10519.46, 10519.46, 0.0, 2.5005398, 2.4989004 
4.4633573e+2, 4.6222538e+1, -1431.7794, -492782.0, -47474.29, 0.000299268, 0.00097163965, 3113.1492, 3113.1492, 0.0, 2.5005271, 2.4989002 
4.4633535e+2, 4.8721445e+1, -8797.111, -496382.63, -47064.766, -0.0005560188, 0.0013663438, -4295.687, -4295.687, 0.0, 2.5005147, 2.4989002 
4.46335e+2, 5.122044e+1, 34113.793, -392367.6, -49207.36, -0.0008061332, 0.0018932289, 39717.695, 39717.695, 0.0, 2.5004985, 2.4990864 
4.4633463e+2, 5.3719527e+1, 22923.021, -396485.94, -48937.613, -0.0004455496, 0.0018547063, 28557.48, 28557.48, 0.0, 2.500478, 2.4990892 
4.4633427e+2, 5.621862e+1, 10894.618, -402332.6, -48191.816, -0.00008921027, 0.0018114499, 16440.465, 16440.465, 0.0, 2.5004575, 2.499089 
4.4633386e+2, 5.8717704e+1, -1137.3578, -408180.94, -47446.258, 0.00026295305, 0.0017674816, 4319.957, 4319.957, 0.0, 2.5004368, 2.499089 
4.463335e+2, 6.121689e+1, 40129.754, -307505.53, -44896.484, 0.0003060021, 0.0022464104, 45834.44, 45834.44, 0.0, 2.5004208, 2.4992695 
4.4633314e+2, 6.371616e+1, 34044.58, -308515.34, -44400.723, -0.00031710413, 0.0024182957, 39705.992, 39705.992, 0.0, 2.5004082, 2.4992738 
4.4633275e+2, 6.621544e+1, 26730.164, -312064.8, -43738.88, -0.00095777144, 0.0025845405, 32285.809, 32285.809, 0.0, 2.5003958, 2.4992738 
4.4633237e+2, 6.8714714e+1, 19411.162, -315616.47, -43077.266, -0.0016137451, 0.0027505287, 24861.3, 24861.3, 0.0, 2.5003831, 2.4992735 
4.4633204e+2, 7.121408e+1, 60951.8, -215710.66, -38558.703, -0.0014520419, 0.0033823242, 66225.25, 66225.25, 0.0, 2.5003686, 2.499452 
4.463317e+2, 7.371354e+1, 52278.434, -216943.34, -37778.188, -0.001347553, 0.0033856458, 57479.145, 57479.145, 0.0, 2.5003505, 2.4994588 
4.4633132e+2, 7.6212996e+1, 41743.047, -222026.0, -37042.28, -0.0012673734, 0.0033781575, 46846.33, 46846.33, 0.0, 2.5003324, 2.4994588 
4.46331e+2, 7.871246e+1, 31201.902, -227111.42, -36307.473, -0.0012048808, 0.0033676054, 36208.11, 36208.11, 0.0, 2.5003142, 2.4994588 
4.463307e+2, 8.121201e+1, 70407.17, -130584.75, -27961.785, -0.0009352895, 0.0039070854, 74224.68, 74224.68, 0.0, 2.500298, 2.4996324 
4.4633037e+2, 8.371165e+1, 63974.715, -129446.2, -27363.705, -0.0010128991, 0.004145552, 67771.4, 67771.4, 0.0, 2.5002823, 2.4996417 
4.463301e+2, 8.621129e+1, 54878.434, -133820.16, -27051.213, -0.0011013371, 0.004379415, 58679.83, 58679.83, 0.0, 2.5002668, 2.4996417 
4.4632983e+2, 8.871093e+1, 45775.047, -138197.53, -26738.87, -0.0011962723, 0.0046151984, 49582.516, 49582.516, 0.0, 2.500251, 2.4996417 
4.463296e+2, 9.1210663e+1, 85821.164, -40656.324, -13092.209, 0.0006766885, 0.0056957826, 87162.17, 87162.17, 0.0, 2.5002356, 2.4998167 
4.463294e+2, 9.371049e+1, 79360.28, -37583.445, -11684.843, 0.0010047696, 0.005257567, 80516.38, 80516.38, 0.0, 2.500218, 2.4998305 
4.463292e+2, 9.621031e+1, 69014.0, -42538.51, -10520.55, 0.0012507582, 0.0047944747, 69997.53, 69997.53, 0.0, 2.5002, 2.4998305 
4.46329e+2, 9.871014e+1, 58653.08, -47500.63, -9354.967, 0.0014439975, 0.004325232, 59471.195, 59471.195, 0.0, 2.5001824, 2.4998307 
4.488404e+2, 1.2491033e+0, -99509.28, -852656.94, -9288.813, 0.0034397277, 0.00016865552, -99394.74, -99394.74, 0.0, 2.5006952, 2.498202 
4.4884035e+2, 3.74731e+0, -101978.766, -854043.3, -9055.528, 0.0010658252, 0.00050722517, -101869.74, -101869.74, 0.0, 2.5006912, 2.4982016 
4.4884026e+2, 6.2455165e+0, -104387.77, -855216.9, -8709.92, -0.001317808, 0.00084747357, -104286.75, -104286.75, 0.0, 2.5006871, 2.4982016 
4.4884017e+2, 8.743723e+0, -106851.36, -856416.8, -8364.41, -0.0037111733, 0.0011894009, -106758.03, -106758.03, 0.0, 2.5006828, 2.4982016 
4.4884005e+2, 1.1242004e+1, -64732.223, -764491.44, -22677.104, -0.0039202645, 0.0010282235, -63998.098, -63998.098, 0.0, 2.500678, 2.4983616 
4.4883993e+2, 1.3740358e+1, -67874.13, -765776.5, -23089.246, -0.0017188468, 0.000016278818, -67111.09, -67111.09, 0.0, 2.5006726, 2.498362 
4.4883978e+2, 1.623871e+1, -71221.914, -767432.1, -23148.854, 0.00047622513, -0.0009937618, -70453.07, -70453.07, 0.0, 2.5006669, 2.4983618 
4.4883963e+2, 1.8737064e+1, -74605.16, -769104.9, -23200.592, 0.0026646554, -0.0020014786, -73830.98, -73830.98, 0.0, 2.500661, 2.4983618 
4.4883946e+2, 2.1235518e+1, -29747.674, -668257.44, -37522.324, 0.0029578172, -0.0016919955, -27550.22, -27550.22, 0.0, 2.5006528, 2.4985387 
4.4883916e+2, 2.3734072e+1, -36154.25, -670946.94, -37655.66, 0.0016608009, -0.0004075077, -33928.336, -33928.336, 0.0, 2.5006413, 2.4985397 
4.488389e+2, 2.6232627e+1, -42881.176, -674238.3, -37121.5, 0.0003562313, 0.0008800741, -40706.06, -40706.06, 0.0, 2.50063, 2.4985394 
4.4883862e+2, 2.873118e+1, -49646.777, -677548.3, -36587.43, -0.0009567952, 0.002171648, -47522.04, -47522.04, 0.0, 2.5006182, 2.4985394 
4.4883832e+2, 3.1229812e+1, -6373.0146, -575853.4, -45622.07, -0.0009807872, 0.0025317133, -2741.311, -2741.311, 0.0, 2.5006056, 2.49872 
4.4883803e+2, 3.3728522e+1, -14518.282, -579294.9, -45988.77, 0.00056034734, 0.0015185003, -10798.004, -10798.004, 0.0, 2.500591, 2.4987211 
4.488377e+2, 3.6227238e+1, -23038.0, -583455.25, -45571.95, 0.002097533, 0.00050460326, -19356.373, -19356.373, 0.0, 2.5005765, 2.498721 
4.4883737e+2, 3.8725948e+1, -31592.895, -587632.6, -45157.51, 0.003629756, -0.000508406, -27949.402, -27949.402, 0.0, 2.500562, 2.498721 
4.4883704e+2, 4.1224763e+1, 11522.561, -486113.94, -50191.047, 0.003368729, -0.0001890868, 16534.299, 16534.299, 0.0, 2.500549, 2.4989011 
4.4883662e+2, 4.3723676e+1, 4931.722, -488480.8, -50579.76, 0.0014614384, 0.00080561143, 10063.288, 10063.288, 0.0, 2.500537, 2.498903 
4.4883624e+2, 4.6222588e+1, -2254.842, -491997.03, -50203.395, -0.00046218725, 0.0018023343, 2838.5286, 2838.5286, 0.0, 2.5005245, 2.4989028 
4.4883588e+2, 4.8721504e+1, -9493.338, -495538.25, -49831.82, -0.0024031943, 0.0028042973, -4436.9263, -4436.9263, 0.0, 2.5005121, 2.4989028 
4.488355e+2, 5.1220506e+1, 34328.28, -390099.7, -53170.168, -0.0027074472, 0.0033040058, 40887.793, 40887.793, 0.0, 2.5004966, 2.4990911 
4.4883507e+2, 5.371959e+1, 23542.832, -394010.78, -53055.57, -0.0013501559, 0.0025641883, 30178.766, 30178.766, 0.0, 2.5004768, 2.499094 
4.4883472e+2, 5.621868e+1, 11816.994, -399715.34, -52376.332, -0.0000034723578, 0.0018206617, 18378.395, 18378.395, 0.0, 2.5004566, 2.4990938 
4.4883433e+2, 5.8717763e+1, -5.1421824, -405466.3, -51690.15, 0.0013326781, 0.0010775538, 6480.815, 6480.815, 0.0, 2.5004365, 2.4990938 
4.488339e+2, 6.121695e+1, 41299.32, -305032.56, -47918.48, 0.0015051448, 0.0015337042, 47807.04, 47807.04, 0.0, 2.5004208, 2.4992738 
4.4883353e+2, 6.371624e+1, 35332.82, -305956.16, -47529.938, 0.00017014892, 0.0023370574, 41828.492, 41828.492, 0.0, 2.5004084, 2.499278 
4.4883317e+2, 6.621552e+1, 28010.797, -309508.88, -46913.074, -0.0011897598, 0.0031331673, 34410.086, 34410.086, 0.0, 2.5003958, 2.499278 
4.4883275e+2, 6.8714803e+1, 20576.4, -313115.72, -46297.117, -0.0025725656, 0.0039276276, 26880.654, 26880.654, 0.0, 2.5003831, 2.499278 
4.4883236e+2, 7.121418e+1, 62247.844, -212930.1, -42580.246, -0.0025800967, 0.004564764, 68685.96, 68685.96, 0.0, 2.5003684, 2.499457 
4.4883204e+2, 7.3713636e+1, 53685.184, -214065.4, -41862.07, -0.0020525635, 0.0038746092, 60077.586, 60077.586, 0.0, 2.5003505, 2.4994636 
4.4883168e+2, 7.621309e+1, 43124.984, -219162.17, -41120.844, -0.0015580798, 0.0031701443, 49420.707, 49420.707, 0.0, 2.5003324, 2.4994636 
4.4883132e+2, 7.8712547e+1, 32452.754, -224312.88, -40382.887, -0.0010901948, 0.0024594523, 38654.207, 38654.207, 0.0, 2.500314, 2.4994636 
4.48831e+2, 8.12121e+1, 70889.05, -129379.52, -31561.242, -0.0007448342, 0.0028950563, 75745.17, 75745.17, 0.0, 2.5002978, 2.4996345 
4.488307e+2, 8.3711743e+1, 64516.656, -128176.13, -30908.3, -0.0011978569, 0.0036138843, 69353.02, 69353.02, 0.0, 2.5002823, 2.499644 
4.488304e+2, 8.6211395e+1, 55300.137, -132606.92, -30483.738, -0.0016712387, 0.0043278383, 60121.723, 60121.723, 0.0, 2.5002663, 2.499644 
4.4883004e+2, 8.8711053e+1, 45918.48, -137117.23, -30059.717, -0.0021597997, 0.0050436785, 50728.73, 50728.73, 0.0, 2.5002503, 2.499644 
4.488298e+2, 9.121078e+1, 87446.055, -36305.977, -16485.27, -0.00024801004, 0.006221729, 89604.45, 89604.45, 0.0, 2.5002346, 2.4998248 
4.4882962e+2, 9.371062e+1, 80828.914, -33228.246, -15127.626, 0.00079583086, 0.005491755, 82801.22, 82801.22, 0.0, 2.5002165, 2.4998386 
4.488294e+2, 9.6210444e+1, 70042.234, -38392.35, -13864.926, 0.0017402739, 0.0047393003, 71786.984, 71786.984, 0.0, 2.500198, 2.4998388 
4.488292e+2, 9.8710275e+1, 59006.664, -43676.293, -12601.959, 0.0026126846, 0.0039830217, 60530.645, 60530.645, 0.0, 2.500179, 2.4998388 
4.5134112e+2, 1.2491043e+0, -84729.49, -844252.9, -9433.659, 0.0029784495, 0.000119744145, -84612.34, -84612.34, 0.0, 2.5007193, 2.498205 
4.5134103e+2, 3.7473124e+0, -84595.59, -844386.1, -9005.93, 0.0009290392, 0.00035697178, -84488.86, -84488.86, 0.0, 2.5007198, 2.4982045 
4.5134097e+2, 6.2455213e+0, -84348.65, -844282.1, -8463.295, -0.0011098168, 0.00059118547, -84254.41, -84254.41, 0.0, 2.50072, 2.4982045 
4.5134088e+2, 8.7437296e+0, -84103.14, -844178.8, -7920.525, -0.003138118, 0.00082238496, -84020.62, -84020.62, 0.0, 2.5007205, 2.4982045 
4.5134076e+2, 1.1242013e+1, -42472.215, -752581.3, -22654.482, -0.0033286598, 0.0006716523, -41750.207, -41750.207, 0.0, 2.500715, 2.4983642 
4.5134062e+2, 1.3740371e+1, -49180.11, -755576.6, -22175.959, -0.0014534222, -0.00020066561, -48484.625, -48484.625, 0.0, 2.5007033, 2.4983647 
4.5134047e+2, 1.6238728e+1, -56055.0, -758916.7, -21325.016, 0.0004280786, -0.0010778917, -55408.586, -55408.586, 0.0, 2.5006914, 2.4983647 
4.513403e+2, 1.8737085e+1, -62930.965, -762257.25, -20474.207, 0.0023155366, -0.0019596207, -62332.055, -62332.055, 0.0, 2.5006797, 2.4983644 
4.5134008e+2, 2.1235542e+1, -19472.416, -661440.3, -34527.016, 0.0025549831, -0.0016333302, -17620.787, -17620.787, 0.0, 2.5006685, 2.498543 
4.513398e+2, 2.37341e+1, -25840.953, -664147.44, -34496.344, 0.0014434663, -0.00041459902, -23982.063, -23982.063, 0.0, 2.500657, 2.4985437 
4.5133954e+2, 2.6232657e+1, -32472.963, -667398.1, -33763.047, 0.00033667253, 0.0008034733, -30682.613, -30682.613, 0.0, 2.5006456, 2.4985435 
4.5133924e+2, 2.8731212e+1, -39106.477, -670649.5, -33029.93, -0.00076626224, 0.0020217104, -37383.695, -37383.695, 0.0, 2.5006344, 2.4985435 
4.5133892e+2, 3.122985e+1, 3485.6611, -569406.0, -42400.46, -0.00072521315, 0.0023544172, 6606.7715, 6606.7715, 0.0, 2.5006206, 2.4987237 
4.513386e+2, 3.3728564e+1, -6063.3286, -573557.56, -42506.164, 0.00074216176, 0.0013659789, -2897.2175, -2897.2175, 0.0, 2.500604, 2.4987247 
4.513383e+2, 3.6227283e+1, -15934.83, -578373.7, -41779.93, 0.002209811, 0.00037693002, -12848.209, -12848.209, 0.0, 2.500587, 2.4987247 
4.5133796e+2, 3.8726e+1, -25807.895, -583190.56, -41053.754, 0.0036766566, -0.0006111813, -22800.328, -22800.328, 0.0, 2.50057, 2.4987245 
4.5133758e+2, 4.1224816e+1, 15041.822, -481894.97, -45420.03, 0.0033676736, -0.00022768979, 19159.102, 19159.102, 0.0, 2.5005524, 2.4989069 
4.513372e+2, 4.3723735e+1, 4316.012, -486304.28, -44967.008, 0.0014188844, 0.0009122558, 8403.339, 8403.339, 0.0, 2.500533, 2.4989085 
4.5133677e+2, 4.6222657e+1, -6934.1865, -491795.1, -43696.71, -0.000524526, 0.0020479732, -3027.6204, -3027.6204, 0.0, 2.5005138, 2.4989083 
4.5133635e+2, 4.8721576e+1, -18186.986, -497287.16, -42426.023, -0.0024634614, 0.0031824494, -14459.019, -14459.019, 0.0, 2.5004947, 2.4989083 
4.5133597e+2, 5.1220584e+1, 24749.438, -392506.28, -45397.008, -0.002719728, 0.0036660526, 29631.467, 29631.467, 0.0, 2.5004778, 2.4990962 
4.5133558e+2, 5.3719676e+1, 16752.664, -395127.97, -45257.95, -0.0012830738, 0.0027731007, 21667.027, 21667.027, 0.0, 2.5004628, 2.4990988 
4.5133513e+2, 5.621876e+1, 7951.0737, -399410.9, -44505.31, 0.00015876666, 0.0018726648, 12756.697, 12756.697, 0.0, 2.5004478, 2.4990988 
4.5133474e+2, 5.871785e+1, -854.2871, -403695.7, -43752.47, 0.0016059311, 0.0009687735, 3842.884, 3842.884, 0.0, 2.5004327, 2.4990985 
4.5133436e+2, 6.121704e+1, 39724.805, -303583.22, -39577.754, 0.0017232114, 0.0013992413, 44228.387, 44228.387, 0.0, 2.5004156, 2.4992785 
4.5133394e+2, 6.3716334e+1, 29250.74, -306711.66, -39087.76, 0.00016293311, 0.0023536524, 33738.484, 33738.484, 0.0, 2.5003955, 2.4992828 
4.5133352e+2, 6.621563e+1, 17552.557, -312369.56, -38309.7, -0.0013891543, 0.0033062529, 21942.566, 21942.566, 0.0, 2.5003755, 2.4992828 
4.5133314e+2, 6.871492e+1, 5849.903, -318029.63, -37532.29, -0.0029309464, 0.0042624273, 10142.386, 10142.386, 0.0, 2.5003555, 2.4992828 
4.5133275e+2, 7.1214294e+1, 45507.23, -218492.83, -33815.668, -0.0028948244, 0.004908173, 49769.844, 49769.844, 0.0, 2.500337, 2.4994626 
4.5133236e+2, 7.3713756e+1, 37029.254, -219599.4, -33080.68, -0.002089447, 0.004083762, 41224.918, 41224.918, 0.0, 2.5003192, 2.4994693 
4.51332e+2, 7.621321e+1, 26670.813, -224596.27, -32263.523, -0.001284663, 0.0032604337, 30747.416, 30747.416, 0.0, 2.5003014, 2.4994693 
4.5133165e+2, 7.871268e+1, 16306.417, -229595.98, -31446.518, -0.00047419104, 0.0024462107, 20264.164, 20264.164, 0.0, 2.5002835, 2.4994693 
4.5133126e+2, 8.121223e+1, 54509.883, -134860.34, -21894.404, -0.00018758912, 0.0028258548, 57008.285, 57008.285, 0.0, 2.500267, 2.4996397 
4.5133093e+2, 8.3711886e+1, 47879.52, -133786.73, -20750.2, -0.0011569809, 0.0035158524, 50219.5, 50219.5, 0.0, 2.500251, 2.4996493 
4.5133063e+2, 8.621154e+1, 38572.004, -138254.22, -19793.566, -0.0021040486, 0.004204807, 40760.566, 40760.566, 0.0, 2.500235, 2.4996493 
4.513303e+2, 8.8711196e+1, 29255.355, -142726.1, -18838.014, -0.0030232414, 0.004899559, 31294.6, 31294.6, 0.0, 2.500219, 2.4996495 
4.5133e+2, 9.121094e+1, 69428.12, -42146.59, -5928.7275, -0.0010493617, 0.0060381764, 69742.266, 69742.266, 0.0, 2.5002005, 2.499831 
4.513298e+2, 9.371077e+1, 60067.246, -40419.97, -5675.1694, 0.00073277735, 0.0053191655, 60386.746, 60386.746, 0.0, 2.5001779, 2.499845 
4.513296e+2, 9.621061e+1, 46786.855, -46797.11, -5391.513, 0.0024799786, 0.004569114, 47096.445, 47096.445, 0.0, 2.500155, 2.499845 
4.5132935e+2, 9.871044e+1, 33492.133, -53181.152, -5106.995, 0.0042182514, 0.003806001, 33792.01, 33792.01, 0.0, 2.500132, 2.499845 
4.5384184e+2, 1.2491045e+0, -83708.22, -842129.5, -9370.836, 0.00006151876, -0.00003448865, -83592.45, -83592.45, 0.0, 2.5007193, 2.4982085 
4.5384178e+2, 3.7473136e+0, -83573.24, -842258.0, -8941.803, -0.0004156381, -0.00010469847, -83467.87, -83467.87, 0.0, 2.5007198, 2.498208 
4.538417e+2, 6.245522e+0, -83328.07, -842155.25, -8396.575, -0.00088832184, -0.00017655146, -83235.17, -83235.17, 0.0, 2.50072, 2.498208 
4.5384163e+2, 8.7437314e+0, -83084.35, -842053.1, -7851.2134, -0.0013565316, -0.00025004777, -83003.14, -83003.14, 0.0, 2.5007205, 2.498208 
4.5384148e+2, 1.12420216e+1, -40833.39, -749183.7, -24418.146, -0.00137859, -0.00024669038, -39992.652, -39992.652, 0.0, 2.500715, 2.49837 
4.538413e+2, 1.3740392e+1, -47576.633, -752252.75, -23958.314, -0.0007559359, -0.00041302977, -46763.01, -46763.01, 0.0, 2.5007033, 2.4983704 
4.5384115e+2, 1.6238762e+1, -54453.434, -755596.94, -23102.316, -0.00013054018, -0.00058267615, -53693.047, -53693.047, 0.0, 2.5006914, 2.4983704 
4.5384097e+2, 1.8737131e+1, -61331.313, -758941.6, -22246.451, 0.00049732137, -0.0007553424, -60622.6, -60622.6, 0.0, 2.5006797, 2.4983702 
4.5384073e+2, 2.1235594e+1, -18022.346, -658455.2, -36232.08, 0.00061593275, -0.0004566831, -15979.059, -15979.059, 0.0, 2.5006685, 2.498548 
4.5384046e+2, 2.3734148e+1, -24451.137, -661286.3, -36216.67, 0.0004929846, 0.000046192996, -22398.121, -22398.121, 0.0, 2.500657, 2.4985485 
4.5384017e+2, 2.6232705e+1, -31085.277, -664540.1, -35480.527, 0.0003704648, 0.0005494412, -29104.17, -29104.17, 0.0, 2.5006459, 2.4985485 
4.5383987e+2, 2.873126e+1, -37720.92, -667794.7, -34744.566, 0.0002476168, 0.0010537478, -35810.773, -35810.773, 0.0, 2.5006344, 2.4985483 
4.5383957e+2, 3.1229898e+1, 4889.53, -566520.7, -44911.734, 0.00034639545, 0.0012661164, 8397.963, 8397.963, 0.0, 2.5006208, 2.4987288 
4.538392e+2, 3.3728626e+1, -4692.3223, -570741.4, -45062.883, 0.000922461, 0.0008095, -1127.3408, -1127.3408, 0.0, 2.500604, 2.4987295 
4.5383886e+2, 3.622735e+1, -14564.331, -575559.25, -44334.504, 0.0014954079, 0.0003536221, -11082.262, -11082.262, 0.0, 2.500587, 2.4987295 
4.538385e+2, 3.8726074e+1, -24437.902, -580377.94, -43606.18, 0.002064203, -0.00010015211, -21038.36, -21038.36, 0.0, 2.50057, 2.4987292 
4.538381e+2, 4.1224903e+1, 17488.723, -476880.97, -48300.51, 0.0017734214, 0.00034825708, 22163.535, 22163.535, 0.0, 2.5005524, 2.4989154 
4.538377e+2, 4.3723828e+1, 6717.05, -481379.6, -47877.906, 0.0007678422, 0.0011727479, 11369.1045, 11369.1045, 0.0, 2.500533, 2.4989169 
4.5383728e+2, 4.6222755e+1, -4538.6997, -486875.63, -46603.02, -0.00023771844, 0.0019978073, -77.21977, -77.21977, 0.0, 2.500514, 2.4989169 
4.538369e+2, 4.872168e+1, -15797.051, -492372.88, -45327.742, -0.0012441011, 0.002825967, -11524.181, -11524.181, 0.0, 2.5004947, 2.4989166 
4.5383647e+2, 5.122069e+1, 26301.482, -389411.97, -47643.74, -0.0013595427, 0.003272506, 31691.9, 31691.9, 0.0, 2.500478, 2.4991014 
4.5383602e+2, 5.371979e+1, 18235.766, -392170.47, -47543.34, -0.00061221956, 0.0026363584, 23671.412, 23671.412, 0.0, 2.500463, 2.4991038 
4.538356e+2, 5.6218886e+1, 9426.642, -396461.72, -46786.242, 0.00013128419, 0.0019973835, 14749.82, 14749.82, 0.0, 2.5004478, 2.4991038 
4.538352e+2, 5.8717984e+1, 613.7461, -400754.78, -46028.945, 0.00087119715, 0.0013594964, 5824.6924, 5824.6924, 0.0, 2.5004327, 2.4991035 
4.5383474e+2, 6.1217177e+1, 41324.38, -300396.34, -42563.51, 0.00079944957, 0.0017110808, 46546.15, 46546.15, 0.0, 2.5004158, 2.499284 
4.5383433e+2, 6.371647e+1, 30799.406, -303636.28, -42123.44, -0.00047423475, 0.0023075666, 36023.41, 36023.41, 0.0, 2.5003958, 2.499288 
4.5383388e+2, 6.6215765e+1, 19104.9, -309291.88, -41340.695, -0.0017514376, 0.0029010286, 24229.174, 24229.174, 0.0, 2.5003757, 2.499288 
4.5383346e+2, 6.871506e+1, 7405.9224, -314949.6, -40558.598, -0.0030297416, 0.0034963465, 12430.66, 12430.66, 0.0, 2.5003555, 2.499288 
4.5383307e+2, 7.121444e+1, 47221.574, -215133.23, -36463.23, -0.0027556526, 0.0040848856, 52195.11, 52195.11, 0.0, 2.5003371, 2.4994683 
4.538327e+2, 7.3713905e+1, 38706.234, -216326.48, -35767.49, -0.0017260483, 0.0035775611, 43627.54, 43627.54, 0.0, 2.5003195, 2.4994748 
4.538323e+2, 7.621338e+1, 28353.178, -221320.48, -34944.633, -0.00071177, 0.0030695384, 33151.844, 33151.844, 0.0, 2.5003016, 2.4994748 
4.538319e+2, 7.8712845e+1, 17994.172, -226317.36, -34121.926, 0.0002933356, 0.0025684084, 22670.33, 22670.33, 0.0, 2.500284, 2.4994748 
4.5383155e+2, 8.12124e+1, 56592.008, -130843.99, -24288.36, 0.00040743846, 0.0028556506, 59688.2, 59688.2, 0.0, 2.5002673, 2.4996467 
4.538312e+2, 8.371206e+1, 49933.14, -129836.89, -23167.656, -0.0011165699, 0.0030365514, 52870.84, 52870.84, 0.0, 2.5002513, 2.499656 
4.5383084e+2, 8.621172e+1, 40630.805, -134299.69, -22204.506, -0.0026378268, 0.0032144196, 43405.29, 43405.29, 0.0, 2.5002353, 2.499656 
4.538305e+2, 8.8711375e+1, 31319.334, -138766.88, -21242.436, -0.004150837, 0.0033960657, 33932.207, 33932.207, 0.0, 2.5002193, 2.499656 
4.538302e+2, 9.121112e+1, 70483.62, -40441.406, -9264.797, -0.0021151295, 0.004298039, 71252.12, 71252.12, 0.0, 2.5002012, 2.4998336 
4.5382997e+2, 9.371096e+1, 61046.82, -38863.36, -9103.917, 0.0004695463, 0.0037803943, 61869.6, 61869.6, 0.0, 2.5001783, 2.4998474 
4.5382974e+2, 9.62108e+1, 47757.277, -45247.934, -8807.996, 0.002990801, 0.003235675, 48584.082, 48584.082, 0.0, 2.5001554, 2.4998474 
4.538295e+2, 9.871064e+1, 34453.402, -51639.406, -8511.214, 0.0054739285, 0.002680643, 35286.76, 35286.76, 0.0, 2.5001326, 2.4998474 
4.5634252e+2, 1.24910474e+0, -82687.06, -840006.44, -9308.212, -0.0028552546, -0.0001904578, -82572.67, -82572.67, 0.0, 2.5007193, 2.4982123 
4.5634246e+2, 3.7473142e+0, -82552.53, -840133.3, -8877.649, -0.0017598432, -0.00057157775, -82448.516, -82448.516, 0.0, 2.5007198, 2.4982119 
4.563424e+2, 6.2455237e+0, -82309.14, -840031.75, -8329.829, -0.00066603976, -0.00095297006, -82217.58, -82217.58, 0.0, 2.50072, 2.4982119 
4.5634234e+2, 8.7437326e+0, -82067.195, -839930.9, -7781.8755, 0.00042615642, -0.0013346348, -81987.3, -81987.3, 0.0, 2.5007205, 2.4982116 
4.5634222e+2, 1.1242029e+1, -39226.098, -745851.7, -26178.014, 0.0005704108, -0.0011542763, -38257.62, -38257.62, 0.0, 2.500715, 2.4983757 
4.5634204e+2, 1.3740411e+1, -45975.86, -748934.5, -25740.17, -0.000057164132, -0.0006281822, -45034.594, -45034.594, 0.0, 2.5007033, 2.4983761 
4.5634183e+2, 1.6238794e+1, -52854.57, -752282.9, -24879.117, -0.0006855107, -0.00010387006, -51970.723, -51970.723, 0.0, 2.5006914, 2.498376 
4.5634165e+2, 1.8737178e+1, -59734.363, -755631.75, -24018.197, -0.0013148828, 0.00041890543, -58906.383, -58906.383, 0.0, 2.5006797, 2.498376 
4.563414e+2, 2.1235645e+1, -16627.01, -655583.8, -37930.813, -0.001330323, 0.00072805333, -14383.177, -14383.177, 0.0, 2.5006685, 2.498553 
4.563411e+2, 2.3734197e+1, -23062.898, -658428.56, -37936.38, -0.00046267925, 0.0005092981, -20805.813, -20805.813, 0.0, 2.500657, 2.4985535 
4.5634082e+2, 2.623275e+1, -29699.172, -661685.5, -37197.387, 0.00040117843, 0.00029170446, -27517.346, -27517.346, 0.0, 2.5006459, 2.4985533 
4.5634055e+2, 2.87313e+1, -36336.953, -664943.2, -36458.58, 0.0012605207, 0.000076062985, -34229.453, -34229.453, 0.0, 2.5006344, 2.4985533 
4.5634022e+2, 3.122995e+1, 6277.3843, -563668.75, -47421.617, 0.001421594, 0.00017341501, 10196.094, 10196.094, 0.0, 2.5006208, 2.4987335 
4.563398e+2, 3.3728683e+1, -3322.5493, -567927.8, -47619.13, 0.0011069779, 0.00024416426, 665.5057, 665.5057, 0.0, 2.500604, 2.4987345 
4.5633945e+2, 3.622742e+1, -13195.065, -572747.5, -46888.6, 0.0007858244, 0.0003169258, -9293.168, -9293.168, 0.0, 2.500587, 2.4987342 
4.5633906e+2, 3.8726154e+1, -23069.146, -577567.94, -46158.133, 0.00045717097, 0.0003929574, -19253.066, -19253.066, 0.0, 2.50057, 2.498734 
4.5633864e+2, 4.1224986e+1, 19909.637, -471921.03, -51173.344, 0.00018019024, 0.0009297077, 25177.627, 25177.627, 0.0, 2.5005524, 2.4989238 
4.5633823e+2, 4.372392e+1, 9116.408, -476458.47, -50788.434, 0.00011933205, 0.0014289385, 14371.719, 14371.719, 0.0, 2.5005333, 2.4989252 
4.563378e+2, 4.622285e+1, -2144.8923, -481959.7, -49508.953, 0.00005320011, 0.0019332729, 2910.3516, 2910.3516, 0.0, 2.500514, 2.4989252 
4.5633736e+2, 4.8721778e+1, -13408.794, -487462.16, -48229.086, -0.000019050825, 0.0024450498, -8551.842, -8551.842, 0.0, 2.5004947, 2.498925 
4.5633695e+2, 5.12208e+1, 27798.297, -386432.47, -49871.355, -0.0000046683913, 0.0028855128, 33717.97, 33717.97, 0.0, 2.500478, 2.4991064 
4.563365e+2, 5.371991e+1, 19717.623, -389215.63, -49828.008, 0.000057680274, 0.0024997795, 25701.541, 25701.541, 0.0, 2.500463, 2.4991088 
4.5633605e+2, 5.621901e+1, 10900.963, -393515.2, -49066.453, 0.00010735536, 0.00211545, 16768.889, 16768.889, 0.0, 2.500448, 2.4991088 
4.563356e+2, 5.8718115e+1, 2080.532, -397816.53, -48304.695, 0.00014452465, 0.0017367516, 7832.6543, 7832.6543, 0.0, 2.500433, 2.4991086 
4.563352e+2, 6.1217314e+1, 42900.516, -297258.28, -45542.91, -0.000115180825, 0.002024534, 48892.574, 48892.574, 0.0, 2.5004158, 2.4992893 
4.563347e+2, 6.371661e+1, 32346.693, -300563.88, -45158.445, -0.0011031171, 0.002258621, 38363.57, 38363.57, 0.0, 2.5003958, 2.4992933 
4.5633426e+2, 6.62159e+1, 20655.863, -306217.13, -44371.008, -0.002106274, 0.0024882185, 26571.883, 26571.883, 0.0, 2.5003757, 2.4992933 
4.5633385e+2, 6.87152e+1, 8960.563, -311872.53, -43584.223, -0.0031219288, 0.0027179536, 14775.942, 14775.942, 0.0, 2.5003557, 2.4992933 
4.563334e+2, 7.1214586e+1, 48913.676, -211819.9, -39107.41, -0.002597555, 0.003263975, 54653.055, 54653.055, 0.0, 2.5003374, 2.4994738 
4.56333e+2, 7.371406e+1, 40382.094, -213055.94, -38454.098, -0.0013459094, 0.003069414, 46088.25, 46088.25, 0.0, 2.5003197, 2.4994802 
4.5633262e+2, 7.621354e+1, 30034.428, -218047.1, -37625.54, -0.00012448797, 0.00287213, 35615.39, 35615.39, 0.0, 2.5003018, 2.4994802 
4.563322e+2, 7.871301e+1, 19680.81, -223041.13, -36797.13, 0.0010729001, 0.0026795266, 25136.691, 25136.691, 0.0, 2.5002842, 2.4994802 
4.5633182e+2, 8.121258e+1, 58653.598, -126870.37, -26673.598, 0.0010151399, 0.0028852301, 62412.42, 62412.42, 0.0, 2.5002677, 2.499653 
4.5633146e+2, 8.371223e+1, 51985.867, -125888.945, -25584.61, -0.0010657045, 0.0025545612, 55592.69, 55592.69, 0.0, 2.5002518, 2.4996626 
4.5633107e+2, 8.6211896e+1, 42688.71, -130347.055, -24614.941, -0.003163422, 0.0022186586, 46122.145, 46122.145, 0.0, 2.5002358, 2.4996626 
4.563307e+2, 8.8711554e+1, 33382.42, -134809.55, -23646.354, -0.005272521, 0.0018845154, 36643.66, 36643.66, 0.0, 2.5002198, 2.4996626 
4.5633042e+2, 9.12113e+1, 71516.32, -38783.69, -12579.049, -0.003141715, 0.0025698768, 72932.695, 72932.695, 0.0, 2.5002017, 2.4998362 
4.5633018e+2, 9.3711144e+1, 62025.105, -37309.523, -12533.219, 0.0002520341, 0.0022446227, 63582.04, 63582.04, 0.0, 2.5001788, 2.4998498 
4.5632988e+2, 9.621099e+1, 48726.41, -43701.527, -12225.034, 0.003553298, 0.0018958568, 50316.023, 50316.023, 0.0, 2.500156, 2.4998498 
4.5632964e+2, 9.871083e+1, 35413.383, -50100.434, -11915.987, 0.006787237, 0.0015395288, 37042.777, 37042.777, 0.0, 2.500133, 2.4998498 
4.588432e+2, 1.24910496e+0, -87210.94, -840562.0, -9268.781, -0.005754011, -0.00034848772, -87096.914, -87096.914, 0.0, 2.5007098, 2.498216 
4.5884317e+2, 3.7473148e+0, -87079.06, -840690.6, -8884.222, -0.0030886813, -0.0010446741, -86974.34, -86974.34, 0.0, 2.5007102, 2.4982154 
4.5884314e+2, 6.245525e+0, -86878.91, -840610.06, -8380.634, -0.0004303621, -0.001739808, -86785.734, -86785.734, 0.0, 2.5007105, 2.4982154 
4.588431e+2, 8.7437344e+0, -86720.875, -840549.9, -7876.4146, 0.0022209454, -0.0024338895, -86638.586, -86638.586, 0.0, 2.5007107, 2.4982154 
4.5884296e+2, 1.1242038e+1, -43194.48, -745262.9, -28147.283, 0.0025289822, -0.0020544578, -42067.81, -42067.81, 0.0, 2.5007055, 2.4983814 
4.5884275e+2, 1.3740432e+1, -49577.344, -748133.94, -27800.06, 0.0006541927, -0.00085009605, -48472.746, -48472.746, 0.0, 2.5006945, 2.4983816 
4.5884252e+2, 1.6238828e+1, -56141.688, -751334.3, -27005.137, -0.0012245197, 0.0003541099, -55094.24, -55094.24, 0.0, 2.500683, 2.4983816 
4.5884228e+2, 1.8737222e+1, -62735.496, -754548.94, -26216.176, -0.0031073978, 0.0015584377, -61743.46, -61743.46, 0.0, 2.5006719, 2.4983816 
4.5884204e+2, 2.1235697e+1, -19620.5, -654918.7, -40117.813, -0.0032703744, 0.0019160422, -17097.164, -17097.164, 0.0, 2.5006611, 2.4985576 
4.5884177e+2, 2.3734248e+1, -25783.98, -657557.4, -40208.176, -0.0014119574, 0.00096999586, -23235.28, -23235.28, 0.0, 2.5006502, 2.4985583 
4.5884147e+2, 2.6232797e+1, -32231.514, -660725.25, -39524.21, 0.00043905684, 0.000025735746, -29755.7, -29755.7, 0.0, 2.5006392, 2.4985583 
4.5884117e+2, 2.8731346e+1, -38716.125, -663911.0, -38840.17, 0.0022818812, -0.0009156058, -36312.426, -36312.426, 0.0, 2.500628, 2.498558 
4.5884082e+2, 3.1229997e+1, 4155.5044, -562535.0, -50641.492, 0.0025092058, -0.0009279956, 8645.436, 8645.436, 0.0, 2.500615, 2.4987383 
4.5884043e+2, 3.372874e+1, -5058.525, -566614.25, -50921.195, 0.0013041137, -0.00033458293, -478.4084, -478.4084, 0.0, 2.5005987, 2.4987392 
4.5884e+2, 3.6227486e+1, -14574.773, -571263.8, -50225.887, 0.00008952132, 0.00026219952, -10079.566, -10079.566, 0.0, 2.5005822, 2.498739 
4.588396e+2, 3.8726234e+1, -24125.068, -575929.8, -49533.063, -0.0011354433, 0.00086357415, -19713.967, -19713.967, 0.0, 2.500566, 2.498739 
4.588392e+2, 4.1225076e+1, 20225.36, -468019.9, -54926.344, -0.0014035753, 0.0015124409, 26328.15, 26328.15, 0.0, 2.500549, 2.4989321 
4.5883873e+2, 4.372401e+1, 9792.8, -472372.3, -54668.523, -0.0005198672, 0.001676873, 15913.493, 15913.493, 0.0, 2.5005302, 2.4989338 
4.588383e+2, 4.6222946e+1, -1171.1608, -477731.78, -53454.496, 0.00035391405, 0.0018501972, 4751.0874, 4751.0874, 0.0, 2.5005116, 2.4989336 
4.588379e+2, 4.8721883e+1, -12192.856, -483119.06, -52227.973, 0.0012168422, 0.0020348262, -6470.0684, -6470.0684, 0.0, 2.5004928, 2.4989333 
4.5883742e+2, 5.122091e+1, 28315.463, -384008.6, -53217.414, 0.001349139, 0.0025008766, 35073.313, 35073.313, 0.0, 2.5004766, 2.4991112 
4.5883697e+2, 5.372002e+1, 20515.537, -386587.8, -53282.152, 0.00072973175, 0.002361594, 27373.635, 27373.635, 0.0, 2.500462, 2.4991138 
4.588365e+2, 5.621913e+1, 11857.215, -390815.6, -52544.598, 0.0000899108, 0.002227072, 18600.8, 18600.8, 0.0, 2.5004473, 2.4991138 
4.5883602e+2, 5.8718246e+1, 3119.0786, -395081.78, -51802.555, -0.00057038205, 0.002102278, 9747.805, 9747.805, 0.0, 2.5004323, 2.4991136 
4.5883557e+2, 6.121745e+1, 44162.637, -294301.03, -49740.426, -0.0010168134, 0.0023425054, 51321.063, 51321.063, 0.0, 2.5004156, 2.4992945 
4.5883512e+2, 6.3716745e+1, 33756.19, -297552.56, -49408.12, -0.0017200959, 0.002210993, 40967.473, 40967.473, 0.0, 2.5003958, 2.4992986 
4.5883465e+2, 6.621604e+1, 22090.625, -303193.4, -48615.285, -0.0024490452, 0.0020734416, 29200.99, 29200.99, 0.0, 2.5003757, 2.4992986 
4.5883417e+2, 6.871534e+1, 10287.911, -308900.3, -47831.457, -0.003200661, 0.0019344727, 17301.51, 17301.51, 0.0, 2.5003555, 2.4992983 
4.5883375e+2, 7.121473e+1, 50399.14, -208629.81, -42959.37, -0.0024143904, 0.0024540445, 57337.98, 57337.98, 0.0, 2.5003374, 2.4994793 
4.588333e+2, 7.371422e+1, 42064.316, -209772.73, -42325.02, -0.0009459687, 0.0025690638, 48987.36, 48987.36, 0.0, 2.50032, 2.4994857 
4.5883292e+2, 7.62137e+1, 31745.688, -214750.03, -41469.63, 0.00047934108, 0.0026791252, 38535.383, 38535.383, 0.0, 2.500302, 2.4994857 
4.588325e+2, 7.871319e+1, 21252.717, -219811.3, -40619.84, 0.0018678965, 0.0027916837, 27913.225, 27913.225, 0.0, 2.5002842, 2.4994857 
4.588321e+2, 8.1212753e+1, 60374.875, -123078.28, -30146.06, 0.0016398673, 0.0029278838, 65201.652, 65201.652, 0.0, 2.5002675, 2.4996598 
4.588317e+2, 8.3712417e+1, 53456.42, -122207.836, -29008.932, -0.000999556, 0.002084264, 58122.945, 58122.945, 0.0, 2.500251, 2.4996693 
4.588313e+2, 8.6212075e+1, 43728.69, -126871.23, -27947.8, -0.003673689, 0.0012329184, 48190.434, 48190.434, 0.0, 2.5002344, 2.4996693 
4.588309e+2, 8.871174e+1, 33817.496, -131622.97, -26890.83, -0.00637702, 0.00038123122, 38078.605, 38078.605, 0.0, 2.5002172, 2.4996693 
4.588306e+2, 9.1211486e+1, 70714.14, -38025.387, -16589.594, -0.0041176863, 0.00087071594, 73188.77, 73188.77, 0.0, 2.500199, 2.4998388 
4.5883033e+2, 9.3711334e+1, 61270.58, -36570.875, -16510.676, 0.00009032925, 0.0007292872, 63981.625, 63981.625, 0.0, 2.5001764, 2.4998522 
4.588301e+2, 9.6211183e+1, 47549.277, -43168.65, -16000.519, 0.004181942, 0.0005672255, 50288.676, 50288.676, 0.0, 2.5001528, 2.4998522 
4.588298e+2, 9.871103e+1, 33319.133, -50011.445, -15470.112, 0.008182687, 0.0004000675, 36098.42, 36098.42, 0.0, 2.5001283, 2.4998524 
4.6134394e+2, 1.2491083e+0, -63434.766, -826488.4, -9313.285, -0.005756078, -0.0003093727, -63321.113, -63321.113, 0.0, 2.5007477, 2.4982216 
4.613439e+2, 3.7473246e+0, -67146.71, -828466.06, -8134.1597, -0.002996531, -0.0009292854, -67059.82, -67059.82, 0.0, 2.5007415, 2.4982212 
4.6134385e+2, 6.245541e+0, -70749.734, -830215.3, -6837.5737, -0.00022935381, -0.0015507542, -70688.18, -70688.18, 0.0, 2.5007353, 2.4982212 
4.6134382e+2, 8.743757e+0, -74354.086, -831965.1, -5541.1406, 0.0025454545, -0.0021737788, -74313.555, -74313.555, 0.0, 2.5007293, 2.4982212 
4.6134368e+2, 1.1242067e+1, -31723.268, -736625.6, -26117.814, 0.0028685138, -0.0018178787, -30756.883, -30756.883, 0.0, 2.500722, 2.4983883 
4.6134344e+2, 1.3740468e+1, -36707.586, -738849.94, -25278.945, 0.0008907714, -0.00071202754, -35798.656, -35798.656, 0.0, 2.500713, 2.4983885 
4.613432e+2, 1.6238868e+1, -41834.645, -741368.25, -23960.639, -0.0010828072, 0.00040009434, -41014.9, -41014.9, 0.0, 2.5007045, 2.4983885 
4.61343e+2, 1.873727e+1, -46962.92, -743887.2, -22642.033, -0.0030524542, 0.0015187465, -46228.09, -46228.09, 0.0, 2.5006957, 2.4983883 
4.6134272e+2, 2.123575e+1, -5063.071, -644861.2, -36508.414, -0.0032642148, 0.0018358179, -2986.5525, -2986.5525, 0.0, 2.5006828, 2.4985645 
4.613424e+2, 2.3734306e+1, -15142.17, -649399.9, -35950.297, -0.0014044628, 0.00091102783, -13110.9795, -13110.9795, 0.0, 2.5006652, 2.4985652 
4.613421e+2, 2.6232865e+1, -25458.799, -654428.1, -34580.62, 0.00045955362, -0.000009888028, -23563.275, -23563.275, 0.0, 2.5006475, 2.498565 
4.613418e+2, 2.873142e+1, -35776.75, -659457.0, -33211.21, 0.002327034, -0.0009258531, -34013.227, -34013.227, 0.0, 2.50063, 2.498565 
4.6134144e+2, 3.1230077e+1, 5254.653, -558371.7, -44424.34, 0.0025229177, -0.0008715366, 8734.639, 8734.639, 0.0, 2.5006127, 2.4987464 
4.61341e+2, 3.3728832e+1, -4438.5425, -562711.6, -43713.65, 0.0012155253, -0.00014412128, -1036.4291, -1036.4291, 0.0, 2.5005958, 2.4987473 
4.613406e+2, 3.622759e+1, -14384.626, -567572.0, -41988.61, -0.00009049262, 0.0005904228, -11215.715, -11215.715, 0.0, 2.5005786, 2.498747 
4.613402e+2, 3.8726342e+1, -24332.314, -572433.06, -40263.73, -0.0013959437, 0.0013332245, -21390.314, -21390.314, 0.0, 2.5005617, 2.4987469 
4.613397e+2, 4.122519e+1, 19039.023, -465523.25, -45626.43, -0.0015876357, 0.0019371535, 23297.783, 23297.783, 0.0, 2.5005436, 2.498939 
4.613393e+2, 4.3724132e+1, 7836.318, -470277.78, -45752.176, -0.0004925454, 0.001863345, 12175.107, 12175.107, 0.0, 2.5005238, 2.4989405 
4.6133885e+2, 4.622307e+1, -3806.47, -475939.13, -44892.723, 0.0006048847, 0.0017823933, 424.2428, 424.2428, 0.0, 2.5005038, 2.4989405 
4.6133837e+2, 4.872201e+1, -15451.549, -481601.6, -44033.81, 0.0017038457, 0.0016966315, -11328.463, -11328.463, 0.0, 2.5004838, 2.4989402 
4.6133792e+2, 5.122104e+1, 23411.156, -383116.34, -44424.734, 0.001836347, 0.002148822, 28209.2, 28209.2, 0.0, 2.5004647, 2.4991186 
4.6133745e+2, 5.3720164e+1, 13058.327, -386976.66, -43929.074, 0.00094142044, 0.0023292203, 17825.504, 17825.504, 0.0, 2.5004458, 2.499121 
4.6133694e+2, 5.6219286e+1, 1960.5461, -392376.84, -42594.875, 0.00004884859, 0.0025020272, 6509.0234, 6509.0234, 0.0, 2.5004268, 2.499121 
4.6133646e+2, 5.8718413e+1, -9139.493, -397778.13, -41260.414, -0.0008411842, 0.0026718078, -4807.309, -4807.309, 0.0, 2.5004077, 2.4991207 
4.6133596e+2, 6.121762e+1, 30594.584, -297642.03, -39039.27, -0.0012314059, 0.0029110743, 35173.887, 35173.887, 0.0, 2.5003889, 2.4993017 
4.6133548e+2, 6.3716924e+1, 20233.904, -300930.13, -38348.383, -0.0016040817, 0.0024830957, 24749.383, 24749.383, 0.0, 2.500369, 2.4993055 
4.6133503e+2, 6.6216224e+1, 8778.223, -306481.44, -37146.44, -0.0019720609, 0.0020545642, 13095.98, 13095.98, 0.0, 2.5003495, 2.4993055 
4.6133453e+2, 6.8715525e+1, -2681.8245, -312034.84, -35944.508, -0.002332177, 0.0016301151, 1439.7462, 1439.7462, 0.0, 2.50033, 2.4993055 
4.6133408e+2, 7.121492e+1, 37418.46, -212707.73, -30468.43, -0.001559595, 0.0020722512, 41076.39, 41076.39, 0.0, 2.5003126, 2.4994843 
4.6133366e+2, 7.371441e+1, 30182.77, -213407.38, -30330.496, -0.00052658585, 0.0023584499, 33902.55, 33902.55, 0.0, 2.5002973, 2.4994905 
4.613332e+2, 7.6213896e+1, 21181.139, -217762.47, -29933.43, 0.00052040344, 0.0026435186, 24873.947, 24873.947, 0.0, 2.5002818, 2.4994905 
4.6133277e+2, 7.8713393e+1, 12174.155, -222120.14, -29536.62, 0.0015878946, 0.0029346338, 15840.36, 15840.36, 0.0, 2.5002663, 2.4994903 
4.6133235e+2, 8.121297e+1, 49959.66, -125064.14, -20023.266, 0.0013804741, 0.0030714804, 52221.164, 52221.164, 0.0, 2.5002463, 2.4996667 
4.6133193e+2, 8.371263e+1, 37595.61, -126871.375, -19302.96, -0.0007988939, 0.0020194158, 39830.758, 39830.758, 0.0, 2.5002205, 2.499676 
4.6133152e+2, 8.6212295e+1, 22633.361, -134057.81, -18589.412, -0.0029673823, 0.00095914246, 24808.56, 24808.56, 0.0, 2.5001948, 2.499676 
4.6133113e+2, 8.871196e+1, 7664.7104, -141247.33, -17875.729, -0.0051201866, -0.00010182772, 9780.491, 9780.491, 0.0, 2.5001693, 2.499676 
4.6133077e+2, 9.121172e+1, 43838.355, -48480.664, -6847.757, -0.0029458439, 0.00030103946, 44343.523, 44343.523, 0.0, 2.5001502, 2.4998443 
4.6133047e+2, 9.371156e+1, 40142.8, -44324.984, -6573.7773, 0.00042225255, 0.0003041045, 40651.348, 40651.348, 0.0, 2.5001376, 2.4998577 
4.613302e+2, 9.6211416e+1, 32724.275, -47862.85, -5832.26, 0.0038096472, 0.0002698631, 33144.18, 33144.18, 0.0, 2.5001247, 2.4998577 
4.613299e+2, 9.8711276e+1, 25284.67, -51410.867, -5091.0664, 0.0072429855, 0.00021290907, 25621.14, 25621.14, 0.0, 2.5001118, 2.499858 
4.638447e+2, 1.2491149e+0, -61014.758, -821461.9, -10249.665, -0.0038750365, -0.000074249685, -60876.633, -60876.633, 0.0, 2.5007477, 2.4982302 
4.6384463e+2, 3.7473446e+0, -64723.813, -823437.56, -9066.658, -0.0022427577, -0.00022493038, -64615.48, -64615.48, 0.0, 2.5007415, 2.49823 
4.6384457e+2, 6.2455744e+0, -68324.02, -825184.9, -7767.2607, -0.0006081854, -0.00037851912, -68244.32, -68244.32, 0.0, 2.5007353, 2.4982297 
4.6384454e+2, 8.743804e+0, -71925.56, -826932.9, -6468.0166, 0.0010286809, -0.00053501583, -71870.16, -71870.16, 0.0, 2.5007293, 2.4982297 
4.638444e+2, 1.1242121e+1, -29220.514, -731438.1, -27431.73, 0.0012455857, -0.00035445843, -28150.54, -28150.54, 0.0, 2.500722, 2.498397 
4.6384415e+2, 1.3740522e+1, -34232.563, -733715.8, -26606.295, 0.00019335102, -0.000042893003, -33221.996, -33221.996, 0.0, 2.500713, 2.4983974 
4.638439e+2, 1.6238923e+1, -39361.887, -736234.5, -25282.248, -0.0008578904, 0.00027546028, -38445.86, -38445.86, 0.0, 2.5007045, 2.4983974 
4.638437e+2, 1.8737325e+1, -44492.426, -738753.75, -23957.898, -0.0019083568, 0.0006008349, -43666.656, -43666.656, 0.0, 2.5006957, 2.498397 
4.638434e+2, 2.1235815e+1, -2441.7886, -639427.2, -39137.605, -0.0020613421, 0.00080377597, -46.108967, -46.108967, 0.0, 2.5006828, 2.4985738 
4.6384308e+2, 2.3734386e+1, -12577.529, -644087.1, -38620.555, -0.0010312493, 0.0005921658, -10224.421, -10224.421, 0.0, 2.5006652, 2.4985743 
4.6384275e+2, 2.623296e+1, -22892.615, -649115.56, -37248.387, -0.00000026079786, 0.0003840315, -20684.826, -20684.826, 0.0, 2.5006475, 2.498574 
4.6384242e+2, 2.8731534e+1, -33209.02, -654144.7, -35876.484, 0.0010308805, 0.00018007931, -31143.02, -31143.02, 0.0, 2.50063, 2.498574 
4.6384203e+2, 3.1230202e+1, 8521.775, -551631.56, -46969.086, 0.0011271796, 0.00047149154, 12432.845, 12432.845, 0.0, 2.5006127, 2.498758 
4.6384162e+2, 3.3728966e+1, -1197.5956, -556027.6, -46284.418, 0.00047046476, 0.0009863641, 2636.99, 2636.99, 0.0, 2.5005958, 2.4987588 
4.6384117e+2, 3.622773e+1, -11143.399, -560888.9, -44556.715, -0.00018795942, 0.001508409, -7555.5073, -7555.5073, 0.0, 2.5005789, 2.4987586 
4.6384072e+2, 3.8726494e+1, -21090.809, -565750.94, -42829.168, -0.000848893, 0.00203863, -17743.523, -17743.523, 0.0, 2.5005617, 2.4987583 
4.6384028e+2, 4.122535e+1, 20745.813, -462051.1, -48616.395, -0.00088190654, 0.0024427522, 25592.697, 25592.697, 0.0, 2.5005438, 2.498945 
4.638398e+2, 4.3724295e+1, 9493.103, -466910.25, -48770.67, -0.00017635353, 0.0022002212, 14434.63, 14434.63, 0.0, 2.5005238, 2.4989462 
4.6383932e+2, 4.622324e+1, -2152.4136, -472577.8, -47905.484, 0.00052732445, 0.0019521907, 2676.4446, 2676.4446, 0.0, 2.5005038, 2.4989462 
4.6383888e+2, 4.8722184e+1, -13800.222, -478246.5, -47040.832, 0.0012285623, 0.0017009265, -9083.65, -9083.65, 0.0, 2.500484, 2.498946 
4.6383837e+2, 5.122122e+1, 26061.996, -377717.97, -47305.24, 0.0012926434, 0.0020973645, 31530.04, 31530.04, 0.0, 2.500465, 2.4991276 
4.6383786e+2, 5.3720355e+1, 15616.943, -381765.7, -46806.965, 0.000560634, 0.0025267508, 21055.809, 21055.809, 0.0, 2.5004458, 2.4991298 
4.638374e+2, 5.621949e+1, 4514.3447, -387171.3, -45468.137, -0.00017479456, 0.002951756, 9723.164, 9723.164, 0.0, 2.5004268, 2.4991298 
4.6383685e+2, 5.871862e+1, -6590.512, -392578.0, -44129.05, -0.0009128909, 0.003375882, -1609.616, -1609.616, 0.0, 2.500408, 2.4991295 
4.6383637e+2, 6.1217844e+1, 32983.527, -292822.5, -41985.125, -0.0010368833, 0.0036010412, 38306.977, 38306.977, 0.0, 2.5003889, 2.49931 
4.6383587e+2, 6.371715e+1, 22583.957, -296194.63, -41315.17, -0.0010180343, 0.0028772224, 27851.55, 27851.55, 0.0, 2.5003693, 2.4993136 
4.6383536e+2, 6.621645e+1, 11129.979, -301744.94, -40108.76, -0.00100467, 0.0021533854, 16189.861, 16189.861, 0.0, 2.5003498, 2.4993136 
4.6383488e+2, 6.871576e+1, -328.3657, -307297.34, -38902.367, -0.0009937054, 0.0014341812, 4525.0195, 4525.0195, 0.0, 2.50033, 2.4993134 
4.638344e+2, 7.121516e+1, 38389.5, -210884.56, -32794.53, -0.00044371013, 0.0016934758, 42631.754, 42631.754, 0.0, 2.5003128, 2.4994872 
4.6383393e+2, 7.3714656e+1, 31085.01, -211732.25, -32668.746, -0.00027502506, 0.0019667973, 35403.473, 35403.473, 0.0, 2.5002973, 2.4994931 
4.6383345e+2, 7.621414e+1, 22087.842, -216082.53, -32264.56, -0.00010680647, 0.0022408357, 26381.273, 26381.273, 0.0, 2.500282, 2.4994931 
4.63833e+2, 7.871364e+1, 13085.323, -220435.4, -31860.633, 0.0000676458, 0.002522385, 17354.223, 17354.223, 0.0, 2.5002666, 2.4994931 
4.638326e+2, 8.121322e+1, 51600.848, -121937.52, -23830.328, 0.000027409784, 0.0026690979, 54813.75, 54813.75, 0.0, 2.5002465, 2.499672 
4.6383214e+2, 8.371288e+1, 39178.543, -123863.69, -23188.8, -0.0007339586, 0.0016404572, 42412.445, 42412.445, 0.0, 2.500221, 2.499681 
4.6383172e+2, 8.621256e+1, 24213.201, -131053.414, -22469.455, -0.0015018976, 0.0006073235, 27399.488, 27399.488, 0.0, 2.5001953, 2.499681 
4.638313e+2, 8.871223e+1, 9241.457, -138246.23, -21749.973, -0.0022727563, -0.00042278512, 12382.046, 12382.046, 0.0, 2.5001695, 2.499681 
4.6383098e+2, 9.121198e+1, 45814.957, -44870.23, -8788.544, -0.0004199986, -0.000045716446, 46658.83, 46658.83, 0.0, 2.5001507, 2.4998503 
4.6383062e+2, 9.371185e+1, 42026.02, -40904.105, -8492.043, 0.00066345185, 0.0000348793, 42886.67, 42886.67, 0.0, 2.500138, 2.4998634 
4.638303e+2, 9.621171e+1, 34599.863, -44449.926, -7731.6597, 0.0017202595, 0.00007893148, 35348.977, 35348.977, 0.0, 2.5001252, 2.4998634 
4.6382996e+2, 9.871156e+1, 27152.623, -48005.89, -6971.6006, 0.0027780763, 0.00009974719, 27793.83, 27793.83, 0.0, 2.5001123, 2.4998634 
4.6634546e+2, 1.2491216e+0, -58594.586, -816435.06, -11184.924, -0.00199439, 0.00015838328, -58429.543, -58429.543, 0.0, 2.5007477, 2.4982388 
4.663454e+2, 3.747365e+0, -62302.984, -818413.3, -9999.088, -0.0014901683, 0.00047195452, -62170.773, -62170.773, 0.0, 2.5007415, 2.4982386 
4.663453e+2, 6.245608e+0, -65900.38, -820158.8, -8696.879, -0.0009889903, 0.0007812657, -65800.12, -65800.12, 0.0, 2.5007355, 2.4982386 
4.6634525e+2, 8.7438506e+0, -69499.11, -821904.94, -7394.8237, -0.00049085525, 0.0010863169, -69426.44, -69426.44, 0.0, 2.5007293, 2.4982383 
4.663451e+2, 1.1242174e+1, -26764.465, -726347.7, -28746.129, -0.0003775908, 0.0011267187, -25585.264, -25585.264, 0.0, 2.500722, 2.498406 
4.6634486e+2, 1.3740577e+1, -31760.746, -728588.25, -27933.49, -0.00050418207, 0.00062818604, -30642.78, -30642.78, 0.0, 2.500713, 2.4984062 
4.6634462e+2, 1.623898e+1, -36892.332, -731107.4, -26603.701, -0.0006329574, 0.00013684583, -35874.316, -35874.316, 0.0, 2.5007045, 2.4984062 
4.663444e+2, 1.8737382e+1, -42025.133, -733627.06, -25273.61, -0.00076411426, -0.00034698163, -41102.777, -41102.777, 0.0, 2.5006957, 2.498406 
4.6634412e+2, 2.1235877e+1, 127.9813, -634100.25, -41764.23, -0.0008587305, -0.00022061172, 2866.3523, 2866.3523, 0.0, 2.5006828, 2.4985828 
4.6634376e+2, 2.3734468e+1, -10014.736, -638778.2, -41290.348, -0.00065771607, 0.00027476784, -7314.8286, -7314.8286, 0.0, 2.5006652, 2.4985833 
4.6634337e+2, 2.6233056e+1, -20328.28, -643806.94, -39915.688, -0.0004591709, 0.00077297643, -17783.229, -17783.229, 0.0, 2.5006475, 2.4985833 
4.6634305e+2, 2.8731644e+1, -30643.14, -648836.25, -38541.293, -0.00026378408, 0.0012745986, -28249.549, -28249.549, 0.0, 2.50063, 2.498583 
4.6634266e+2, 3.1230327e+1, 11773.028, -544924.5, -49510.156, -0.00026593744, 0.0018096066, 16141.951, 16141.951, 0.0, 2.500613, 2.4987695 
4.6634218e+2, 3.3729103e+1, 2041.6804, -549347.1, -48854.684, -0.0002714887, 0.0021053168, 6336.8916, 6336.8916, 0.0, 2.5005958, 2.4987702 
4.6634173e+2, 3.6227876e+1, -7903.8447, -554209.3, -47124.316, -0.0002818342, 0.0024081506, -3868.7053, -3868.7053, 0.0, 2.5005789, 2.49877 
4.6634132e+2, 3.8726652e+1, -17850.975, -559072.3, -45394.105, -0.00029776536, 0.0027190794, -14070.027, -14070.027, 0.0, 2.500562, 2.4987698 
4.663408e+2, 4.122551e+1, 22397.326, -458693.84, -51601.6, -0.00017923773, 0.0029557222, 27869.836, 27869.836, 0.0, 2.5005438, 2.4989507 
4.6634033e+2, 4.372446e+1, 11147.5205, -463547.7, -51787.918, 0.00014082901, 0.0025295846, 16731.746, 16731.746, 0.0, 2.5005238, 2.498952 
4.6633986e+2, 4.6223408e+1, -500.72433, -469221.5, -50916.992, 0.00045488784, 0.002099224, 4966.5996, 4966.5996, 0.0, 2.500504, 2.498952 
4.6633932e+2, 4.8722354e+1, -12151.261, -474896.4, -50046.6, 0.00076253543, 0.0016672064, -6800.514, -6800.514, 0.0, 2.500484, 2.4989517 
4.6633884e+2, 5.12214e+1, 28644.113, -372462.44, -50177.832, 0.0007470727, 0.0020638716, 34826.008, 34826.008, 0.0, 2.500465, 2.4991367 
4.663383e+2, 5.3720546e+1, 18173.55, -376558.94, -49684.457, 0.00018150524, 0.0027328485, 24331.21, 24331.21, 0.0, 2.5004458, 2.4991388 
4.6633777e+2, 5.621969e+1, 7066.135, -381970.0, -48341.004, -0.0003930916, 0.003399918, 12982.923, 12982.923, 0.0, 2.500427, 2.4991386 
4.6633726e+2, 5.8718836e+1, -4043.5403, -387382.13, -46997.29, -0.0009755632, 0.004068256, 1634.2296, 1634.2296, 0.0, 2.500408, 2.4991386 
4.6633676e+2, 6.1218065e+1, 35344.984, -288060.16, -44920.324, -0.0008391927, 0.0042877174, 41468.387, 41468.387, 0.0, 2.500389, 2.4993181 
4.6633625e+2, 6.371737e+1, 24932.814, -291461.66, -44281.816, -0.00043051536, 0.0032636845, 31013.527, 31013.527, 0.0, 2.5003695, 2.4993217 
4.663357e+2, 6.6216683e+1, 13480.538, -297010.97, -43070.945, -0.00003739671, 0.0022399717, 19344.531, 19344.531, 0.0, 2.5003498, 2.4993215 
4.663352e+2, 6.8715996e+1, 2023.8977, -302562.4, -41860.082, 0.00034305957, 0.0012214415, 7672.0977, 7672.0977, 0.0, 2.5003302, 2.4993215 
4.6633473e+2, 7.121539e+1, 39321.4, -209142.75, -35117.492, 0.00069449446, 0.0013248328, 44189.465, 44189.465, 0.0, 2.500313, 2.49949 
4.6633422e+2, 7.37149e+1, 31985.748, -210060.28, -35006.844, -0.0000075368303, 0.0015768204, 36947.055, 36947.055, 0.0, 2.5002975, 2.499496 
4.6633375e+2, 7.621439e+1, 22993.045, -214405.77, -34595.543, -0.0007247964, 0.0018309434, 27931.822, 27931.822, 0.0, 2.5002823, 2.499496 
4.6633324e+2, 7.871389e+1, 13994.99, -218753.81, -34184.496, -0.0014500904, 0.002094042, 18911.895, 18911.895, 0.0, 2.5002668, 2.499496 
4.663328e+2, 8.121347e+1, 53207.58, -118882.6, -27628.973, -0.0012988137, 0.002267799, 57534.594, 57534.594, 0.0, 2.500247, 2.499677 
4.6633238e+2, 8.3713144e+1, 40760.742, -120857.66, -27074.445, -0.00064226636, 0.0012599799, 45175.67, 45175.67, 0.0, 2.5002213, 2.499686 
4.6633193e+2, 8.621282e+1, 25792.305, -128050.68, -26349.3, -0.0000101497935, 0.00025106693, 30180.11, 30180.11, 0.0, 2.5001955, 2.499686 
4.663315e+2, 8.8712496e+1, 10817.466, -135246.78, -25624.021, 0.000600443, -0.00075109897, 15182.251, 15182.251, 0.0, 2.5001698, 2.499686 
4.6633112e+2, 9.1212255e+1, 47770.61, -41303.39, -10687.687, 0.002121918, -0.0003731512, 49035.04, 49035.04, 0.0, 2.5001512, 2.4998562 
4.6633077e+2, 9.371213e+1, 43907.85, -37486.133, -10409.692, 0.00092925684, -0.00022384962, 45218.086, 45218.086, 0.0, 2.5001385, 2.4998689 
4.663304e+2, 9.621199e+1, 36474.063, -41039.902, -9630.443, -0.00033585582, -0.00011080529, 37652.64, 37652.64, 0.0, 2.5001256, 2.4998689 
4.6633005e+2, 9.8711854e+1, 29019.191, -44603.82, -8851.519, -0.0016448951, -0.000021520911, 30068.436, 30068.436, 0.0, 2.5001128, 2.499869 
4.6884623e+2, 1.2491282e+0, -62095.395, -814272.1, -12160.23, -0.00008904392, 0.00038692073, -61898.855, -61898.855, 0.0, 2.5007377, 2.4982476 
4.6884614e+2, 3.7473845e+0, -65611.69, -816164.4, -11065.16, -0.0007145799, 0.001157058, -65448.594, -65448.594, 0.0, 2.5007317, 2.4982471 
4.6884605e+2, 6.2456405e+0, -69058.22, -817836.9, -9858.861, -0.0013476961, 0.0019222555, -68928.43, -68928.43, 0.0, 2.5007257, 2.4982471 
4.6884593e+2, 8.7438965e+0, -72551.59, -819531.94, -8659.676, -0.0019883937, 0.0026825112, -72451.22, -72451.22, 0.0, 2.5007198, 2.498247 
4.6884578e+2, 1.1242227e+1, -29701.627, -723939.6, -30492.033, -0.001976639, 0.002617332, -28364.943, -28364.943, 0.0, 2.5007129, 2.4984143 
4.6884555e+2, 1.374063e+1, -34467.227, -725969.9, -29771.096, -0.0011792202, 0.0012927452, -33187.867, -33187.867, 0.0, 2.5007043, 2.498415 
4.6884534e+2, 1.6239035e+1, -39448.906, -728415.56, -28513.123, -0.0003868393, -0.000024505105, -38270.895, -38270.895, 0.0, 2.5006957, 2.4984148 
4.688451e+2, 1.8737437e+1, -44451.184, -730871.2, -27252.865, 0.00040033142, -0.0013338998, -43370.867, -43370.867, 0.0, 2.5006874, 2.4984148 
4.688448e+2, 2.1235943e+1, -1990.1279, -631119.4, -45116.344, 0.0003627174, -0.0012475044, 1228.8021, 1228.8021, 0.0, 2.500675, 2.498592 
4.688444e+2, 2.3734547e+1, -11724.11, -635535.8, -44751.207, -0.00026554923, -0.0000523008, -8530.087, -8530.087, 0.0, 2.5006578, 2.4985924 
4.6884403e+2, 2.6233152e+1, -21699.982, -640402.6, -43440.04, -0.00089925603, 0.001145201, -18664.883, -18664.883, 0.0, 2.5006409, 2.4985924 
4.6884367e+2, 2.8731757e+1, -31707.203, -645284.56, -42131.617, -0.0015390477, 0.002345705, -28827.727, -28827.727, 0.0, 2.5006237, 2.4985921 
4.6884322e+2, 3.1230453e+1, 11683.761, -539855.75, -53048.61, -0.0016393951, 0.0031309747, 16739.775, 16739.775, 0.0, 2.5006073, 2.498781 
4.6884277e+2, 3.3729237e+1, 2254.8499, -544130.6, -52506.617, -0.0009951129, 0.0032013466, 7254.8813, 7254.8813, 0.0, 2.5005908, 2.4987814 
4.6884233e+2, 3.622802e+1, -7423.21, -548864.6, -50853.84, -0.00035836638, 0.0032787747, -2688.269, -2688.269, 0.0, 2.500574, 2.4987814 
4.6884185e+2, 3.8726804e+1, -17135.934, -553615.4, -49200.348, 0.0002700581, 0.0033642875, -12661.112, -12661.112, 0.0, 2.5005577, 2.4987812 
4.6884137e+2, 4.122567e+1, 21776.883, -456514.03, -55854.047, 0.00053174986, 0.0034666983, 28212.826, 28212.826, 0.0, 2.50054, 2.4989562 
4.6884084e+2, 4.372462e+1, 10956.002, -461072.94, -56066.63, 0.00046909731, 0.0028441504, 17524.088, 17524.088, 0.0, 2.5005207, 2.4989576 
4.6884033e+2, 4.6223575e+1, -361.12506, -466591.97, -55183.375, 0.00039683827, 0.002219001, 6081.3896, 6081.3896, 0.0, 2.5005014, 2.4989576 
4.6883982e+2, 4.8722526e+1, -11719.981, -472131.06, -54303.31, 0.0003146415, 0.0015944615, -5401.8657, -5401.8657, 0.0, 2.500482, 2.4989574 
4.688393e+2, 5.122158e+1, 30204.422, -367801.53, -54289.156, 0.00020779556, 0.0020488652, 37476.74, 37476.74, 0.0, 2.5004635, 2.4991455 
4.6883875e+2, 5.3720737e+1, 20002.543, -371698.25, -53799.26, -0.0001888068, 0.0029474467, 27257.385, 27257.385, 0.0, 2.500445, 2.4991477 
4.6883819e+2, 5.621989e+1, 9059.052, -377032.9, -52439.188, -0.00059934624, 0.0038462824, 16054.614, 16054.614, 0.0, 2.500426, 2.4991474 
4.6883768e+2, 5.8719045e+1, -1945.5968, -382397.03, -51075.76, -0.0010224357, 0.004748938, 4792.025, 4792.025, 0.0, 2.5004072, 2.4991474 
4.6883714e+2, 6.1218286e+1, 37379.09, -283488.25, -49038.566, -0.00063242024, 0.0049726316, 44706.39, 44706.39, 0.0, 2.5003886, 2.499326 
4.688366e+2, 6.37176e+1, 27172.807, -286772.13, -48429.84, 0.00016278391, 0.003646717, 34473.906, 34473.906, 0.0, 2.5003693, 2.4993298 
4.688361e+2, 6.621691e+1, 15843.171, -292262.34, -47203.332, 0.00093339087, 0.0023213124, 22912.748, 22912.748, 0.0, 2.50035, 2.4993296 
4.6883553e+2, 6.8716234e+1, 4437.7656, -297789.03, -45977.777, 0.0016819878, 0.0010016826, 11277.573, 11277.573, 0.0, 2.5003304, 2.4993296 
4.6883506e+2, 7.1215636e+1, 40228.484, -207458.92, -38541.906, 0.0018591768, 0.0009785475, 46087.29, 46087.29, 0.0, 2.5003133, 2.499493 
4.6883452e+2, 7.371513e+1, 32735.717, -208447.22, -38349.832, 0.00028058095, 0.0012024018, 38686.78, 38686.78, 0.0, 2.5002975, 2.4994988 
4.68834e+2, 7.6214635e+1, 23480.293, -212916.75, -37833.133, -0.0013271985, 0.0014286658, 29387.52, 29387.52, 0.0, 2.5002816, 2.4994988 
4.6883354e+2, 7.871413e+1, 14115.747, -217438.83, -37317.91, -0.0029561853, 0.001664657, 19981.408, 19981.408, 0.0, 2.5002656, 2.4994986 
4.6883303e+2, 8.1213725e+1, 53840.496, -116336.09, -32133.088, -0.0025888167, 0.0018842667, 59705.78, 59705.78, 0.0, 2.5002456, 2.499682 
4.6883258e+2, 8.37134e+1, 41474.6, -118255.32, -31580.238, -0.0005158761, 0.00089788693, 47491.67, 47491.67, 0.0, 2.50022, 2.499691 
4.6883217e+2, 8.621308e+1, 26421.205, -125490.75, -30744.984, 0.0015167651, -0.00008729669, 32407.674, 32407.674, 0.0, 2.500194, 2.499691 
4.688317e+2, 8.8712764e+1, 11207.431, -132803.42, -29898.688, 0.0035116302, -0.0010627966, 17168.105, 17168.105, 0.0, 2.500168, 2.499691 
4.688313e+2, 9.1212535e+1, 48149.156, -38509.96, -12831.653, 0.0046944353, -0.00065609586, 50009.223, 50009.223, 0.0, 2.500149, 2.499862 
4.688309e+2, 9.37124e+1, 43676.027, -35068.805, -12510.854, 0.0012362833, -0.00044522033, 45615.94, 45615.94, 0.0, 2.5001354, 2.4998746 
4.688305e+2, 9.6212274e+1, 35426.566, -39019.707, -11610.823, -0.0023362453, -0.00027045226, 37195.39, 37195.39, 0.0, 2.500121, 2.4998746 
4.688301e+2, 9.871215e+1, 26903.95, -43102.137, -10711.459, -0.0059939357, -0.00011964463, 28506.21, 28506.21, 0.0, 2.5001066, 2.4998746 
4.7134697e+2, 1.2491331e+0, -47738.27, -802269.06, -12463.696, 0.0011692175, 0.00031540095, -47532.445, -47532.445, 0.0, 2.5007567, 2.4982588 
4.7134688e+2, 3.7473994e+0, -50981.23, -804034.2, -10296.199, -0.00007296459, 0.0009541168, -50840.484, -50840.484, 0.0, 2.5007515, 2.4982584 
4.7134677e+2, 6.245666e+0, -54108.95, -805557.7, -8014.4688, -0.0013045206, 0.0016033851, -54023.484, -54023.484, 0.0, 2.500746, 2.4982584 
4.7134668e+2, 8.7439317e+0, -57238.016, -807081.8, -5732.837, -0.0025254497, 0.002263206, -57194.19, -57194.19, 0.0, 2.5007408, 2.4982584 
4.713465e+2, 1.1242274e+1, -15380.297, -711563.1, -27142.621, -0.0026256517, 0.0020916904, -14323.67, -14323.67, 0.0, 2.5007315, 2.4984267 
4.713463e+2, 1.3740689e+1, -23133.18, -715055.4, -25218.7, -0.0014676292, 0.0006740573, -22215.244, -22215.244, 0.0, 2.5007179, 2.4984272 
4.7134605e+2, 1.6239104e+1, -31062.201, -718910.0, -22739.021, -0.00030868308, -0.0007443198, -30311.31, -30311.31, 0.0, 2.5007043, 2.4984272 
4.7134578e+2, 1.8737516e+1, -38993.0, -722765.44, -20259.924, 0.0008510042, -0.002162975, -38393.23, -38393.23, 0.0, 2.5006907, 2.498427 
4.7134545e+2, 2.1236034e+1, 1808.7478, -623737.5, -37813.39, 0.000833669, -0.002087896, 4086.2222, 4086.2222, 0.0, 2.5006754, 2.4986043 
4.7134507e+2, 2.3734652e+1, -8418.449, -628413.2, -36367.484, -0.0001498287, -0.0007927647, -6292.5054, -6292.5054, 0.0, 2.5006576, 2.4986048 
4.7134468e+2, 2.623327e+1, -18844.152, -633497.2, -33935.203, -0.0011308012, 0.00051498803, -16976.254, -16976.254, 0.0, 2.5006397, 2.4986045 
4.7134426e+2, 2.873189e+1, -29271.074, -638581.8, -31502.998, -0.0021098275, 0.0018360714, -27646.617, -27646.617, 0.0, 2.5006218, 2.4986045 
4.7134385e+2, 3.1230596e+1, 12383.984, -534525.1, -41935.79, -0.002241411, 0.0026150525, 15580.842, 15580.842, 0.0, 2.500603, 2.4987922 
4.7134334e+2, 3.372939e+1, 542.9036, -539982.2, -41363.598, -0.0013353791, 0.0025592952, 3689.924, 3689.924, 0.0, 2.5005825, 2.4987926 
4.713429e+2, 3.622818e+1, -11498.709, -545850.2, -39645.844, -0.0004311622, 0.002512103, -8573.2295, -8573.2295, 0.0, 2.5005617, 2.4987924 
4.713424e+2, 3.8726974e+1, -23542.016, -551718.94, -37928.79, 0.000470526, 0.0024744382, -20832.223, -20832.223, 0.0, 2.5005412, 2.4987924 
4.713419e+2, 4.1225854e+1, 14122.045, -455487.6, -43858.4, 0.00077830045, 0.0026375733, 18183.008, 18183.008, 0.0, 2.500522, 2.4989667 
4.7134137e+2, 4.372482e+1, 3597.4846, -459937.2, -42800.52, 0.0005169798, 0.0023316636, 7516.3438, 7516.3438, 0.0, 2.500503, 2.4989681 
4.7134084e+2, 4.6223786e+1, -7359.219, -465278.1, -40617.414, 0.00025624735, 0.0020423832, -3784.3613, -3784.3613, 0.0, 2.5004842, 2.4989681 
4.7134027e+2, 4.8722747e+1, -18317.953, -470619.97, -38434.2, -0.000004137162, 0.0017726871, -15075.269, -15075.269, 0.0, 2.5004656, 2.498968 
4.7133976e+2, 5.122181e+1, 22403.643, -367666.88, -37929.52, -0.00007248632, 0.00230767, 26057.59, 26057.59, 0.0, 2.5004458, 2.499154 
4.7133917e+2, 5.3720975e+1, 10685.735, -372309.9, -37640.51, -0.0002498708, 0.002987488, 14349.958, 14349.958, 0.0, 2.5004246, 2.4991562 
4.7133863e+2, 5.622014e+1, -1694.2357, -378322.7, -36472.414, -0.00042911115, 0.0036760399, 1805.21, 1805.21, 0.0, 2.5004034, 2.4991562 
4.7133806e+2, 5.87193e+1, -14076.339, -384336.5, -35305.063, -0.00060860586, 0.004376933, -10739.992, -10739.992, 0.0, 2.5003822, 2.499156 
4.7133753e+2, 6.121854e+1, 24502.596, -286842.44, -33340.79, -0.00014808145, 0.0046366034, 28032.906, 28032.906, 0.0, 2.5003636, 2.4993324 
4.7133696e+2, 6.3717866e+1, 15908.916, -289413.7, -33457.445, 0.00051356846, 0.0036176606, 19532.207, 19532.207, 0.0, 2.5003471, 2.499336 
4.7133642e+2, 6.6217196e+1, 6305.491, -294077.06, -32947.71, 0.0011723217, 0.0026006938, 9876.926, 9876.926, 0.0, 2.5003307, 2.4993358 
4.713359e+2, 6.8716514e+1, -3299.986, -298741.4, -32438.531, 0.0018309387, 0.0015907327, 219.72992, 219.72992, 0.0, 2.5003142, 2.4993358 
4.7133535e+2, 7.1215934e+1, 31478.182, -208480.0, -25113.666, 0.0019475485, 0.0017160382, 34078.363, 34078.363, 0.0, 2.5002947, 2.4995 
4.7133482e+2, 7.3715436e+1, 19780.836, -211597.83, -24122.635, 0.0002669922, 0.0019381737, 22269.012, 22269.012, 0.0, 2.500272, 2.4995058 
4.7133428e+2, 7.6214945e+1, 6486.87, -218024.63, -22789.328, -0.0014171115, 0.0021431001, 8776.774, 8776.774, 0.0, 2.5002491, 2.4995055 
4.7133377e+2, 7.871445e+1, -6810.16, -224452.88, -21456.48, -0.0030963693, 0.002337855, -4715.0244, -4715.0244, 0.0, 2.5002263, 2.4995055 
4.7133327e+2, 8.121404e+1, 32690.262, -124806.16, -16242.641, -0.0025900898, 0.0026082883, 34347.92, 34347.92, 0.0, 2.5002074, 2.4996858 
4.713328e+2, 8.371372e+1, 26246.705, -124007.734, -16530.994, -0.000101159116, 0.0017665927, 28043.947, 28043.947, 0.0, 2.5001922, 2.4996946 
4.7133234e+2, 8.621341e+1, 17368.297, -128255.26, -16518.266, 0.0024103448, 0.0009026562, 19218.477, 19218.477, 0.0, 2.500177, 2.4996946 
4.7133186e+2, 8.87131e+1, 8484.138, -132505.55, -16505.719, 0.0049465657, 0.000024895297, 10390.6875, 10390.6875, 0.0, 2.5001616, 2.4996946 
4.7133145e+2, 9.121287e+1, 44108.563, -38067.637, -314.1517, 0.006023886, 0.0004771782, 44109.76, 44109.76, 0.0, 2.5001395, 2.4998674 
4.7133103e+2, 9.371275e+1, 29775.1, -39495.414, -732.34894, 0.0016169162, 0.0007947662, 29782.842, 29782.842, 0.0, 2.500109, 2.4998796 
4.7133058e+2, 9.6212626e+1, 12007.558, -48025.957, -486.74374, -0.0028108135, 0.0010899715, 12011.504, 12011.504, 0.0, 2.5000784, 2.4998796 
4.7133017e+2, 9.8712504e+1, -5772.145, -56562.355, -241.046, -0.007228939, 0.0013742256, -5771.001, -5771.001, 0.0, 2.500048, 2.4998798 
4.7384775e+2, 1.249138e+0, -43492.84, -793449.06, -13283.178, 0.0007457522, 0.000042593725, -43257.64, -43257.64, 0.0, 2.5007567, 2.498274 
4.7384763e+2, 3.7474138e+0, -46728.234, -795201.75, -11102.323, -0.000587316, 0.00013311334, -46563.586, -46563.586, 0.0, 2.5007515, 2.4982736 
4.7384754e+2, 6.24569e+0, -49851.14, -796718.5, -8816.642, -0.0019155439, 0.00023074307, -49747.08, -49747.08, 0.0, 2.500746, 2.4982736 
4.7384742e+2, 8.743966e+0, -52975.395, -798235.94, -6531.058, -0.0032389306, 0.00033548323, -52918.164, -52918.164, 0.0, 2.5007408, 2.4982736 
4.7384724e+2, 1.12423226e+1, -10717.696, -701841.3, -29188.73, -0.0034375878, 0.00010578042, -9487.138, -9487.138, 0.0, 2.5007315, 2.4984434 
4.7384697e+2, 1.374076e+1, -18528.521, -705469.06, -27273.287, -0.0023610159, -0.00072286313, -17447.404, -17447.404, 0.0, 2.5007179, 2.4984436 
4.738467e+2, 1.6239196e+1, -26447.213, -709317.4, -24787.584, -0.0012869305, -0.0015577844, -25548.627, -25548.627, 0.0, 2.5007043, 2.4984436 
4.7384647e+2, 1.8737632e+1, -34367.68, -713166.5, -22302.463, -0.0002155277, -0.0023987147, -33635.703, -33635.703, 0.0, 2.5006907, 2.4984434 
4.7384614e+2, 2.1236166e+1, 6406.083, -614204.44, -40486.438, -0.00020681319, -0.0022635446, 9036.13, 9036.13, 0.0, 2.5006754, 2.4986205 
4.7384572e+2, 2.3734796e+1, -3876.9233, -618996.8, -39063.848, -0.0010748781, -0.0013816709, -1406.0568, -1406.0568, 0.0, 2.5006576, 2.498621 
4.738453e+2, 2.6233426e+1, -14302.534, -624081.3, -36628.406, -0.0019431218, -0.00048728447, -12110.208, -12110.208, 0.0, 2.5006397, 2.4986207 
4.738449e+2, 2.8732058e+1, -24729.365, -629166.4, -34193.04, -0.0028120468, 0.0004202127, -22801.213, -22801.213, 0.0, 2.5006218, 2.4986207 
4.738444e+2, 3.1230775e+1, 15650.487, -527797.94, -45007.01, -0.002886522, 0.00095218106, 19352.633, 19352.633, 0.0, 2.5006032, 2.4988036 
4.7384393e+2, 3.372958e+1, 3786.9395, -533308.25, -44472.156, -0.0020032644, 0.00084598426, 7444.3833, 7444.3833, 0.0, 2.5005825, 2.498804 
4.7384346e+2, 3.6228383e+1, -8251.416, -539175.75, -42751.242, -0.0011244449, 0.0007465033, -4831.0234, -4831.0234, 0.0, 2.500562, 2.4988039 
4.7384295e+2, 3.8727185e+1, -20291.463, -545044.06, -41031.027, -0.0002506782, 0.0006545953, -17102.578, -17102.578, 0.0, 2.5005412, 2.4988039 
4.7384244e+2, 4.1226083e+1, 18310.729, -446860.66, -46692.633, 0.000076577715, 0.001050598, 22951.314, 22951.314, 0.0, 2.500522, 2.4989815 
4.7384185e+2, 4.3725067e+1, 7720.189, -451449.53, -45636.89, -0.00015905676, 0.0014386858, 12212.098, 12212.098, 0.0, 2.500503, 2.4989827 
4.738413e+2, 4.6224058e+1, -3233.2544, -456785.88, -43446.555, -0.0003977303, 0.0018399544, 891.0592, 891.0592, 0.0, 2.5004845, 2.4989827 
4.7384074e+2, 4.8723042e+1, -14188.728, -462123.2, -41256.11, -0.00063949986, 0.0022565993, -10420.614, -10420.614, 0.0, 2.5004656, 2.4989824 
4.7384018e+2, 5.1222116e+1, 24719.465, -362941.22, -41131.285, -0.0005165577, 0.002808981, 29035.494, 29035.494, 0.0, 2.5004458, 2.4991622 
4.738396e+2, 5.3721285e+1, 12932.616, -367731.78, -40843.082, -0.0003801507, 0.0028922718, 17265.523, 17265.523, 0.0, 2.5004246, 2.499164 
4.73839e+2, 5.622045e+1, 554.19666, -373745.6, -39671.215, -0.0002496244, 0.0029823508, 4712.661, 4712.661, 0.0, 2.5004034, 2.499164 
4.7383845e+2, 5.871961e+1, -11826.355, -379760.44, -38500.09, -0.00012313027, 0.0030824605, -7840.9316, -7840.9316, 0.0, 2.5003822, 2.4991639 
4.7383788e+2, 6.121886e+1, 25612.057, -284638.78, -35859.39, 0.000274327, 0.0033531496, 29702.816, 29702.816, 0.0, 2.5003636, 2.4993362 
4.7383732e+2, 6.3718194e+1, 16944.566, -287363.63, -35941.19, 0.00040488463, 0.0030628932, 21131.885, 21131.885, 0.0, 2.5003471, 2.4993393 
4.7383675e+2, 6.621753e+1, 7338.68, -292032.38, -35427.98, 0.0005276496, 0.0027771222, 11474.149, 11474.149, 0.0, 2.5003307, 2.4993393 
4.7383618e+2, 6.8716866e+1, -2269.2578, -296702.13, -34915.324, 0.00064590364, 0.0025002859, 1814.5343, 1814.5343, 0.0, 2.5003142, 2.499339 
4.7383565e+2, 7.1216285e+1, 34198.953, -203004.86, -28550.35, 0.0007727051, 0.0029214055, 37586.94, 37586.94, 0.0, 2.500295, 2.4995093 
4.7383508e+2, 7.3715806e+1, 22416.813, -206297.02, -27570.584, -0.00029900725, 0.0030647602, 25693.402, 25693.402, 0.0, 2.500272, 2.4995146 
4.7383454e+2, 7.6215315e+1, 9117.165, -212732.86, -26228.56, -0.0013814919, 0.0031978267, 12175.905, 12175.905, 0.0, 2.5002494, 2.4995146 
4.7383398e+2, 7.871483e+1, -4185.5474, -219170.17, -24886.998, -0.0024666053, 0.0033271047, -1342.1908, -1342.1908, 0.0, 2.5002265, 2.4995146 
4.7383347e+2, 8.121442e+1, 33124.086, -124186.375, -18578.697, -0.0019251577, 0.0035857747, 35288.49, 35288.49, 0.0, 2.5002077, 2.4996867 
4.73833e+2, 8.371411e+1, 26528.967, -123699.73, -18845.326, 0.00013689631, 0.0028197477, 28856.93, 28856.93, 0.0, 2.5001924, 2.4996948 
4.7383252e+2, 8.62138e+1, 17645.0, -127954.15, -18827.146, 0.0022088452, 0.0020359685, 20040.104, 20040.104, 0.0, 2.5001771, 2.4996948 
4.7383204e+2, 8.8713485e+1, 8755.284, -132211.33, -18809.15, 0.004291994, 0.0012425871, 11221.828, 11221.828, 0.0, 2.500162, 2.499695 
4.7383156e+2, 9.121326e+1, 45030.62, -36539.137, -4850.079, 0.005390522, 0.0017015338, 45317.992, 45317.992, 0.0, 2.50014, 2.4998698 
4.7383112e+2, 9.371314e+1, 30610.87, -38159.773, -5336.6157, 0.0011939231, 0.002058451, 31022.527, 31022.527, 0.0, 2.5001094, 2.4998817 
4.7383067e+2, 9.621302e+1, 12854.929, -46677.934, -5079.4043, -0.0030496921, 0.002388446, 13285.198, 13285.198, 0.0, 2.500079, 2.4998817 
4.738302e+2, 9.87129e+1, -4913.1724, -55201.95, -4822.1006, -0.0073083807, 0.0027020061, -4454.965, -4454.965, 0.0, 2.5000484, 2.4998817 
4.763485e+2, 1.2491427e+0, -39246.66, -784627.5, -14102.562, 0.00032070093, -0.00023448856, -38979.934, -38979.934, 0.0, 2.5007567, 2.498289 
4.763484e+2, 3.747428e+0, -42478.254, -786375.56, -11908.631, -0.0011064251, -0.0007007153, -42287.664, -42287.664, 0.0, 2.5007515, 2.4982886 
4.7634828e+2, 6.245714e+0, -45596.348, -787885.6, -9618.997, -0.0025344966, -0.0011632743, -45471.72, -45471.72, 0.0, 2.500746, 2.4982886 
4.7634813e+2, 8.7439996e+0, -48715.79, -789396.3, -7329.462, -0.003963513, -0.0016221651, -48643.266, -48643.266, 0.0, 2.5007408, 2.4982886 
4.7634795e+2, 1.12423725e+1, -6125.7314, -692266.4, -31249.14, -0.0042440025, -0.0018495917, -4705.4805, -4705.4805, 0.0, 2.5007315, 2.4984598 
4.7634768e+2, 1.3740832e+1, -13927.159, -695889.6, -29327.719, -0.003250451, -0.0021068708, -12668.248, -12668.248, 0.0, 2.5007179, 2.49846 
4.7634742e+2, 1.623929e+1, -21835.52, -699731.6, -26835.99, -0.0022628452, -0.0023761434, -20774.818, -20774.818, 0.0, 2.5007043, 2.49846 
4.7634715e+2, 1.8737747e+1, -29745.654, -703574.44, -24344.846, -0.0012813454, -0.0026571557, -28867.242, -28867.242, 0.0, 2.5006907, 2.4984598 
4.763468e+2, 2.1236299e+1, 10953.798, -604774.5, -43161.742, -0.0012467025, -0.0024363934, 13964.656, 13964.656, 0.0, 2.5006754, 2.4986367 
4.7634637e+2, 2.3734942e+1, 662.06104, -609585.75, -41759.85, -0.001998884, -0.0019765305, 3506.4705, 3506.4705, 0.0, 2.5006576, 2.498637 
4.7634596e+2, 2.6233587e+1, -9763.457, -614670.7, -39321.246, -0.0027539502, -0.0015044493, -7218.1387, -7218.1387, 0.0, 2.5006397, 2.498637 
4.7634548e+2, 2.8732228e+1, -20190.195, -619756.25, -36882.715, -0.0035123257, -0.0010194771, -17929.852, -17929.852, 0.0, 2.500622, 2.4986367 
4.7634503e+2, 3.1230956e+1, 18895.934, -521114.63, -48071.625, -0.0035329636, -0.0007204876, 23141.877, 23141.877, 0.0, 2.5006032, 2.498815 
4.7634453e+2, 3.372977e+1, 7028.835, -526638.9, -47579.895, -0.0026721628, -0.00088567694, 11237.693, 11237.693, 0.0, 2.5005825, 2.4988155 
4.76344e+2, 3.6228585e+1, -5006.2627, -532505.94, -45855.82, -0.0018184007, -0.0010461662, -1049.6694, -1049.6694, 0.0, 2.500562, 2.4988153 
4.7634348e+2, 3.8727397e+1, -17043.053, -538373.75, -44132.445, -0.00097221567, -0.0012010366, -13333.483, -13333.483, 0.0, 2.5005414, 2.498815 
4.7634295e+2, 4.122631e+1, 22418.816, -438401.25, -49530.8, -0.0006180241, -0.00050688663, 27682.463, 27682.463, 0.0, 2.500522, 2.498996 
4.7634238e+2, 4.3725318e+1, 11839.497, -442969.0, -48473.2, -0.0008288596, 0.0005553389, 16948.352, 16948.352, 0.0, 2.5005033, 2.4989972 
4.7634175e+2, 4.6224326e+1, 889.3146, -448300.78, -46275.637, -0.0010464246, 0.0016266116, 5607.088, 5607.088, 0.0, 2.5004845, 2.498997 
4.763412e+2, 4.8723334e+1, -10062.898, -453633.53, -44077.96, -0.0012705296, 0.002709053, -5725.254, -5725.254, 0.0, 2.5004656, 2.498997 
4.763406e+2, 5.1222426e+1, 26970.373, -358350.53, -44333.72, -0.00095864036, 0.003313072, 32005.467, 32005.467, 0.0, 2.500446, 2.49917 
4.7634003e+2, 5.372159e+1, 15177.878, -363157.1, -44044.598, -0.00050626067, 0.0027903153, 20237.744, 20237.744, 0.0, 2.5004249, 2.499172 
4.7633943e+2, 5.622075e+1, 2801.009, -369171.97, -42868.957, -0.00006376075, 0.0022718955, 7677.617, 7677.617, 0.0, 2.5004036, 2.4991717 
4.7633883e+2, 5.871992e+1, -9577.992, -375187.84, -41694.063, 0.000370929, 0.0017611965, -4883.4897, -4883.4897, 0.0, 2.5003824, 2.4991717 
4.7633827e+2, 6.1219174e+1, 26684.207, -282512.72, -38377.79, 0.00069767947, 0.0020691243, 31376.484, 31376.484, 0.0, 2.5003638, 2.4993398 
4.7633764e+2, 6.371852e+1, 17978.506, -285317.16, -38423.973, 0.000298958, 0.0025003091, 22770.652, 22770.652, 0.0, 2.5003474, 2.499343 
4.7633708e+2, 6.6217864e+1, 8370.16, -289991.3, -37907.29, -0.000112334856, 0.0029380547, 13111.01, 13111.01, 0.0, 2.500331, 2.4993427 
4.7633648e+2, 6.871721e+1, -1240.239, -294666.44, -37391.156, -0.00053251337, 0.0033866647, 3449.5422, 3449.5422, 0.0, 2.5003145, 2.4993427 
4.763359e+2, 7.121664e+1, 36844.45, -197686.19, -31971.281, -0.00040030765, 0.004154517, 41124.668, 41124.668, 0.0, 2.5002952, 2.4995184 
4.7633535e+2, 7.371617e+1, 25049.438, -201003.23, -31017.398, -0.00086054835, 0.004198817, 29228.186, 29228.186, 0.0, 2.5002723, 2.4995236 
4.7633478e+2, 7.621569e+1, 11744.108, -207448.16, -29666.658, -0.0013386757, 0.0042389464, 15688.378, 15688.378, 0.0, 2.5002496, 2.4995236 
4.763342e+2, 7.871521e+1, -1564.2858, -213894.53, -28316.379, -0.0018269066, 0.004281671, 2147.116, 2147.116, 0.0, 2.5002267, 2.4995234 
4.7633368e+2, 8.1214815e+1, 33477.35, -123734.01, -20890.234, -0.0012574136, 0.0045689186, 36205.887, 36205.887, 0.0, 2.500208, 2.4996872 
4.763332e+2, 8.3714503e+1, 26810.049, -123394.22, -21158.979, 0.00037943045, 0.003874988, 29733.762, 29733.762, 0.0, 2.5001926, 2.4996953 
4.7633266e+2, 8.6214185e+1, 17920.525, -127655.53, -21135.35, 0.0020135911, 0.003167083, 20926.957, 20926.957, 0.0, 2.5001774, 2.4996953 
4.763322e+2, 8.871387e+1, 9025.25, -131919.61, -21111.904, 0.0036454338, 0.0024537987, 12119.633, 12119.633, 0.0, 2.5001621, 2.4996953 
4.7633174e+2, 9.1213655e+1, 45925.305, -35067.71, -9366.905, 0.0047816397, 0.0029471037, 46994.48, 46994.48, 0.0, 2.5001404, 2.4998722 
4.7633123e+2, 9.3713534e+1, 31445.105, -36827.49, -9941.895, 0.0007896253, 0.003332501, 32863.387, 32863.387, 0.0, 2.50011, 2.499884 
4.7633076e+2, 9.621342e+1, 13700.767, -45333.27, -9673.077, -0.003275852, 0.0036859286, 15245.345, 15245.345, 0.0, 2.5000794, 2.499884 
4.7633025e+2, 9.8713297e+1, -4055.7324, -53844.906, -9404.168, -0.0073810797, 0.004017439, -2338.6897, -2338.6897, 0.0, 2.5000489, 2.499884 
4.7884923e+2, 1.2491475e+0, -40125.086, -778292.6, -14993.11, -0.00009912532, -0.0005138214, -39820.684, -39820.684, 0.0, 2.500748, 2.4983041 
4.788491e+2, 3.7474424e+0, -43244.266, -779989.94, -12931.412, -0.0016221208, -0.0015412634, -43017.363, -43017.363, 0.0, 2.500743, 2.4983037 
4.78849e+2, 6.2457377e+0, -46298.883, -781465.3, -10790.219, -0.003151247, -0.0025684377, -46140.547, -46140.547, 0.0, 2.5007377, 2.4983037 
4.7884887e+2, 8.744033e+0, -49408.535, -782967.1, -8655.336, -0.004686505, -0.003595344, -49306.426, -49306.426, 0.0, 2.5007322, 2.4983037 
4.788487e+2, 1.12424225e+1, -6466.255, -685193.94, -33975.34, -0.005032012, -0.003760397, -4769.778, -4769.778, 0.0, 2.5007231, 2.4984758 
4.788484e+2, 1.3740903e+1, -14014.417, -688587.8, -32136.611, -0.004125204, -0.0034669659, -12486.891, -12486.891, 0.0, 2.5007098, 2.4984765 
4.788481e+2, 1.6239384e+1, -21762.78, -692351.25, -29753.09, -0.0032273221, -0.0031892667, -20445.264, -20445.264, 0.0, 2.5006967, 2.4984763 
4.7884783e+2, 1.8737863e+1, -29539.93, -696128.56, -27381.3, -0.0023384488, -0.0029269042, -28417.086, -28417.086, 0.0, 2.5006833, 2.4984763 
4.7884747e+2, 2.1236433e+1, 11248.644, -597482.1, -46948.844, -0.0022787435, -0.0025931008, 14848.324, 14848.324, 0.0, 2.5006683, 2.4986527 
4.7884703e+2, 2.3735087e+1, 1293.6411, -602069.9, -45663.723, -0.0029151384, -0.0025630149, 4729.9893, 4729.9893, 0.0, 2.500651, 2.4986532 
4.7884655e+2, 2.6233742e+1, -8857.637, -607022.4, -43314.355, -0.003556835, -0.0025215317, -5737.43, -5737.43, 0.0, 2.5006335, 2.498653 
4.788461e+2, 2.8732395e+1, -19034.512, -611987.2, -40958.77, -0.00420418, -0.0024677194, -16218.618, -16218.618, 0.0, 2.500616, 2.498653 
4.7884563e+2, 3.1231135e+1, 19027.602, -515964.72, -52568.15, -0.0041747484, -0.0023876962, 24143.998, 24143.998, 0.0, 2.500598, 2.4988265 
4.788451e+2, 3.3729962e+1, 7488.782, -521312.34, -52150.83, -0.0033370638, -0.0026201725, 12582.869, 12582.869, 0.0, 2.500578, 2.498827 
4.7884455e+2, 3.6228788e+1, -4270.1406, -527046.8, -50448.887, -0.002508614, -0.0028498198, 553.7551, 553.7551, 0.0, 2.5005577, 2.4988267 
4.7884402e+2, 3.872761e+1, -16070.814, -532801.4, -48747.426, -0.0016898903, -0.0030755037, -11512.285, -11512.285, 0.0, 2.5005376, 2.4988265 
4.7884345e+2, 4.122654e+1, 24421.832, -431078.16, -53897.668, -0.0013021266, -0.0020196221, 30712.473, 30712.473, 0.0, 2.5005186, 2.4990103 
4.7884285e+2, 4.3725568e+1, 14177.791, -435346.3, -52844.78, -0.0014904361, -0.00030707353, 20306.516, 20306.516, 0.0, 2.5005002, 2.4990118 
4.7884226e+2, 4.6224597e+1, 3414.4556, -440585.75, -50661.797, -0.0016888457, 0.0014103309, 9121.761, 9121.761, 0.0, 2.5004818, 2.4990115 
4.7884163e+2, 4.8723626e+1, -7414.3237, -445856.7, -48489.93, -0.0018968668, 0.0031352947, -2115.573, -2115.573, 0.0, 2.5004632, 2.4990115 
4.7884107e+2, 5.1222724e+1, 27889.465, -354491.0, -49094.887, -0.0013991186, 0.003823945, 34092.273, 34092.273, 0.0, 2.500444, 2.4991777 
4.7884044e+2, 5.372189e+1, 16448.182, -359041.25, -48708.543, -0.0006292554, 0.0026859278, 22663.771, 22663.771, 0.0, 2.5004232, 2.4991798 
4.7883984e+2, 5.622106e+1, 4306.839, -364944.84, -47441.41, 0.00012730941, 0.0015495975, 10304.682, 10304.682, 0.0, 2.5004025, 2.4991796 
4.7883922e+2, 5.8720225e+1, -7896.3896, -370878.22, -46181.832, 0.0008728303, 0.0004189627, -2112.87, -2112.87, 0.0, 2.5003815, 2.4991796 
4.7883862e+2, 6.121949e+1, 27271.168, -280664.38, -42087.867, 0.0011215472, 0.000789529, 32920.008, 32920.008, 0.0, 2.500363, 2.4993432 
4.7883803e+2, 6.3718843e+1, 18627.734, -283442.94, -41961.76, 0.00019561166, 0.001931555, 24348.457, 24348.457, 0.0, 2.5003467, 2.4993463 
4.788374e+2, 6.6218203e+1, 9014.656, -288123.22, -41296.43, -0.00074687036, 0.0030810162, 14647.289, 14647.289, 0.0, 2.5003302, 2.4993463 
4.788368e+2, 6.871756e+1, -667.7225, -292836.88, -40622.387, -0.0017019381, 0.0042425077, 4875.1445, 4875.1445, 0.0, 2.5003138, 2.499346 
4.7883618e+2, 7.1217e+1, 38957.79, -192734.56, -36045.227, -0.0015683925, 0.0054050586, 44435.95, 44435.95, 0.0, 2.5002944, 2.4995272 
4.788356e+2, 7.371653e+1, 27300.53, -195888.08, -35110.445, -0.0014148433, 0.0053297, 32693.541, 32693.541, 0.0, 2.5002718, 2.4995327 
4.7883502e+2, 7.6216066e+1, 13968.006, -202351.0, -33705.406, -0.0012853761, 0.0052551096, 19098.098, 19098.098, 0.0, 2.500249, 2.4995327 
4.7883445e+2, 7.871559e+1, 531.8684, -208863.86, -32276.514, -0.0011726917, 0.005189108, 5394.107, 5394.107, 0.0, 2.500226, 2.4995325 
4.7883388e+2, 8.12152e+1, 33023.37, -123783.63, -23608.652, -0.0005809977, 0.005543254, 36500.746, 36500.746, 0.0, 2.500207, 2.4996877 
4.7883338e+2, 8.371489e+1, 26062.99, -123570.04, -23787.242, 0.00063371833, 0.004914984, 29753.443, 29753.443, 0.0, 2.5001912, 2.4996955 
4.7883284e+2, 8.621458e+1, 16714.016, -128056.195, -23627.275, 0.0018345973, 0.0042753937, 20472.535, 20472.535, 0.0, 2.5001752, 2.4996958 
4.7883233e+2, 8.8714266e+1, 7205.3286, -132619.28, -23452.604, 0.0030209476, 0.0036342146, 11034.159, 11034.159, 0.0, 2.5001588, 2.4996958 
4.7883186e+2, 9.121404e+1, 44428.25, -34772.504, -13730.089, 0.004212427, 0.0041853813, 46740.94, 46740.94, 0.0, 2.5001369, 2.4998744 
4.7883132e+2, 9.371393e+1, 29857.928, -36647.902, -14276.453, 0.0004196036, 0.0045849294, 32793.043, 32793.043, 0.0, 2.500106, 2.4998858 
4.788308e+2, 9.621381e+1, 11716.392, -45341.484, -13912.939, -0.0034688795, 0.004948013, 14928.125, 14928.125, 0.0, 2.5000749, 2.499886 
4.7883028e+2, 9.87137e+1, -6790.8, -54211.094, -13603.318, -0.0074174465, 0.005284719, -3165.5972, -3165.5972, 0.0, 2.5000432, 2.499886 
4.8135e+2, 1.24915995e+0, -33789.895, -765568.7, -14632.182, -0.00010052747, -0.00035936685, -33497.438, -33497.438, 0.0, 2.5007484, 2.4983258 
4.813499e+2, 3.7474796e+0, -37208.56, -767419.56, -10211.926, -0.0009420604, -0.0010797038, -37065.773, -37065.773, 0.0, 2.500743, 2.4983253 
4.8134977e+2, 6.245799e+0, -40509.08, -769020.0, -5710.0293, -0.0017798061, -0.0018021774, -40464.33, -40464.33, 0.0, 2.5007372, 2.4983253 
4.8134965e+2, 8.744119e+0, -43812.67, -770621.8, -1208.2947, -0.0026137629, -0.0025267864, -43810.664, -43810.664, 0.0, 2.5007315, 2.4983253 
4.8134944e+2, 1.1242532e+1, -2590.1746, -674117.5, -26030.82, -0.002851823, -0.0024464498, -1582.6377, -1582.6377, 0.0, 2.5007198, 2.4984965 
4.813491e+2, 1.3741036e+1, -13035.295, -678932.6, -22691.12, -0.0024448927, -0.0019125773, -12262.968, -12262.968, 0.0, 2.5007017, 2.498497 
4.813488e+2, 1.623954e+1, -23638.553, -684072.4, -18778.164, -0.0020349545, -0.001339329, -23105.063, -23105.063, 0.0, 2.5006835, 2.4984968 
4.813485e+2, 1.8738043e+1, -34243.805, -689213.06, -14864.447, -0.0016220668, -0.00072630506, -33906.633, -33906.633, 0.0, 2.5006652, 2.4984968 
4.8134813e+2, 2.1236633e+1, 4606.524, -592139.8, -33277.625, -0.0016383518, -0.000327158, 6456.519, 6456.519, 0.0, 2.5006475, 2.4986718 
4.8134765e+2, 2.3735304e+1, -5586.9927, -596878.2, -30922.834, -0.0019712087, -0.00054084713, -3974.2158, -3974.2158, 0.0, 2.50063, 2.4986722 
4.813472e+2, 2.6233974e+1, -15918.73, -601899.94, -27477.232, -0.0023034029, -0.00075094425, -14633.116, -14633.116, 0.0, 2.5006123, 2.498672 
4.8134673e+2, 2.8732646e+1, -26251.516, -606922.25, -24031.879, -0.0026352217, -0.00095660036, -25258.62, -25258.62, 0.0, 2.5005946, 2.498672 
4.8134622e+2, 3.12314e+1, 10885.086, -512910.28, -34730.297, -0.002671249, -0.0010369095, 13177.845, 13177.845, 0.0, 2.5005765, 2.498842 
4.8134568e+2, 3.3730245e+1, -336.4945, -518117.88, -33117.87, -0.0023096148, -0.0013231373, 1773.1658, 1773.1658, 0.0, 2.500557, 2.4988425 
4.813451e+2, 3.622908e+1, -11723.178, -523661.3, -30170.861, -0.0019479097, -0.0015989796, -9951.204, -9951.204, 0.0, 2.5005374, 2.4988422 
4.8134455e+2, 3.872792e+1, -23112.232, -529205.9, -27224.264, -0.0015865107, -0.0018632885, -21651.973, -21651.973, 0.0, 2.5005178, 2.4988422 
4.8134395e+2, 4.1226864e+1, 15840.45, -429902.06, -32034.303, -0.0013637592, -0.00090674555, 18130.898, 18130.898, 0.0, 2.500498, 2.499022 
4.8134336e+2, 4.3725902e+1, 4177.927, -434849.56, -31840.783, -0.001454379, 0.0005916911, 6475.1816, 6475.1816, 0.0, 2.5004773, 2.4990237 
4.813427e+2, 4.6224937e+1, -7953.165, -440761.94, -30496.008, -0.0015508852, 0.0021004719, -5814.9585, -5814.9585, 0.0, 2.5004566, 2.4990234 
4.813421e+2, 4.8723975e+1, -20087.813, -446676.03, -29152.621, -0.0016526466, 0.0036225154, -18104.77, -18104.77, 0.0, 2.5004358, 2.4990232 
4.8134148e+2, 5.122309e+1, 14733.642, -356515.22, -29946.031, -0.0011275591, 0.0041543217, 17133.662, 17133.662, 0.0, 2.5004168, 2.4991872 
4.8134086e+2, 5.372226e+1, 4973.4365, -360312.78, -29347.05, -0.00042314816, 0.0029601592, 7316.151, 7316.151, 0.0, 2.5003989, 2.4991891 
4.813402e+2, 5.622144e+1, -5393.2383, -365365.5, -27879.59, 0.0002794038, 0.00177578, -3246.7832, -3246.7832, 0.0, 2.5003812, 2.4991891 
4.813396e+2, 5.872061e+1, -15762.382, -370419.38, -26412.9, 0.0009824056, 0.0006048945, -13806.085, -13806.085, 0.0, 2.5003633, 2.499189 
4.8133895e+2, 6.121988e+1, 18670.348, -281700.7, -21690.234, 0.0011791444, 0.0008814879, 20228.547, 20228.547, 0.0, 2.500345, 2.49935 
4.8133835e+2, 6.371925e+1, 8394.989, -285273.13, -20939.857, 0.0001407893, 0.0018296533, 9880.58, 9880.58, 0.0, 2.5003257, 2.4993532 
4.813377e+2, 6.62186e+1, -2771.9783, -290695.34, -19690.318, -0.00089713535, 0.0027670837, -1431.6488, -1431.6488, 0.0, 2.5003066, 2.4993532 
4.8133707e+2, 6.871796e+1, -13940.892, -296118.5, -18441.459, -0.0019304118, 0.003698445, -12740.771, -12740.771, 0.0, 2.5002875, 2.499353 
4.8133644e+2, 7.121742e+1, 24686.727, -197861.81, -14842.904, -0.0016643115, 0.004742115, 25672.31, 25672.31, 0.0, 2.5002682, 2.499531 
4.8133588e+2, 7.371695e+1, 14820.936, -200170.14, -15640.96, -0.0012523124, 0.004686504, 15952.882, 15952.882, 0.0, 2.5002487, 2.4995365 
4.8133525e+2, 7.6216483e+1, 3416.7214, -205670.47, -16004.309, -0.00084598706, 0.0046184496, 4634.6563, 4634.6563, 0.0, 2.500229, 2.4995365 
4.8133466e+2, 7.8716016e+1, -7990.2104, -211172.1, -16367.792, -0.00043760007, 0.004545581, -6680.1123, -6680.1123, 0.0, 2.5002093, 2.4995365 
4.8133412e+2, 8.121563e+1, 24310.457, -125853.2, -7599.8657, -0.000038023758, 0.0050608483, 24694.11, 24694.11, 0.0, 2.5001898, 2.4996924 
4.8133355e+2, 8.3715326e+1, 15096.547, -126835.83, -6994.6304, 0.00048588205, 0.00474346, 15440.419, 15440.419, 0.0, 2.5001702, 2.4997 
4.8133302e+2, 8.621502e+1, 3729.5032, -132280.47, -6068.7227, 0.0010308671, 0.004399566, 3999.7507, 3999.7507, 0.0, 2.5001507, 2.4997003 
4.8133245e+2, 8.871471e+1, -7644.3945, -137728.4, -5142.6084, 0.0015963486, 0.0040388918, -7441.4087, -7441.4087, 0.0, 2.5001311, 2.4997003 
4.8133197e+2, 9.12145e+1, 29557.467, -39612.36, 3615.9268, 0.003081638, 0.004613438, 29745.979, 29745.979, 0.0, 2.5001087, 2.4998796 
4.813314e+2, 9.3714386e+1, 16778.813, -40850.426, 3245.0781, 0.00024279968, 0.0048214453, 16960.967, 16960.967, 0.0, 2.5000815, 2.4998906 
4.813309e+2, 9.621427e+1, 867.91895, -48552.965, 3935.509, -0.002575024, 0.005024069, 1179.3508, 1179.3508, 0.0, 2.5000541, 2.4998906 
4.8133036e+2, 9.8714155e+1, -15061.298, -56264.336, 4628.513, -0.0053342753, 0.0052311947, -14547.758, -14547.758, 0.0, 2.500027, 2.4998903 
4.8385075e+2, 1.2491795e+0, -25419.498, -748183.9, -15488.031, -0.00009522142, 0.00010683366, -25087.76, -25087.76, 0.0, 2.5007484, 2.4983556 
4.8385063e+2, 3.7475383e+0, -28825.447, -750024.6, -11064.071, 0.00041010004, 0.00031333402, -28655.752, -28655.752, 0.0, 2.500743, 2.4983552 
4.8385054e+2, 6.2458974e+0, -32113.434, -751615.2, -6556.912, 0.00090981583, 0.0005102797, -32053.686, -32053.686, 0.0, 2.5007372, 2.4983552 
4.838504e+2, 8.744256e+0, -35404.496, -753207.2, -2049.914, 0.0014039276, 0.00069767155, -35398.64, -35398.64, 0.0, 2.5007315, 2.4983552 
4.8385018e+2, 1.1242702e+1, 4762.12, -658861.8, -28747.316, 0.001422968, 0.0012357339, 6005.088, 6005.088, 0.0, 2.5007198, 2.4985225 
4.8384985e+2, 1.3741232e+1, -5743.6523, -663796.2, -25440.453, 0.0010467917, 0.001863534, -4761.5845, -4761.5845, 0.0, 2.5007017, 2.4985228 
4.8384953e+2, 1.6239764e+1, -16346.798, -668929.06, -21516.85, 0.00066999934, 0.0025284933, -15638.117, -15638.117, 0.0, 2.5006835, 2.4985228 
4.8384917e+2, 1.8738295e+1, -26951.94, -674062.75, -17592.486, 0.00029249946, 0.0032309133, -26474.02, -26474.02, 0.0, 2.5006652, 2.4985228 
4.8384878e+2, 2.1236908e+1, 11083.3, -578709.9, -35908.496, 0.00014192358, 0.0035971045, 13261.4795, 13261.4795, 0.0, 2.5006478, 2.498695 
4.8384833e+2, 2.3735599e+1, 841.0802, -583549.4, -33600.36, 0.000310552, 0.0032828685, 2766.6362, 2766.6362, 0.0, 2.50063, 2.498695 
4.8384783e+2, 2.6234293e+1, -9491.617, -588572.94, -30151.93, 0.00047733187, 0.0029732315, -7925.8833, -7925.8833, 0.0, 2.5006123, 2.498695 
4.8384735e+2, 2.8732985e+1, -19825.363, -593597.0, -26703.746, 0.00064204837, 0.0026689146, -18585.232, -18585.232, 0.0, 2.5005946, 2.498695 
4.8384684e+2, 3.123176e+1, 16454.35, -501404.0, -37627.0, 0.00046613062, 0.0024854264, 19174.002, 19174.002, 0.0, 2.5005765, 2.4988618 
4.8384625e+2, 3.373062e+1, 5198.884, -506689.56, -36061.184, -0.000012815757, 0.0021393683, 7726.815, 7726.815, 0.0, 2.500557, 2.498862 
4.8384565e+2, 3.622948e+1, -6182.794, -512229.88, -33110.78, -0.0004966938, 0.0018015967, -4025.5442, -4025.5442, 0.0, 2.5005374, 2.4988618 
4.8384506e+2, 3.872834e+1, -17566.844, -517771.3, -30160.79, -0.0009856937, 0.0014730614, -15754.805, -15754.805, 0.0, 2.500518, 2.4988618 
4.8384446e+2, 4.122729e+1, 18514.01, -424451.5, -35141.152, -0.0010828886, 0.0019431926, 21284.486, 21284.486, 0.0, 2.5004983, 2.4990313 
4.838438e+2, 4.372633e+1, 6789.5337, -429550.5, -34961.598, -0.00094188325, 0.002606045, 9573.063, 9573.063, 0.0, 2.5004776, 2.4990325 
4.838432e+2, 4.622537e+1, -5324.8247, -435450.72, -33607.727, -0.00081557134, 0.003269478, -2714.7358, -2714.7358, 0.0, 2.5004568, 2.4990325 
4.8384255e+2, 4.8724407e+1, -17442.738, -441352.7, -32255.244, -0.0007033906, 0.0039360477, -15002.489, -15002.489, 0.0, 2.500436, 2.4990323 
4.8384193e+2, 5.122352e+1, 17580.451, -350667.06, -32694.309, -0.00022641491, 0.0042021135, 20460.64, 20460.64, 0.0, 2.5004168, 2.4991972 
4.8384124e+2, 5.3722715e+1, 7770.8237, -354578.78, -32029.365, 0.00009185284, 0.0034396015, 10580.23, 10580.23, 0.0, 2.5003989, 2.4991992 
4.838406e+2, 5.62219e+1, -2584.5144, -359620.5, -30554.268, 0.00039925464, 0.00268036, 11.371169, 11.371169, 0.0, 2.5003812, 2.499199 
4.8383996e+2, 5.872109e+1, -12942.321, -364663.4, -29079.94, 0.00069837493, 0.0019276057, -10554.235, -10554.235, 0.0, 2.5003636, 2.499199 
4.838393e+2, 6.1220366e+1, 21124.531, -276730.0, -24606.148, 0.0008512648, 0.0019876633, 23143.59, 23143.59, 0.0, 2.500345, 2.4993587 
4.8383865e+2, 6.371973e+1, 10833.382, -280337.84, -23824.125, 0.00009086853, 0.0020694656, 12769.834, 12769.834, 0.0, 2.500326, 2.4993618 
4.8383802e+2, 6.621909e+1, -338.02, -285771.66, -22568.566, -0.00067470846, 0.002143387, 1435.4052, 1435.4052, 0.0, 2.5003068, 2.4993615 
4.8383737e+2, 6.871845e+1, -11511.368, -291206.38, -21313.688, -0.0014410892, 0.002214062, -9896.518, -9896.518, 0.0, 2.5002878, 2.4993615 
4.8383674e+2, 7.1217895e+1, 24296.043, -198884.05, -17872.514, -0.0009772606, 0.0028328598, 25718.23, 25718.23, 0.0, 2.5002685, 2.4995291 
4.838361e+2, 7.371743e+1, 14339.608, -201367.27, -18601.068, -0.0006070566, 0.0029155693, 15931.882, 15931.882, 0.0, 2.5002487, 2.4995344 
4.8383552e+2, 7.6216966e+1, 2920.3003, -206884.58, -18952.084, -0.00025004745, 0.0029912365, 4618.533, 4618.533, 0.0, 2.5002291, 2.4995344 
4.8383486e+2, 7.87165e+1, -8501.726, -212403.2, -19303.238, 0.000102361606, 0.0030667796, -6690.3896, -6690.3896, 0.0, 2.5002096, 2.4995344 
4.838343e+2, 8.121612e+1, 26397.58, -121808.04, -10588.123, 0.000011988989, 0.00396691, 27150.197, 27150.197, 0.0, 2.50019, 2.499699 
4.838337e+2, 8.371582e+1, 17074.717, -122999.16, -9955.972, -0.00045554305, 0.004294817, 17778.814, 17778.814, 0.0, 2.5001705, 2.4997065 
4.8383313e+2, 8.621553e+1, 5685.383, -128470.6, -9019.643, -0.0009171026, 0.00460399, 6289.0796, 6289.0796, 0.0, 2.500151, 2.4997065 
4.8383254e+2, 8.8715243e+1, -5710.806, -133945.34, -8083.108, -0.0013728823, 0.0049038935, -5203.306, -5203.306, 0.0, 2.5001314, 2.4997067 
4.8383203e+2, 9.121503e+1, 31299.555, -36357.168, -409.67358, 0.00055934273, 0.0056969393, 31302.035, 31302.035, 0.0, 2.500109, 2.4998848 
4.838315e+2, 9.371492e+1, 18419.613, -37821.42, -857.67554, -0.0006223362, 0.005685747, 18432.69, 18432.69, 0.0, 2.5000818, 2.4998956 
4.8383096e+2, 9.6214813e+1, 2530.7168, -45491.84, -146.60812, -0.001815387, 0.005670782, 2531.1643, 2531.1643, 0.0, 2.5000546, 2.4998956 
4.8383042e+2, 9.87147e+1, -13376.501, -53171.09, 567.0327, -0.0029808404, 0.005661659, -13368.423, -13368.423, 0.0, 2.5000272, 2.4998956 
4.863515e+2, 1.24919906e+0, -17048.494, -730797.9, -16344.634, -0.00009162447, 0.000568432, -16674.402, -16674.402, 0.0, 2.5007484, 2.4983854 
4.8635137e+2, 3.747597e+0, -20445.574, -732636.4, -11916.769, 0.0017571328, 0.0016925652, -20246.23, -20246.23, 0.0, 2.500743, 2.498385 
4.8635128e+2, 6.2459946e+0, -23721.027, -734217.1, -7404.3457, 0.0035908911, 0.0027997252, -23643.871, -23643.871, 0.0, 2.5007372, 2.498385 
4.8635116e+2, 8.7443924e+0, -26999.555, -735799.3, -2892.084, 0.005409652, 0.003889913, -26987.756, -26987.756, 0.0, 2.5007317, 2.498385 
4.8635095e+2, 1.1242871e+1, 12019.879, -643802.7, -31475.09, 0.0056994343, 0.0049609095, 13527.009, 13527.009, 0.0, 2.5007198, 2.4985485 
4.863506e+2, 1.3741428e+1, 1542.144, -648672.0, -28190.46, 0.0045365826, 0.005651795, 2762.0713, 2762.0713, 0.0, 2.5007017, 2.4985487 
4.863502e+2, 1.6239986e+1, -9060.889, -653797.9, -24256.21, 0.003369449, 0.0063774, -8149.613, -8149.613, 0.0, 2.5006835, 2.4985487 
4.8634988e+2, 1.8738544e+1, -19665.918, -658924.7, -20321.2, 0.002197951, 0.007138152, -19020.584, -19020.584, 0.0, 2.5006652, 2.4985487 
4.8634946e+2, 2.1237183e+1, 17456.838, -565494.5, -38534.11, 0.0019222188, 0.007543787, 19992.979, 19992.979, 0.0, 2.5006478, 2.4987175 
4.8634896e+2, 2.3735897e+1, 7266.638, -570225.8, -36277.426, 0.0025927138, 0.0071206586, 9536.622, 9536.622, 0.0, 2.50063, 2.4987178 
4.8634848e+2, 2.6234612e+1, -3067.0198, -575251.2, -32826.168, 0.003258801, 0.0067026983, -1189.9427, -1189.9427, 0.0, 2.5006123, 2.4987178 
4.86348e+2, 2.8733325e+1, -13401.726, -580277.0, -29375.154, 0.0039203856, 0.006290938, -11883.587, -11883.587, 0.0, 2.5005946, 2.4987175 
4.8634744e+2, 3.1232122e+1, 22005.059, -489936.38, -40516.473, 0.003609838, 0.006009941, 25191.809, 25191.809, 0.0, 2.5005765, 2.4988813 
4.8634684e+2, 3.3731e+1, 10732.03, -495265.97, -39004.18, 0.0022886917, 0.00559646, 13720.959, 13720.959, 0.0, 2.500557, 2.4988816 
4.8634622e+2, 3.622988e+1, -644.6428, -500803.16, -36050.383, 0.00095758284, 0.005189069, 1940.4326, 1940.4326, 0.0, 2.5005376, 2.4988813 
4.863456e+2, 3.8728756e+1, -12023.687, -506341.47, -33097.0, -0.00038346378, 0.0047886176, -9817.525, -9817.525, 0.0, 2.500518, 2.4988813 
4.8634496e+2, 4.1227713e+1, 21152.314, -419074.28, -38248.855, -0.00080283947, 0.004792337, 24450.83, 24450.83, 0.0, 2.5004983, 2.4990406 
4.863443e+2, 4.3726757e+1, 9397.759, -424258.53, -38081.875, -0.000434783, 0.0045993524, 12716.55, 12716.55, 0.0, 2.5004776, 2.4990416 
4.8634365e+2, 4.6225795e+1, -2699.867, -430146.63, -36718.906, -0.000090218105, 0.004396934, 431.45398, 431.45398, 0.0, 2.5004568, 2.4990416 
4.86343e+2, 4.8724833e+1, -14801.048, -436036.44, -35357.33, 0.0002313397, 0.0041875276, -11853.872, -11853.872, 0.0, 2.5004363, 2.4990413 
4.8634234e+2, 5.122396e+1, 20303.242, -345076.6, -35474.547, 0.00070112804, 0.0042870715, 23715.58, 23715.58, 0.0, 2.5004168, 2.4992068 
4.8634169e+2, 5.372316e+1, 10565.209, -348851.06, -34711.508, 0.00062842516, 0.003940513, 13886.859, 13886.859, 0.0, 2.500399, 2.499209 
4.8634097e+2, 5.622237e+1, 221.20744, -353881.8, -33228.77, 0.00053539994, 0.0035895475, 3312.3862, 3312.3862, 0.0, 2.5003815, 2.4992087 
4.863403e+2, 5.8721566e+1, -10125.262, -358913.72, -31746.807, 0.00042536188, 0.0032380626, -7259.2114, -7259.2114, 0.0, 2.5003636, 2.4992087 
4.8633966e+2, 6.1220855e+1, 23537.877, -271844.25, -27518.846, 0.00052285485, 0.003099771, 26079.756, 26079.756, 0.0, 2.5003452, 2.499367 
4.86339e+2, 6.3720214e+1, 13268.921, -275408.56, -26707.18, 0.000046433728, 0.0023001756, 15718.958, 15718.958, 0.0, 2.5003262, 2.49937 
4.8633832e+2, 6.6219574e+1, 2093.085, -280853.94, -25445.602, -0.00044067297, 0.0014951678, 4363.21, 4363.21, 0.0, 2.5003068, 2.4993699 
4.8633763e+2, 6.8718934e+1, -9084.697, -286300.25, -24184.703, -0.00093403563, 0.0006897373, -6990.606, -6990.606, 0.0, 2.5002878, 2.4993699 
4.86337e+2, 7.1218383e+1, 23790.352, -200145.28, -20881.996, -0.00030564453, 0.00096981373, 25720.955, 25720.955, 0.0, 2.5002685, 2.499527 
4.8633635e+2, 7.371791e+1, 13854.15, -202573.03, -21560.115, 0.000034348766, 0.0011599809, 15981.032, 15981.032, 0.0, 2.500249, 2.4995322 
4.8633572e+2, 7.621744e+1, 2419.7495, -208107.34, -21898.8, 0.0003541088, 0.0013472597, 4673.5117, 4673.5117, 0.0, 2.5002294, 2.4995322 
4.8633507e+2, 7.871697e+1, -9017.37, -213642.95, -22237.621, 0.0006626066, 0.0015391049, -6628.5903, -6628.5903, 0.0, 2.5002098, 2.499532 
4.8633447e+2, 8.1216604e+1, 28326.469, -118091.67, -13535.046, 0.000024517602, 0.0029099428, 29567.15, 29567.15, 0.0, 2.5001905, 2.4997056 
4.8633388e+2, 8.371632e+1, 19049.617, -119169.34, -12914.827, -0.001420273, 0.0038696325, 20245.99, 20245.99, 0.0, 2.5001707, 2.499713 
4.8633328e+2, 8.6216044e+1, 7637.9917, -124667.586, -11968.077, -0.002873321, 0.004816921, 8711.882, 8711.882, 0.0, 2.5001512, 2.499713 
4.8633268e+2, 8.871577e+1, -3780.4888, -130169.125, -11021.12, -0.0043353066, 0.005762451, -2826.6428, -2826.6428, 0.0, 2.5001316, 2.499713 
4.8633212e+2, 9.121557e+1, 33010.52, -33166.832, -4395.2954, -0.0019622718, 0.0068005966, 33301.164, 33301.164, 0.0, 2.5001094, 2.4998903 
4.8633158e+2, 9.371546e+1, 20056.4, -34800.89, -4965.855, -0.0015137505, 0.0065442435, 20502.3, 20502.3, 0.0, 2.5000823, 2.4999006 
4.86331e+2, 9.621535e+1, 4189.503, -42439.19, -4234.151, -0.0011086323, 0.006285099, 4570.869, 4570.869, 0.0, 2.500055, 2.4999006 
4.8633045e+2, 9.871524e+1, -11695.716, -50086.324, -3499.8733, -0.00070689083, 0.0060331356, -11379.259, -11379.259, 0.0, 2.5000277, 2.4999006 
4.8885223e+2, 1.2492184e+0, -11747.026, -714918.5, -17331.602, 0.0000028206503, 0.0010157787, -11320.1, -11320.1, 0.0, 2.5007432, 2.4984152 
4.8885214e+2, 3.7476552e+0, -15049.866, -716720.7, -13183.445, 0.003182836, 0.0030315036, -14802.254, -14802.254, 0.0, 2.500738, 2.4984148 
4.8885205e+2, 6.246092e+0, -18303.225, -718288.0, -8973.913, 0.006340388, 0.0050261095, -18188.197, -18188.197, 0.0, 2.5007322, 2.4984148 
4.8885196e+2, 8.7445277e+0, -21639.26, -719895.06, -4790.3286, 0.0094754705, 0.006999585, -21606.396, -21606.396, 0.0, 2.5007265, 2.4984148 
4.8885173e+2, 1.124304e+1, 16145.03, -630425.56, -35557.457, 0.0100467345, 0.00867359, 18094.596, 18094.596, 0.0, 2.5007148, 2.4985738 
4.888513e+2, 1.3741624e+1, 5868.312, -635006.2, -32515.133, 0.00809197, 0.00939373, 7513.761, 7513.761, 0.0, 2.5006967, 2.4985747 
4.8885095e+2, 1.6240208e+1, -4702.03, -640109.94, -28799.537, 0.0061300406, 0.010143959, -3399.3762, -3399.3762, 0.0, 2.5006785, 2.4985747 
4.8885056e+2, 1.8738793e+1, -15326.495, -645239.75, -25081.727, 0.004160902, 0.010925059, -14329.376, -14329.376, 0.0, 2.5006602, 2.4985747 
4.8885012e+2, 2.1237455e+1, 20797.045, -553912.2, -43336.258, 0.0037665323, 0.011436093, 24046.467, 24046.467, 0.0, 2.5006428, 2.4987397 
4.888496e+2, 2.3736192e+1, 10808.591, -558302.1, -41217.035, 0.0049341056, 0.01089229, 13778.181, 13778.181, 0.0, 2.5006251, 2.4987407 
4.8884913e+2, 2.6234928e+1, 490.177, -563320.5, -37837.492, 0.006095439, 0.010354379, 3018.127, 3018.127, 0.0, 2.5006075, 2.4987407 
4.888486e+2, 2.8733665e+1, -9862.461, -568355.4, -34451.426, 0.0072505926, 0.009824108, -7745.3022, -7745.3022, 0.0, 2.5005896, 2.4987404 
4.8884806e+2, 3.1232482e+1, 24772.838, -479831.34, -45834.566, 0.006806863, 0.009452053, 28902.322, 28902.322, 0.0, 2.5005717, 2.498901 
4.888474e+2, 3.3731377e+1, 13732.141, -485058.7, -44392.58, 0.0046383324, 0.008968103, 17652.29, 17652.29, 0.0, 2.5005527, 2.4989011 
4.8884678e+2, 3.6230275e+1, 2524.4727, -490513.72, -41450.97, 0.002456133, 0.008489278, 5985.0703, 5985.0703, 0.0, 2.5005336, 2.498901 
4.8884612e+2, 3.8729173e+1, -8755.329, -496003.47, -38515.28, 0.00026050926, 0.008016398, -5729.6177, -5729.6177, 0.0, 2.5005143, 2.498901 
4.8884547e+2, 4.1228142e+1, 21668.473, -414754.75, -43799.05, -0.00048594407, 0.0075825457, 26020.705, 26020.705, 0.0, 2.5004947, 2.4990497 
4.8884478e+2, 4.372718e+1, 10149.6875, -419845.72, -43551.004, 0.00010106434, 0.006524527, 14516.298, 14516.298, 0.0, 2.5004745, 2.4990506 
4.8884413e+2, 4.6226224e+1, -1825.669, -425670.8, -42092.31, 0.0006583988, 0.0054483316, 2314.109, 2314.109, 0.0, 2.500454, 2.4990506 
4.8884344e+2, 4.8725262e+1, -13933.342, -431559.63, -40640.523, 0.001186403, 0.0043564867, -10015.244, -10015.244, 0.0, 2.5004332, 2.4990504 
4.888428e+2, 5.122439e+1, 21240.15, -340519.66, -40323.168, 0.0016877631, 0.004395552, 25680.232, 25680.232, 0.0, 2.500414, 2.499216 
4.8884207e+2, 5.372361e+1, 11904.276, -343807.5, -39258.43, 0.001213448, 0.0044493247, 16185.537, 16185.537, 0.0, 2.5003967, 2.4992187 
4.8884135e+2, 5.6222826e+1, 1635.2738, -348798.84, -37629.48, 0.0007115245, 0.004491667, 5630.367, 5630.367, 0.0, 2.500379, 2.4992185 
4.8884067e+2, 5.8722043e+1, -8782.367, -353861.75, -36034.24, 0.00018639507, 0.0045282, -5059.7217, -5059.7217, 0.0, 2.5003612, 2.4992185 
4.8883998e+2, 6.122134e+1, 24490.99, -267706.97, -31939.756, 0.00021523178, 0.0042167483, 27941.533, 27941.533, 0.0, 2.5003428, 2.499375 
4.888393e+2, 6.37207e+1, 14516.6, -271036.9, -30973.635, 0.000024923484, 0.002530869, 17837.646, 17837.646, 0.0, 2.5003242, 2.4993784 
4.888386e+2, 6.622006e+1, 3475.1719, -276427.78, -29584.848, -0.00018040153, 0.00084263465, 6568.021, 6568.021, 0.0, 2.5003052, 2.4993782 
4.8883796e+2, 6.871942e+1, -7663.8857, -281865.63, -28202.281, -0.000396383, -0.0008422691, -4793.2686, -4793.2686, 0.0, 2.500286, 2.4993782 
4.8883727e+2, 7.1218866e+1, 22233.277, -202072.33, -24850.914, 0.00036194958, -0.0008033788, 24953.531, 24953.531, 0.0, 2.5002673, 2.4995244 
4.8883665e+2, 7.37184e+1, 12530.356, -204167.17, -25280.156, 0.0006824031, -0.0005263234, 15440.483, 15440.483, 0.0, 2.5002477, 2.49953 
4.8883596e+2, 7.6217926e+1, 1079.4758, -209720.86, -25390.816, 0.0009774707, -0.0002495023, 4094.6616, 4094.6616, 0.0, 2.5002282, 2.49953 
4.888353e+2, 7.871745e+1, -10478.043, -215325.88, -25503.357, 0.0012560076, 0.000036260684, -7350.6455, -7350.6455, 0.0, 2.5002084, 2.4995298 
4.8883465e+2, 8.1217086e+1, 28964.363, -115238.12, -16638.744, 0.0000142847075, 0.001974501, 30859.316, 30859.316, 0.0, 2.5001888, 2.499711 
4.8883405e+2, 8.371683e+1, 19646.008, -115998.164, -16009.843, -0.0023912028, 0.003564955, 21510.006, 21510.006, 0.0, 2.5001688, 2.4997194 
4.888334e+2, 8.6216563e+1, 7879.1216, -121684.09, -14980.774, -0.0048161624, 0.0051475954, 9588.719, 9588.719, 0.0, 2.5001485, 2.4997194 
4.8883277e+2, 8.871629e+1, -3985.4995, -127417.08, -13938.922, -0.007262649, 0.006735621, -2430.9783, -2430.9783, 0.0, 2.5001283, 2.4997194 
4.888322e+2, 9.1216105e+1, 32337.848, -31163.928, -8261.166, -0.004450413, 0.008059884, 33394.973, 33394.973, 0.0, 2.5001059, 2.4998953 
4.8883164e+2, 9.3715996e+1, 19313.61, -32926.023, -9005.058, -0.002395567, 0.0075489, 20822.328, 20822.328, 0.0, 2.5000787, 2.4999056 
4.8883104e+2, 9.621589e+1, 3275.9814, -40628.586, -8300.456, -0.0004120594, 0.007034236, 4792.8335, 4792.8335, 0.0, 2.500051, 2.4999056 
4.888305e+2, 9.871579e+1, -12949.841, -48421.74, -7635.416, 0.0015407824, 0.0065268534, -11376.117, -11376.117, 0.0, 2.5000231, 2.4999056 
4.9135295e+2, 1.24922775e+0, -10045.844, -698299.06, -17541.213, -0.0025042507, 0.00018113913, -9599.068, -9599.068, 0.0, 2.500729, 2.4984505 
4.9135286e+2, 3.7476832e+0, -17547.262, -702156.6, -10979.516, 0.00012016573, 0.00058160775, -17371.22, -17371.22, 0.0, 2.5007164, 2.4984498 
4.9135274e+2, 6.2461394e+0, -24914.89, -705731.94, -4344.0347, 0.0027610424, 0.0010329977, -24887.174, -24887.174, 0.0, 2.5007038, 2.4984498 
4.913526e+2, 8.7445956e+0, -32285.088, -709308.3, 2291.2378, 0.005418381, 0.0015353094, -32277.332, -32277.332, 0.0, 2.5006912, 2.4984498 
4.9135235e+2, 1.1243131e+1, 3223.0708, -621524.2, -27062.166, 0.0056926473, 0.0020415932, 4393.131, 4393.131, 0.0, 2.5006762, 2.4986076 
4.9135196e+2, 1.3741739e+1, -6949.684, -626172.44, -21180.012, 0.0035934998, 0.0019394875, -6226.0845, -6226.0845, 0.0, 2.5006585, 2.498608 
4.9135157e+2, 1.6240346e+1, -17298.592, -631181.7, -14643.946, 0.0015005, 0.0018161779, -16949.465, -16949.465, 0.0, 2.5006406, 2.498608 
4.9135116e+2, 1.8738957e+1, -27650.35, -636192.1, -8108.6567, -0.00058637175, 0.0016722512, -27542.324, -27542.324, 0.0, 2.500623, 2.498608 
4.913507e+2, 2.1237646e+1, 6363.231, -548675.75, -24121.924, -0.0010977903, 0.0019044565, 7409.594, 7409.594, 0.0, 2.5006049, 2.498767 
4.9135014e+2, 2.3736414e+1, -4403.5366, -553472.56, -20534.918, -0.00007350734, 0.0018093005, -3636.612, -3636.612, 0.0, 2.5005858, 2.4987679 
4.9134964e+2, 2.623518e+1, -15435.729, -558814.6, -15684.975, 0.00095810177, 0.0017317511, -14983.349, -14983.349, 0.0, 2.500567, 2.4987679 
4.9134913e+2, 2.873395e+1, -26471.021, -564158.1, -10836.032, 0.001997173, 0.0016734718, -26252.73, -26252.73, 0.0, 2.5005481, 2.4987676 
4.9134853e+2, 3.1232798e+1, 6529.592, -479397.3, -21275.422, 0.001901054, 0.001863642, 7459.3184, 7459.3184, 0.0, 2.5005305, 2.4989214 
4.913479e+2, 3.373172e+1, -2954.7256, -483999.75, -19672.06, 0.0004964226, 0.002061166, -2151.5889, -2151.5889, 0.0, 2.5005143, 2.4989214 
4.9134722e+2, 3.6230645e+1, -12454.366, -488628.5, -16584.516, -0.00089755375, 0.0022950077, -11877.448, -11877.448, 0.0, 2.500498, 2.4989214 
4.913466e+2, 3.872957e+1, -21956.566, -493258.44, -13497.179, -0.0022803931, 0.0025659578, -21570.35, -21570.35, 0.0, 2.5004818, 2.4989212 
4.913459e+2, 4.1228563e+1, 8745.149, -414820.44, -18227.045, -0.002500991, 0.0028323242, 9528.056, 9528.056, 0.0, 2.500466, 2.4990633 
4.9134526e+2, 4.3727624e+1, -137.19714, -418884.56, -17159.523, -0.0016904128, 0.0025107055, 564.79285, 564.79285, 0.0, 2.5004506, 2.4990637 
4.9134454e+2, 4.6226683e+1, -9191.824, -423299.3, -14890.3545, -0.0008530666, 0.0022188441, -8657.092, -8657.092, 0.0, 2.500435, 2.4990637 
4.9134386e+2, 4.8725742e+1, -18250.314, -427715.88, -12621.66, 0.000011572538, 0.0019589835, -17861.623, -17861.623, 0.0, 2.5004196, 2.4990635 
4.9134317e+2, 5.1224893e+1, 16464.316, -339739.38, -12510.502, 0.00078961573, 0.0027115017, 16903.166, 16903.166, 0.0, 2.5004025, 2.4992228 
4.9134243e+2, 5.372412e+1, 5974.231, -343775.84, -12954.636, 0.0005382523, 0.0033974878, 6453.41, 6453.41, 0.0, 2.5003834, 2.4992251 
4.9134174e+2, 5.6223357e+1, -5219.8623, -349262.6, -12842.239, 0.0003138721, 0.0041094134, -4741.16, -4741.16, 0.0, 2.5003643, 2.499225 
4.9134102e+2, 5.8722585e+1, -16420.207, -354752.38, -12730.413, 0.00012083401, 0.0048525995, -15941.877, -15941.877, 0.0, 2.500345, 2.4992247 
4.9134034e+2, 6.1221886e+1, 15727.387, -270106.03, -10315.665, 0.0003183015, 0.005035455, 16099.193, 16099.193, 0.0, 2.500326, 2.4993792 
4.9133962e+2, 6.372125e+1, 5481.6714, -273609.03, -11080.223, 0.000141522, 0.0036491584, 5920.878, 5920.878, 0.0, 2.5003066, 2.4993825 
4.9133894e+2, 6.622062e+1, -5718.53, -279087.34, -11466.259, -0.00003429699, 0.0022877015, -5238.429, -5238.429, 0.0, 2.5002875, 2.4993823 
4.9133822e+2, 6.8719983e+1, -16923.715, -284568.06, -11852.611, -0.00020506012, 0.0009565182, -16399.848, -16399.848, 0.0, 2.5002685, 2.499382 
4.9133757e+2, 7.1219444e+1, 13157.861, -205314.56, -8833.906, 0.0004975137, 0.0013017013, 13514.477, 13514.477, 0.0, 2.5002503, 2.4995267 
4.9133685e+2, 7.3718977e+1, 5237.364, -206544.22, -8552.951, 0.0006241393, 0.0018804665, 5582.219, 5582.219, 0.0, 2.500234, 2.4995325 
4.9133617e+2, 7.6218516e+1, -4348.0522, -211229.23, -7995.412, 0.00075752486, 0.0024524247, -4039.511, -4039.511, 0.0, 2.5002177, 2.4995325 
4.913355e+2, 7.871805e+1, -13937.153, -215916.02, -7439.4453, 0.0009066406, 0.0030261616, -13663.509, -13663.509, 0.0, 2.5002012, 2.4995322 
4.9133483e+2, 8.121768e+1, 23778.205, -116633.516, 106.037964, -0.00046787536, 0.0050570183, 23778.285, 23778.285, 0.0, 2.5001786, 2.4997137 
4.9133417e+2, 8.3717424e+1, 9278.559, -119779.65, -678.8542, -0.0027842175, 0.006511732, 9282.13, 9282.13, 0.0, 2.5001497, 2.4997222 
4.913335e+2, 8.6217153e+1, -7644.9067, -127949.25, -1089.5167, -0.0050679618, 0.007945311, -7635.0405, -7635.0405, 0.0, 2.5001206, 2.499722 
4.9133286e+2, 8.871689e+1, -24575.25, -136122.16, -1505.1058, -0.007322487, 0.00937093, -24554.945, -24554.945, 0.0, 2.5000916, 2.499722 
4.913323e+2, 9.121671e+1, 13136.062, -39945.156, 3624.877, -0.0039133946, 0.01076423, 13382.458, 13382.458, 0.0, 2.5000722, 2.4998965 
4.913317e+2, 9.37166e+1, 10283.598, -36978.53, 1365.3063, -0.0014603051, 0.010425896, 10323.006, 10323.006, 0.0, 2.5000627, 2.499906 
4.9133113e+2, 9.6216494e+1, 4617.874, -39814.043, 647.2608, 0.001000238, 0.0100664785, 4627.3013, 4627.3013, 0.0, 2.5000532, 2.4999058 
4.9133053e+2, 9.871639e+1, -1070.6123, -42660.492, -64.243935, 0.0035124163, 0.009697526, -1070.5132, -1070.5132, 0.0, 2.5000434, 2.4999056 
4.938536e+2, 1.2492336e+0, 2283.546, -672681.44, -19476.309, -0.010986487, -0.0014191355, 2845.0735, 2845.0735, 0.0, 2.500729, 2.4984944 
4.9385345e+2, 3.747701e+0, -5217.1616, -676539.94, -12874.724, -0.010267442, -0.0042225877, -4970.339, -4970.339, 0.0, 2.5007164, 2.498494 
4.938533e+2, 6.246169e+0, -12578.77, -680105.2, -6226.2, -0.009541449, -0.0069796136, -12520.7, -12520.7, 0.0, 2.5007038, 2.498494 
4.9385315e+2, 8.7446374e+0, -19942.943, -683671.5, 422.11493, -0.008808506, -0.009690213, -19942.676, -19942.676, 0.0, 2.5006912, 2.4984937 
4.9385288e+2, 1.1243191e+1, 15465.515, -596074.8, -29810.652, -0.009247797, -0.0116442405, 16915.252, 16915.252, 0.0, 2.5006762, 2.4986513 
4.9385247e+2, 1.3741829e+1, 5216.1978, -600889.94, -23866.44, -0.0108333975, -0.013200653, 6154.526, 6154.526, 0.0, 2.5006585, 2.4986515 
4.9385205e+2, 1.6240466e+1, -5127.047, -605895.1, -17314.654, -0.0124205, -0.014781103, -4628.4375, -4628.4375, 0.0, 2.5006406, 2.4986515 
4.9385166e+2, 1.8739103e+1, -15473.143, -610901.5, -10763.646, -0.014009129, -0.016385293, -15278.631, -15278.631, 0.0, 2.500623, 2.4986515 
4.9385116e+2, 2.1237828e+1, 15546.762, -529595.2, -27019.48, -0.014546683, -0.016504804, 16882.686, 16882.686, 0.0, 2.5006049, 2.4987996 
4.9385062e+2, 2.373664e+1, 4612.053, -534752.5, -23385.723, -0.014058354, -0.015509395, 5624.1104, 5624.1104, 0.0, 2.5005858, 2.4987998 
4.9385005e+2, 2.623545e+1, -6414.5938, -540094.7, -18527.396, -0.013570489, -0.014497276, -5772.1646, -5772.1646, 0.0, 2.500567, 2.4987998 
4.9384952e+2, 2.873426e+1, -17444.34, -545438.4, -13670.07, -0.013082997, -0.013467537, -17090.65, -17090.65, 0.0, 2.5005481, 2.4987998 
4.9384895e+2, 3.1233147e+1, 12407.961, -467228.3, -23811.525, -0.0122643085, -0.012126407, 13587.185, 13587.185, 0.0, 2.5005307, 2.4989424 
4.938483e+2, 3.37321e+1, 2811.3044, -472064.7, -22106.395, -0.0113022905, -0.010726934, 3838.1792, 3838.1792, 0.0, 2.5005143, 2.498942 
4.9384767e+2, 3.623106e+1, -6688.067, -476693.4, -19012.197, -0.010337536, -0.009290122, -5920.2583, -5920.2583, 0.0, 2.500498, 2.4989417 
4.9384698e+2, 3.8730013e+1, -16189.999, -481323.34, -15918.213, -0.009369427, -0.007815114, -15645.868, -15645.868, 0.0, 2.5004818, 2.4989417 
4.9384633e+2, 4.1229042e+1, 13202.982, -405607.84, -20612.396, -0.008178832, -0.0061077257, 14215.006, 14215.006, 0.0, 2.500466, 2.4990792 
4.938456e+2, 4.3728134e+1, 4136.7173, -410065.84, -19488.996, -0.0070013874, -0.0046855267, 5051.6895, 5051.6895, 0.0, 2.5004506, 2.499079 
4.938449e+2, 4.6227226e+1, -4908.062, -414471.84, -17207.945, -0.0058116764, -0.0032401446, -4186.337, -4186.337, 0.0, 2.500435, 2.4990788 
4.938442e+2, 4.8726323e+1, -13956.704, -418879.7, -14927.368, -0.0046088416, -0.0017696118, -13407.157, -13407.157, 0.0, 2.5004196, 2.4990788 
4.938435e+2, 5.122549e+1, 17046.537, -338585.56, -15348.727, -0.003258516, 0.00009535777, 17707.742, 17707.742, 0.0, 2.5004025, 2.4992247 
4.938428e+2, 5.372473e+1, 6267.018, -343241.03, -15816.916, -0.0024558047, 0.0016391792, 6981.349, 6981.349, 0.0, 2.5003834, 2.4992259 
4.9384207e+2, 5.622397e+1, -4906.418, -348702.88, -15685.716, -0.0016464385, 0.0032016009, -4192.2407, -4192.2407, 0.0, 2.5003643, 2.4992259 
4.9384135e+2, 5.872321e+1, -16086.105, -354167.75, -15555.086, -0.00082727964, 0.004786058, -15371.927, -15371.927, 0.0, 2.5003452, 2.4992256 
4.9384063e+2, 6.122252e+1, 15146.124, -271413.28, -13280.927, -0.00015212156, 0.005792595, 15760.327, 15760.327, 0.0, 2.500326, 2.499377 
4.9383992e+2, 6.3721895e+1, 4868.6646, -274976.66, -13945.1455, -0.00040824237, 0.0053194948, 5561.8564, 5561.8564, 0.0, 2.5003068, 2.49938 
4.938392e+2, 6.6221267e+1, -6334.6133, -280456.06, -14318.362, -0.00067961216, 0.004875523, -5588.7427, -5588.7427, 0.0, 2.5002875, 2.4993799 
4.9383846e+2, 6.8720645e+1, -17542.875, -285937.84, -14691.8955, -0.0009621491, 0.00446545, -16741.04, -16741.04, 0.0, 2.5002685, 2.4993796 
4.9383777e+2, 7.12201e+1, 14400.426, -202907.83, -11373.539, -0.00042030492, 0.0051560453, 14994.075, 14994.075, 0.0, 2.5002506, 2.4995308 
4.938371e+2, 7.371963e+1, 6495.0903, -204114.84, -11007.59, -0.00060808135, 0.0056951693, 7068.8423, 7068.8423, 0.0, 2.5002341, 2.4995365 
4.938364e+2, 7.621918e+1, -3090.4312, -208807.98, -10425.396, -0.00080100726, 0.006223305, -2563.441, -2563.441, 0.0, 2.5002177, 2.4995365 
4.938357e+2, 7.871872e+1, -12679.638, -213502.9, -9844.774, -0.0009897527, 0.0067477184, -12198.181, -12198.181, 0.0, 2.5002015, 2.4995363 
4.93835e+2, 8.1218344e+1, 23145.28, -118081.766, -4388.1323, -0.0021542509, 0.007909984, 23281.492, 23281.492, 0.0, 2.5001788, 2.499711 
4.9383432e+2, 8.371806e+1, 8715.973, -121121.78, -5046.0884, -0.0035134414, 0.007852195, 8911.792, 8911.792, 0.0, 2.5001497, 2.4997199 
4.9383366e+2, 8.621778e+1, -8185.4653, -129286.46, -5440.157, -0.0048594116, 0.007752142, -7941.5713, -7941.5713, 0.0, 2.5001209, 2.4997196 
4.9383298e+2, 8.8717496e+1, -25093.78, -137454.45, -5839.1523, -0.0061968444, 0.0076214946, -24791.146, -24791.146, 0.0, 2.5000918, 2.4997196 
4.9383238e+2, 9.121729e+1, 11896.19, -42608.83, 2007.3733, -0.0022633565, 0.008112144, 11970.0205, 11970.0205, 0.0, 2.5000725, 2.4998918 
4.9383178e+2, 9.371719e+1, 8998.714, -39617.86, -63.417374, -0.00060541934, 0.0074399323, 8998.797, 8998.797, 0.0, 2.5000627, 2.4999018 
4.938312e+2, 9.621707e+1, 3237.7402, -42536.605, -739.43665, 0.0009936243, 0.006802704, 3249.682, 3249.682, 0.0, 2.500053, 2.4999013 
4.9383056e+2, 9.8716956e+1, -2545.9963, -45466.297, -1408.916, 0.002583355, 0.0062128264, -2499.7966, -2499.7966, 0.0, 2.5000432, 2.499901 
4.9635425e+2, 1.2492396e+0, 14616.539, -647056.3, -21420.63, -0.019470828, -0.003034021, 15309.273, 15309.273, 0.0, 2.500729, 2.4985383 
4.9635407e+2, 3.747719e+0, 7104.1313, -650941.6, -14769.937, -0.020661362, -0.009070615, 7435.478, 7435.478, 0.0, 2.5007164, 2.4985378 
4.963539e+2, 6.2461984e+0, -251.45526, -654496.75, -8108.3706, -0.02185446, -0.015065279, -150.97983, -150.97983, 0.0, 2.5007038, 2.4985378 
4.963537e+2, 8.7446785e+0, -7609.6094, -658053.0, -1447.0131, -0.02305012, -0.021018011, -7606.39, -7606.39, 0.0, 2.5006914, 2.4985378 
4.9635342e+2, 1.12432525e+1, 27448.234, -571165.25, -32564.33, -0.02418844, -0.025230806, 29214.508, 29214.508, 0.0, 2.5006762, 2.498694 
4.96353e+2, 1.3741918e+1, 17374.633, -575622.9, -26552.293, -0.02526198, -0.028281903, 18561.174, 18561.174, 0.0, 2.5006585, 2.498695 
4.9635258e+2, 1.6240583e+1, 7037.051, -580624.06, -19984.79, -0.02634471, -0.0313604, 7715.896, 7715.896, 0.0, 2.5006406, 2.498695 
4.9635214e+2, 1.873925e+1, -3303.3826, -585626.44, -13418.0625, -0.027436621, -0.034465764, -2994.3635, -2994.3635, 0.0, 2.500623, 2.498695 
4.9635163e+2, 2.1238011e+1, 24615.482, -510753.2, -29922.033, -0.027999269, -0.03489357, 26282.648, 26282.648, 0.0, 2.5006049, 2.498832 
4.9635106e+2, 2.3736864e+1, 13621.215, -516045.8, -26235.621, -0.02804782, -0.032827504, 14917.553, 14917.553, 0.0, 2.5005858, 2.498832 
4.963505e+2, 2.6235718e+1, 2600.1138, -521388.2, -21368.912, -0.028104637, -0.030745983, 3470.1206, 3470.1206, 0.0, 2.500567, 2.498832 
4.963499e+2, 2.873457e+1, -8424.088, -526731.94, -16503.203, -0.02816966, -0.02864849, -7899.1484, -7899.1484, 0.0, 2.5005481, 2.4988317 
4.9634933e+2, 3.1233495e+1, 18227.203, -455182.22, -26346.572, -0.026439577, -0.026133431, 19688.95, 19688.95, 0.0, 2.5005307, 2.498963 
4.9634868e+2, 3.3732483e+1, 8573.255, -460138.16, -24540.303, -0.023111686, -0.023545954, 9854.608, 9854.608, 0.0, 2.5005145, 2.4989624 
4.9634805e+2, 3.6231473e+1, -925.84686, -464766.88, -21439.457, -0.01978894, -0.020920364, 63.010258, 63.010258, 0.0, 2.500498, 2.4989622 
4.963474e+2, 3.873046e+1, -10427.51, -469396.78, -18338.822, -0.016470624, -0.018255487, -9695.92, -9695.92, 0.0, 2.5004818, 2.4989622 
4.9634674e+2, 4.1229522e+1, 17525.88, -396675.63, -22998.842, -0.013864508, -0.015033806, 18798.996, 18798.996, 0.0, 2.500466, 2.4990945 
4.96346e+2, 4.3728647e+1, 8405.638, -401257.53, -21818.537, -0.0123249255, -0.011891856, 9564.409, 9564.409, 0.0, 2.5004506, 2.499094 
4.963453e+2, 4.622777e+1, -629.2944, -405654.8, -19525.605, -0.010787599, -0.008733978, 309.82498, 309.82498, 0.0, 2.500435, 2.499094 
4.963446e+2, 4.8726898e+1, -9668.089, -410053.94, -17233.146, -0.009251318, -0.0055577997, -8927.721, -8927.721, 0.0, 2.5004196, 2.4990938 
4.9634388e+2, 5.122609e+1, 17495.605, -337708.47, -18204.928, -0.007299696, -0.0024774296, 18426.207, 18426.207, 0.0, 2.5004025, 2.4992263 
4.9634314e+2, 5.372534e+1, 6551.431, -342723.72, -18680.572, -0.0054557873, -0.00010837994, 7547.698, 7547.698, 0.0, 2.5003834, 2.4992268 
4.9634242e+2, 5.6224585e+1, -4601.347, -348160.66, -18530.568, -0.0036258965, 0.0022706785, -3604.7544, -3604.7544, 0.0, 2.5003643, 2.4992266 
4.9634168e+2, 5.872384e+1, -15760.377, -353600.63, -18381.135, -0.0018077625, 0.0046625487, -14763.243, -14763.243, 0.0, 2.5003452, 2.4992266 
4.9634093e+2, 6.122315e+1, 14441.126, -272977.63, -16264.95, -0.0006081103, 0.006549063, 15358.626, 15358.626, 0.0, 2.5003262, 2.4993742 
4.9634022e+2, 6.3722533e+1, 4250.868, -276354.28, -16810.012, -0.0009435201, 0.006966723, 5254.305, 5254.305, 0.0, 2.5003068, 2.4993775 
4.9633947e+2, 6.6221917e+1, -6955.4863, -281834.78, -17170.408, -0.0013109552, 0.007416902, -5887.085, -5887.085, 0.0, 2.5002878, 2.4993775 
4.9633875e+2, 6.87213e+1, -18166.824, -287317.66, -17531.123, -0.0017057804, 0.007904606, -17029.74, -17029.74, 0.0, 2.5002685, 2.4993773 
4.96338e+2, 7.1220756e+1, 15410.16, -200984.84, -13895.416, -0.0013425265, 0.009120186, 16298.78, 16298.78, 0.0, 2.5002508, 2.4995341 
4.9633732e+2, 7.37203e+1, 7742.3096, -201707.36, -13460.55, -0.0018355311, 0.009560769, 8603.825, 8603.825, 0.0, 2.5002344, 2.4995406 
4.9633658e+2, 7.621984e+1, -1843.3173, -206408.63, -12853.701, -0.0023454174, 0.009983707, -1038.8289, -1038.8289, 0.0, 2.500218, 2.4995406 
4.9633586e+2, 7.8719383e+1, -11432.63, -211111.67, -12248.426, -0.0028626728, 0.010397425, -10684.11, -10684.11, 0.0, 2.5002017, 2.4995403 
4.9633515e+2, 8.121901e+1, 22228.102, -120120.6, -8903.7295, -0.0038650702, 0.0108103445, 22782.857, 22782.857, 0.0, 2.5001788, 2.4997075 
4.9633443e+2, 8.3718705e+1, 8146.3657, -122478.68, -9409.873, -0.004259072, 0.009214243, 8820.745, 8820.745, 0.0, 2.50015, 2.4997172 
4.9633378e+2, 8.6218405e+1, -8733.045, -130638.44, -9787.348, -0.004658795, 0.007552731, -7952.255, -7952.255, 0.0, 2.500121, 2.4997172 
4.9633306e+2, 8.8718104e+1, -25619.332, -138801.5, -10169.748, -0.0050706626, 0.00583799, -24712.81, -24712.81, 0.0, 2.500092, 2.4997172 
4.9633247e+2, 9.121789e+1, 10567.221, -45457.42, 338.9655, -0.00062620436, 0.005456965, 10569.271, 10569.271, 0.0, 2.5000725, 2.499887 
4.9633184e+2, 9.371777e+1, 7702.759, -42280.14, -1489.5884, 0.00026671452, 0.00438882, 7747.1123, 7747.1123, 0.0, 2.5000627, 2.499897 
4.9633121e+2, 9.621765e+1, 1846.5334, -45282.133, -2123.5815, 0.0010350877, 0.0034108027, 1942.0269, 1942.0269, 0.0, 2.5000527, 2.4998968 
4.963306e+2, 9.871753e+1, -4032.454, -48295.066, -2751.0354, 0.0017331982, 0.0025370233, -3862.1255, -3862.1255, 0.0, 2.500043, 2.4998963 
4.9885538e+2, 1.24932066e+0, 3274.7153, -632183.9, -18957.645, 0.020010943, 0.0027806184, 3839.7764, 3839.7764, 0.0, 2.5006878, 2.4985838 
4.9885517e+2, 3.747961e+0, -5134.5327, -636495.25, -3390.7898, 0.017772052, 0.008265165, -5116.3228, -5116.3228, 0.0, 2.5006735, 2.498583 
4.9885494e+2, 6.2466e+0, -13398.46, -640484.2, 12101.372, 0.015393576, 0.013648082, -13165.018, -13165.018, 0.0, 2.5006595, 2.498583 
4.9885476e+2, 8.745238e+0, -21674.852, -644478.2, 27565.125, 0.012876528, 0.018930132, -20457.207, -20457.207, 0.0, 2.5006452, 2.498583 
4.9885446e+2, 1.1243944e+1, 13031.353, -559301.94, 70.72951, 0.013841891, 0.023499247, 13031.361, 13031.361, 0.0, 2.500631, 2.498736 
4.9885407e+2, 1.3742709e+1, 5565.9365, -561835.56, 6332.093, 0.018107453, 0.026039211, 5636.593, 5636.593, 0.0, 2.5006173, 2.4987383 
4.9885365e+2, 1.6241473e+1, -2571.4946, -565773.94, 13092.001, 0.02204952, 0.028395904, -2267.327, -2267.327, 0.0, 2.5006032, 2.4987383 
4.9885327e+2, 1.8740234e+1, -10705.791, -569710.7, 19851.395, 0.025673866, 0.03057268, -10001.715, -10001.715, 0.0, 2.5005894, 2.4987383 
4.988528e+2, 2.1239041e+1, 16165.235, -500683.2, 1662.644, 0.025614064, 0.030976191, 16170.584, 16170.584, 0.0, 2.500575, 2.4988635 
4.9885213e+2, 2.3737893e+1, 7623.4336, -504737.66, 2372.9836, 0.02184492, 0.029511468, 7634.4233, 7634.4233, 0.0, 2.5005603, 2.4988637 
4.9885154e+2, 2.6236743e+1, -966.97235, -508909.34, 4255.2134, 0.01788519, 0.0281273, -931.3274, -931.3274, 0.0, 2.5005455, 2.4988637 
4.9885088e+2, 2.8735593e+1, -9549.781, -513077.38, 6178.6724, 0.013742708, 0.02682561, -9473.976, -9473.976, 0.0, 2.500531, 2.4988635 
4.9885023e+2, 3.12345e+1, 15705.866, -447316.16, -5517.6353, 0.01177937, 0.024737721, 15771.608, 15771.608, 0.0, 2.5005167, 2.4989831 
4.9884954e+2, 3.3733448e+1, 7213.8574, -451720.88, -4924.4463, 0.011620762, 0.02137783, 7266.692, 7266.692, 0.0, 2.5005023, 2.4989824 
4.9884886e+2, 3.62324e+1, -1096.8468, -455776.5, -3095.771, 0.011180313, 0.018248029, -1075.7697, -1075.7697, 0.0, 2.500488, 2.4989824 
4.9884814e+2, 3.8731354e+1, -9391.768, -459824.5, -1233.3492, 0.010471153, 0.015352232, -9388.391, -9388.391, 0.0, 2.500474, 2.4989822 
4.9884745e+2, 4.1230378e+1, 17189.805, -390281.8, -7069.36, 0.009612217, 0.01330342, 17312.416, 17312.416, 0.0, 2.5004585, 2.499109 
4.9884668e+2, 4.3729466e+1, 7326.2583, -395109.34, -6968.3403, 0.007939612, 0.011177114, 7446.882, 7446.882, 0.0, 2.5004416, 2.4991088 
4.988459e+2, 4.6228558e+1, -2487.8481, -399876.03, -5774.765, 0.005771538, 0.009325397, -2403.948, -2403.948, 0.0, 2.5004249, 2.4991088 
4.9884513e+2, 4.872765e+1, -12275.991, -404630.22, -4554.295, 0.0031268974, 0.007753096, -12223.134, -12223.134, 0.0, 2.500408, 2.4991088 
4.9884436e+2, 5.12268e+1, 12197.498, -339791.2, -6186.188, 0.0022176215, 0.0058994307, 12306.187, 12306.187, 0.0, 2.500393, 2.4992273 
4.988436e+2, 5.3726e+1, 4424.262, -343348.16, -5755.0127, 0.0025096377, 0.0030051179, 4519.4717, 4519.4717, 0.0, 2.5003793, 2.4992278 
4.9884284e+2, 5.62252e+1, -3561.2488, -347243.9, -4699.867, 0.002182204, 0.0004520938, -3496.99, -3496.99, 0.0, 2.5003657, 2.4992275 
4.9884206e+2, 5.8724403e+1, -11611.724, -351170.97, -3652.126, 0.0012579489, -0.0017576002, -11572.448, -11572.448, 0.0, 2.500352, 2.4992275 
4.9884132e+2, 6.12237e+1, 18561.424, -272412.8, -905.70526, 0.0023166214, -0.0019286722, 18564.244, 18564.244, 0.0, 2.5003347, 2.499371 
4.9884057e+2, 6.372308e+1, 7747.0977, -275741.5, -509.17014, 0.0039345524, -0.001334906, 7748.012, 7748.012, 0.0, 2.500314, 2.499375 
4.9883983e+2, 6.622246e+1, -4291.0815, -281622.28, -55.50755, 0.0045090816, -0.00054806547, -4291.0703, -4291.0703, 0.0, 2.5002935, 2.4993749 
4.9883905e+2, 6.872185e+1, -16324.047, -287500.53, 400.84064, 0.004074549, 0.00043622416, -16323.454, -16323.454, 0.0, 2.500273, 2.4993749 
4.988383e+2, 7.1221304e+1, 18420.14, -198537.61, 4585.7485, 0.0037745938, 0.0016930436, 18517.023, 18517.023, 0.0, 2.5002549, 2.4995363 
4.9883756e+2, 7.372084e+1, 11707.48, -198059.1, 4694.1343, 0.0019608464, 0.0009861565, 11812.473, 11812.473, 0.0, 2.5002394, 2.4995446 
4.9883682e+2, 7.622038e+1, 2631.9753, -202520.88, 4964.622, -0.00076888315, 0.00039272968, 2752.0469, 2752.0469, 0.0, 2.5002239, 2.4995444 
4.9883604e+2, 7.871992e+1, -6424.3467, -206973.39, 5256.882, -0.0043733097, -0.00007633804, -6286.6455, -6286.6455, 0.0, 2.5002084, 2.4995441 
4.988353e+2, 8.1219536e+1, 24042.305, -121462.734, 5241.747, -0.005334325, 0.00039257246, 24230.893, 24230.893, 0.0, 2.5001843, 2.4997025 
4.9883464e+2, 8.371923e+1, 8611.757, -123503.01, 2791.5896, -0.0028022816, -0.0011500167, 8670.717, 8670.717, 0.0, 2.500152, 2.4997146 
4.988339e+2, 8.6218923e+1, -10227.837, -132608.95, 339.68506, -0.0020648625, -0.0032000905, -10226.895, -10226.895, 0.0, 2.5001197, 2.4997144 
4.9883315e+2, 8.871861e+1, -29078.77, -141720.39, -2085.7024, -0.0030773038, -0.0057318243, -29040.162, -29040.162, 0.0, 2.5000875, 2.4997144 
4.9883255e+2, 9.12184e+1, 6998.256, -49680.78, 9116.804, 0.0020711417, -0.0056098783, 8428.595, 8428.595, 0.0, 2.5000691, 2.4998813 
4.9883193e+2, 9.371829e+1, 7682.7495, -44493.14, 5824.18, 0.0040686345, -0.0054635718, 8324.974, 8324.974, 0.0, 2.500065, 2.4998922 
4.988313e+2, 9.621817e+1, 4824.466, -46087.2, 3561.6553, 0.0038429305, -0.005992431, 5072.423, 5072.423, 0.0, 2.5000603, 2.4998918 
4.9883062e+2, 9.871804e+1, 1600.2115, -47857.434, 1398.4268, 0.0015180755, -0.0071622157, 1639.7208, 1639.7208, 0.0, 2.500055, 2.4998913 
