coord_x,coord_y,stress_xx,stress_yy,tau_xy,velocity_x,velocity_y,stress_1,eps,damage,lx,ly
1.2503009e+0, 1.24908805e+0, -165658.72, -888956.25, -100.82501, 0.0007236889, -0.0009140925, -165658.7, -165658.7, 0.0, 2.5005865, 2.4981923 
1.2503013e+0, 3.747264e+0, -166503.28, -889692.2, -151.6532, 0.0008121653, -0.002742222, -166503.25, -166503.25, 0.0, 2.5005853, 2.4981916 
1.2503016e+0, 6.24544e+0, -167141.42, -889999.7, -197.13676, 0.00090030866, -0.0045702765, -167141.36, -167141.36, 0.0, 2.5005841, 2.4981916 
1.2503019e+0, 8.7436163e+0, -167779.28, -890307.0, -243.00056, 0.0009881189, -0.006398257, -167779.2, -167779.2, 0.0, 2.5005832, 2.4981916 
1.2503006e+0, 1.1241891e+1, -126963.42, -803744.56, 128.55894, 0.00095360185, -0.005759397, -126963.4, -126963.4, 0.0, 2.5005813, 2.4983408 
1.2502976e+0, 1.3740262e+1, -128275.36, -803828.5, 1165.0972, 0.0007964536, -0.0030968275, -128273.35, -128273.35, 0.0, 2.5005784, 2.498342 
1.2502946e+0, 1.6238633e+1, -129931.18, -804626.3, 2207.5532, 0.0006391237, -0.00043473236, -129923.95, -129923.95, 0.0, 2.5005755, 2.498342 
1.2502916e+0, 1.8737003e+1, -131587.22, -805424.25, 3249.8152, 0.00048161307, 0.0022274388, -131571.55, -131571.55, 0.0, 2.5005727, 2.498342 
1.2502897e+0, 2.1235433e+1, -81057.99, -698005.9, 3635.5027, 0.00042990566, 0.0016426832, -81036.57, -81036.57, 0.0, 2.50057, 2.4985275 
1.2502891e+0, 2.373392e+1, -81825.195, -697122.5, 3260.6875, 0.00050234474, -0.003013843, -81807.914, -81807.914, 0.0, 2.5005674, 2.4985304 
1.2502885e+0, 2.6232404e+1, -83378.14, -697870.6, 2896.1978, 0.0005743975, -0.0076718833, -83364.484, -83364.484, 0.0, 2.5005648, 2.4985304 
1.2502877e+0, 2.873089e+1, -84931.37, -698618.8, 2531.3655, 0.0006460201, -0.012329532, -84920.92, -84920.92, 0.0, 2.500562, 2.4985304 
1.250286e+0, 3.1229484e+1, -43779.348, -610151.1, 2244.2783, 0.0006253373, -0.01371446, -43770.453, -43770.453, 0.0, 2.5005589, 2.4986837 
1.2502828e+0, 3.3728182e+1, -45078.688, -609162.0, 2206.8647, 0.0005179384, -0.012736985, -45070.055, -45070.055, 0.0, 2.5005548, 2.4986873 
1.2502798e+0, 3.6226884e+1, -47391.008, -610276.0, 2178.8298, 0.00041003735, -0.011762912, -47382.574, -47382.574, 0.0, 2.500551, 2.4986873 
1.2502769e+0, 3.8725582e+1, -49703.81, -611390.25, 2150.6692, 0.00030161082, -0.010788898, -49695.574, -49695.574, 0.0, 2.500547, 2.4986873 
1.2502751e+0, 4.122437e+1, -7883.4453, -521806.3, 2586.6873, 0.0002746932, -0.008223904, -7870.4263, -7870.4263, 0.0, 2.500544, 2.4988422 
1.2502745e+0, 4.3723252e+1, -7786.2886, -519527.0, 3151.3145, 0.0003369636, -0.005108668, -7766.8833, -7766.8833, 0.0, 2.500542, 2.4988472 
1.2502739e+0, 4.622213e+1, -9089.863, -520154.9, 3731.239, 0.0003985765, -0.0019982678, -9062.624, -9062.624, 0.0, 2.5005395, 2.4988472 
1.2502734e+0, 4.872101e+1, -10394.191, -520783.16, 4310.4316, 0.00045950498, 0.0011120008, -10357.79, -10357.79, 0.0, 2.5005374, 2.4988472 
1.2502712e+0, 5.1219946e+1, 40704.94, -411077.72, 3987.3503, 0.00042136697, 0.0006131972, 40740.133, 40740.133, 0.0, 2.5005336, 2.4990375 
1.2502672e+0, 5.371893e+1, 39118.49, -408935.56, 3215.6746, 0.000312513, -0.005019551, 39141.563, 39141.563, 0.0, 2.5005276, 2.499044 
1.2502632e+0, 5.621792e+1, 35708.723, -410577.88, 2462.3206, 0.00020283113, -0.010660171, 35722.31, 35722.31, 0.0, 2.500522, 2.499044 
1.250259e+0, 5.871691e+1, 32297.877, -412220.7, 1709.6572, 0.00009215418, -0.016301025, 32304.453, 32304.453, 0.0, 2.500516, 2.499044 
1.2502575e+0, 6.1216015e+1, 72889.766, -324687.84, 1768.9263, 0.00011110198, -0.017749084, 72897.63, 72897.63, 0.0, 2.5005126, 2.4991958 
1.2502584e+0, 6.371523e+1, 74226.86, -320664.6, 1917.6417, 0.00026725227, -0.016395723, 74236.17, 74236.17, 0.0, 2.5005112, 2.4992032 
1.2502593e+0, 6.621445e+1, 73444.29, -321041.2, 2077.7136, 0.00042213025, -0.015051526, 73455.234, 73455.234, 0.0, 2.5005097, 2.4992032 
1.2502602e+0, 6.871367e+1, 72660.766, -321418.25, 2236.8462, 0.0005757073, -0.013707553, 72673.46, 72673.46, 0.0, 2.5005085, 2.4992032 
1.250256e+0, 7.121298e+1, 119293.07, -219987.39, 1579.5154, 0.00041293027, -0.011568541, 119300.42, 119300.42, 0.0, 2.5005035, 2.4993799 
1.2502472e+0, 7.371237e+1, 116501.93, -217277.98, 1163.7654, -0.00002063002, -0.010695385, 116505.99, 116505.99, 0.0, 2.5004945, 2.499389 
1.2502383e+0, 7.6211774e+1, 111167.586, -219846.55, 774.1997, -0.00045600467, -0.009836434, 111169.4, 111169.4, 0.0, 2.5004852, 2.499389 
1.2502293e+0, 7.8711176e+1, 105832.62, -222415.4, 386.23575, -0.0008935525, -0.008977989, 105833.07, 105833.07, 0.0, 2.5004761, 2.499389 
1.2502275e+0, 8.1210625e+1, 146006.78, -134796.7, 1123.5299, -0.00085303775, -0.009776393, 146011.28, 146011.28, 0.0, 2.5004716, 2.4995415 
1.2502328e+0, 8.3710134e+1, 148810.44, -128873.86, 1575.8059, -0.00032932236, -0.013900618, 148819.38, 148819.38, 0.0, 2.5004716, 2.4995518 
1.2502381e+0, 8.620965e+1, 148745.52, -128903.29, 2040.3243, 0.00019150694, -0.018036777, 148760.52, 148760.52, 0.0, 2.5004714, 2.4995518 
1.2502432e+0, 8.870916e+1, 148678.47, -128933.75, 2505.5957, 0.00070952764, -0.022173364, 148701.08, 148701.08, 0.0, 2.5004714, 2.4995518 
1.2502375e+0, 9.120881e+1, 189327.67, -41075.38, 2026.0593, 0.00031898764, -0.01927523, 189345.48, 189345.48, 0.0, 2.5004675, 2.4997044 
1.2502232e+0, 9.370858e+1, 188030.7, -36334.246, 1670.9867, -0.0007327402, -0.013579596, 188043.16, 188043.16, 0.0, 2.5004597, 2.4997163 
1.2502088e+0, 9.620836e+1, 183370.38, -38578.15, 1346.3696, -0.0017900986, -0.007916789, 183378.53, 183378.53, 0.0, 2.5004516, 2.4997163 
1.2501943e+0, 9.870813e+1, 178713.13, -40820.566, 1023.92487, -0.0028552038, -0.002253676, 178717.9, 178717.9, 0.0, 2.5004437, 2.4997163 
3.7509027e+0, 1.249091e+0, -165932.67, -889245.3, -263.73956, 0.0021709704, -0.00059813296, -165932.58, -165932.58, 0.0, 2.500586, 2.4981918 
3.7509036e+0, 3.747273e+0, -166771.44, -889974.2, -336.88327, 0.002436207, -0.0017942314, -166771.28, -166771.28, 0.0, 2.500585, 2.498191 
3.7509045e+0, 6.2454545e+0, -167406.78, -890279.94, -392.95792, 0.002700444, -0.002990106, -167406.56, -167406.56, 0.0, 2.500584, 2.498191 
3.7509054e+0, 8.743637e+0, -168042.4, -890585.9, -448.89035, 0.002963682, -0.004185756, -168042.13, -168042.13, 0.0, 2.500583, 2.498191 
3.7509018e+0, 1.1241909e+1, -125196.33, -799808.94, -343.9069, 0.0028613275, -0.0041465145, -125196.16, -125196.16, 0.0, 2.500581, 2.4983478 
3.7508926e+0, 1.3740268e+1, -126506.49, -799897.6, 672.29095, 0.0023896296, -0.0032996172, -126505.82, -126505.82, 0.0, 2.5005782, 2.498349 
3.7508836e+0, 1.6238628e+1, -128157.13, -800692.44, 1706.611, 0.001917384, -0.0024530175, -128152.805, -128152.805, 0.0, 2.5005753, 2.498349 
3.7508747e+0, 1.8736988e+1, -129808.43, -801487.56, 2741.1191, 0.001444596, -0.00160619, -129797.24, -129797.24, 0.0, 2.5005724, 2.498349 
3.750869e+0, 2.123542e+1, -81832.016, -699379.9, 3162.39, 0.0012906233, -0.0022460166, -81815.82, -81815.82, 0.0, 2.5005698, 2.4985254 
3.7508672e+0, 2.3733921e+1, -82643.61, -698597.8, 2761.9065, 0.0015078543, -0.0051425565, -82631.23, -82631.23, 0.0, 2.5005672, 2.498528 
3.7508655e+0, 2.623242e+1, -84191.31, -699342.75, 2393.386, 0.001723921, -0.00803975, -84182.0, -84182.0, 0.0, 2.5005646, 2.498528 
3.7508637e+0, 2.8730923e+1, -85740.19, -700088.2, 2025.2145, 0.0019386975, -0.010935766, -85733.51, -85733.51, 0.0, 2.500562, 2.498528 
3.750858e+0, 3.122952e+1, -43942.96, -610296.3, 1556.2628, 0.0018783009, -0.011677889, -43938.684, -43938.684, 0.0, 2.5005586, 2.4986835 
3.7508488e+0, 3.3728215e+1, -45240.29, -609315.5, 1497.9156, 0.0015559626, -0.011150902, -45236.31, -45236.31, 0.0, 2.5005548, 2.498687 
3.7508395e+0, 3.622691e+1, -47545.723, -610425.6, 1469.3629, 0.0012321067, -0.010627287, -47541.887, -47541.887, 0.0, 2.5005507, 2.498687 
3.7508303e+0, 3.8725603e+1, -49852.87, -611536.6, 1440.9866, 0.00090667437, -0.01010385, -49849.176, -49849.176, 0.0, 2.5005467, 2.498687 
3.750825e+0, 4.1224384e+1, -6858.3687, -519522.13, 2166.061, 0.0008250748, -0.008373618, -6849.2173, -6849.2173, 0.0, 2.5005438, 2.4988463 
3.7508234e+0, 4.3723258e+1, -6789.828, -517313.56, 2701.7402, 0.0010119962, -0.006464829, -6775.5303, -6775.5303, 0.0, 2.5005417, 2.498851 
3.750822e+0, 4.622213e+1, -8087.639, -517938.25, 3284.7383, 0.0011969531, -0.004561077, -8066.478, -8066.478, 0.0, 2.5005395, 2.498851 
3.7508205e+0, 4.8721e+1, -9387.816, -518564.06, 3867.89, 0.0013798567, -0.0026577187, -9358.436, -9358.436, 0.0, 2.5005372, 2.498851 
3.7508136e+0, 5.121994e+1, 39296.125, -413884.03, 3039.1404, 0.0012670481, -0.0028159735, 39316.504, 39316.504, 0.0, 2.5005333, 2.4990327 
3.7508014e+0, 5.371894e+1, 37668.184, -411833.2, 2241.2275, 0.0009404589, -0.00646069, 37679.36, 37679.36, 0.0, 2.5005276, 2.499039 
3.7507895e+0, 5.6217945e+1, 34259.973, -413473.84, 1497.4288, 0.00061136886, -0.010113412, 34264.98, 34264.98, 0.0, 2.5005217, 2.499039 
3.7507772e+0, 5.8716947e+1, 30848.686, -415116.0, 753.82294, 0.0002792936, -0.013766835, 30849.96, 30849.96, 0.0, 2.500516, 2.499039 
3.7507728e+0, 6.1216056e+1, 73161.69, -324005.06, 1527.0703, 0.00033475654, -0.014722076, 73167.56, 73167.56, 0.0, 2.5005124, 2.499197 
3.7507755e+0, 6.371526e+1, 74477.57, -320029.2, 1663.9424, 0.0008028326, -0.014396934, 74484.59, 74484.59, 0.0, 2.5005112, 2.4992044 
3.7507778e+0, 6.621447e+1, 73694.734, -320405.13, 1836.6392, 0.0012671102, -0.014081373, 73703.29, 73703.29, 0.0, 2.5005097, 2.4992044 
3.7507805e+0, 6.871368e+1, 72908.016, -320782.9, 2009.5175, 0.001727485, -0.013766485, 72918.266, 72918.266, 0.0, 2.5005083, 2.4992044 
3.7507683e+0, 7.1212983e+1, 118581.586, -221335.42, 241.3788, 0.0012447104, -0.012375189, 118581.76, 118581.76, 0.0, 2.5005035, 2.4993775 
3.7507418e+0, 7.371237e+1, 115731.74, -218740.5, -205.51312, -0.00005741321, -0.011897933, 115731.87, 115731.87, 0.0, 2.5004942, 2.4993863 
3.750715e+0, 7.621177e+1, 110389.195, -221311.33, -574.88947, -0.0013650566, -0.011435518, 110390.195, 110390.195, 0.0, 2.5004852, 2.4993863 
3.750688e+0, 7.871116e+1, 105041.21, -223884.8, -944.27814, -0.0026792195, -0.010974619, 105043.92, 105043.92, 0.0, 2.500476, 2.4993865 
3.7506828e+0, 8.121062e+1, 146798.08, -132948.13, 1190.7184, -0.002554111, -0.0111118015, 146803.14, 146803.14, 0.0, 2.5004714, 2.4995446 
3.7506983e+0, 8.371015e+1, 149559.73, -127098.0, 1635.5095, -0.0009858191, -0.013352197, 149569.4, 149569.4, 0.0, 2.5004714, 2.4995549 
3.750714e+0, 8.6209685e+1, 149482.56, -127129.68, 2113.4846, 0.0005737598, -0.0156044355, 149498.7, 149498.7, 0.0, 2.500471, 2.4995549 
3.7507296e+0, 8.8709223e+1, 149397.73, -127165.04, 2591.6292, 0.0021249128, -0.017857956, 149422.02, 149422.02, 0.0, 2.5004709, 2.4995549 
3.7507126e+0, 9.120887e+1, 188639.95, -42174.48, 1011.5247, 0.00097570254, -0.015071383, 188644.39, 188644.39, 0.0, 2.5004673, 2.4997027 
3.7506694e+0, 9.3708616e+1, 187245.6, -37559.82, 649.87024, -0.0021808487, -0.011583628, 187247.47, 187247.47, 0.0, 2.5004592, 2.4997144 
3.7506264e+0, 9.6208364e+1, 182521.52, -39833.68, 367.94418, -0.0053546457, -0.008128459, 182522.13, 182522.13, 0.0, 2.500451, 2.4997144 
3.750583e+0, 9.8708117e+1, 177783.06, -42114.46, 86.10216, -0.008551683, -0.0046723764, 177783.1, 177783.1, 0.0, 2.500443, 2.4997144 
6.2515044e+0, 1.249094e+0, -166031.13, -889449.56, -421.09146, 0.0036181232, -0.0002826239, -166030.88, -166030.88, 0.0, 2.500586, 2.4981916 
6.251506e+0, 3.7472817e+0, -166868.03, -890173.9, -504.67426, 0.004059863, -0.00084759225, -166867.69, -166867.69, 0.0, 2.500585, 2.4981909 
6.251508e+0, 6.24547e+0, -167503.61, -890479.44, -560.3074, 0.004499937, -0.0014121874, -167503.17, -167503.17, 0.0, 2.500584, 2.4981909 
6.251509e+0, 8.743658e+0, -168139.45, -890785.1, -615.79834, 0.0049383454, -0.0019764095, -168138.94, -168138.94, 0.0, 2.500583, 2.4981909 
6.251503e+0, 1.1241927e+1, -123274.55, -795811.25, -768.19586, 0.0047697495, -0.0025297739, -123273.67, -123273.67, 0.0, 2.500581, 2.4983547 
6.251488e+0, 1.3740276e+1, -124580.93, -795891.8, 237.60033, 0.003983164, -0.0035012718, -124580.84, -124580.84, 0.0, 2.5005782, 2.4983559 
6.251473e+0, 1.6238624e+1, -126231.35, -796686.06, 1272.6793, 0.0031956614, -0.0044729114, -126228.94, -126228.94, 0.0, 2.5005753, 2.4983559 
6.251458e+0, 1.8736973e+1, -127882.44, -797480.56, 2307.9463, 0.0024072547, -0.0054441714, -127874.484, -127874.484, 0.0, 2.5005724, 2.4983559 
6.2514484e+0, 2.1235405e+1, -82475.13, -700707.8, 2771.4365, 0.0021525496, -0.0061334106, -82462.71, -82462.71, 0.0, 2.5005698, 2.498523 
6.2514454e+0, 2.3733921e+1, -83328.164, -700009.2, 2351.4155, 0.0025144573, -0.007272619, -83319.195, -83319.195, 0.0, 2.5005672, 2.4985256 
6.2514424e+0, 2.6232436e+1, -84877.12, -700754.06, 1983.837, 0.002874416, -0.008411653, -84870.73, -84870.73, 0.0, 2.5005646, 2.4985256 
6.251439e+0, 2.8730953e+1, -86427.23, -701499.5, 1616.6075, 0.0032322244, -0.009548725, -86422.98, -86422.98, 0.0, 2.5005617, 2.4985256 
6.25143e+0, 3.1229556e+1, -44001.46, -610407.4, 969.7394, 0.0031343168, -0.009636699, -43999.8, -43999.8, 0.0, 2.5005586, 2.4986832 
6.251415e+0, 3.3728245e+1, -45294.47, -609417.7, 891.56055, 0.0025968503, -0.009562691, -45293.06, -45293.06, 0.0, 2.5005548, 2.4986868 
6.251399e+0, 3.6226937e+1, -47599.535, -610527.1, 863.9418, 0.0020568357, -0.009492119, -47598.207, -47598.207, 0.0, 2.5005507, 2.4986868 
6.251384e+0, 3.8725623e+1, -49906.31, -611637.44, 836.4995, 0.0015141937, -0.009421841, -49905.063, -49905.063, 0.0, 2.5005467, 2.4986868 
6.251375e+0, 4.1224402e+1, -5754.7793, -517217.72, 1850.3239, 0.0013767834, -0.008521164, -5748.0854, -5748.0854, 0.0, 2.5005438, 2.4988503 
6.251372e+0, 4.3723267e+1, -5711.49, -515061.13, 2355.8364, 0.0016885027, -0.007821357, -5700.594, -5700.594, 0.0, 2.5005417, 2.498855 
6.25137e+0, 4.622213e+1, -7009.3486, -515685.4, 2939.7495, 0.0019969612, -0.0071268417, -6992.3594, -6992.3594, 0.0, 2.5005395, 2.498855 
6.2513673e+0, 4.8720992e+1, -8309.572, -516310.8, 3523.8162, 0.0023019975, -0.006432983, -8285.13, -8285.13, 0.0, 2.5005372, 2.498855 
6.2513554e+0, 5.1219934e+1, 37945.98, -416677.4, 2183.6367, 0.0021166585, -0.00624141, 37956.47, 37956.47, 0.0, 2.5005333, 2.4990277 
6.251336e+0, 5.3718954e+1, 36282.35, -414700.3, 1351.0546, 0.001572298, -0.007900476, 36286.4, 36286.4, 0.0, 2.5005276, 2.4990342 
6.2513155e+0, 5.6217974e+1, 32874.445, -416339.94, 608.3, 0.0010237406, -0.0095677925, 32875.266, 32875.266, 0.0, 2.5005217, 2.4990342 
6.251296e+0, 5.871699e+1, 29463.46, -417981.06, -134.26167, 0.00047020783, -0.011236277, 29463.5, 29463.5, 0.0, 2.500516, 2.4990342 
6.2512875e+0, 6.12161e+1, 73488.16, -323310.47, 1342.9929, 0.00056034524, -0.011693113, 73492.7, 73492.7, 0.0, 2.5005124, 2.4991982 
6.251292e+0, 6.3715297e+1, 74789.63, -319364.78, 1457.9849, 0.0013398473, -0.012398604, 74795.02, 74795.02, 0.0, 2.500511, 2.4992056 
6.2512964e+0, 6.62145e+1, 74007.46, -319739.6, 1631.7966, 0.0021130494, -0.013114177, 74014.23, 74014.23, 0.0, 2.5005097, 2.4992056 
6.2513006e+0, 6.87137e+1, 73221.414, -320116.3, 1805.79, 0.002879747, -0.013830869, 73229.7, 73229.7, 0.0, 2.5005083, 2.4992056 
6.251281e+0, 7.121299e+1, 117930.27, -222672.42, -1090.6362, 0.0020843835, -0.013178241, 117933.766, 117933.766, 0.0, 2.5005035, 2.4993753 
6.251236e+0, 7.371237e+1, 115038.95, -220166.6, -1585.1315, -0.00008822725, -0.0131001705, 115046.45, 115046.45, 0.0, 2.5004942, 2.499384 
6.2511915e+0, 7.621176e+1, 109699.29, -222734.39, -1952.5664, -0.0022701654, -0.013037716, 109710.76, 109710.76, 0.0, 2.5004852, 2.499384 
6.251147e+0, 7.8711146e+1, 104354.18, -225304.81, -2320.0137, -0.004462969, -0.012977787, 104370.51, 104370.51, 0.0, 2.500476, 2.499384 
6.2511384e+0, 8.121061e+1, 147691.58, -131075.3, 1194.194, -0.004248515, -0.012444081, 147696.69, 147696.69, 0.0, 2.5004714, 2.499548 
6.251164e+0, 8.371017e+1, 150436.89, -125261.49, 1624.0449, -0.001639452, -0.01280422, 150446.47, 150446.47, 0.0, 2.5004714, 2.499558 
6.25119e+0, 8.6209726e+1, 150363.6, -125287.64, 2103.9607, 0.00095499784, -0.013176274, 150379.64, 150379.64, 0.0, 2.500471, 2.499558 
6.251216e+0, 8.8709277e+1, 150282.63, -125317.484, 2584.046, 0.0035354046, -0.013550463, 150306.84, 150306.84, 0.0, 2.5004709, 2.499558 
6.251188e+0, 9.120893e+1, 188139.23, -43204.355, -129.55391, 0.0016574037, -0.010864361, 188139.31, 188139.31, 0.0, 2.5004673, 2.4997008 
6.2511164e+0, 9.370866e+1, 186708.06, -38667.23, -530.0127, -0.0036057946, -0.009589429, 186709.3, 186709.3, 0.0, 2.5004592, 2.4997125 
6.2510437e+0, 9.620838e+1, 181985.11, -40939.797, -805.1135, -0.008898326, -0.008347037, 181988.02, 181988.02, 0.0, 2.500451, 2.4997125 
6.2509716e+0, 9.8708105e+1, 177247.78, -43219.29, -1080.1304, -0.014229592, -0.0071031246, 177253.08, 177253.08, 0.0, 2.500443, 2.4997125 
8.7521064e+0, 1.24909684e+0, -166310.36, -889740.6, -572.5914, 0.0050651967, 0.000032431104, -166309.9, -166309.9, 0.0, 2.5005858, 2.498191 
8.752109e+0, 3.747291e+0, -167117.78, -890447.8, -653.98663, 0.0056831706, 0.000097684424, -167117.19, -167117.19, 0.0, 2.5005848, 2.4981904 
8.7521106e+0, 6.245485e+0, -167739.5, -890746.4, -697.0834, 0.0062988186, 0.00016345992, -167738.83, -167738.83, 0.0, 2.5005836, 2.4981904 
8.7521136e+0, 8.7436783e+0, -168375.63, -891051.9, -740.2651, 0.006912141, 0.00022975741, -168374.86, -168374.86, 0.0, 2.5005827, 2.4981904 
8.752104e+0, 1.12419456e+1, -121502.586, -791898.1, -1138.8042, 0.0066789, -0.0009092083, -121500.66, -121500.66, 0.0, 2.5005808, 2.4983613 
8.7520826e+0, 1.3740282e+1, -122796.69, -791954.8, -130.42374, 0.005577088, -0.0037018321, -122796.664, -122796.664, 0.0, 2.500578, 2.4983628 
8.752062e+0, 1.623862e+1, -124450.086, -792749.94, 918.09753, 0.004473986, -0.0064944616, -124448.83, -124448.83, 0.0, 2.500575, 2.4983628 
8.752041e+0, 1.8736956e+1, -126108.45, -793547.44, 1967.1432, 0.0033696203, -0.00928656, -126102.66, -126102.66, 0.0, 2.5005722, 2.4983628 
8.752028e+0, 2.1235391e+1, -83276.734, -702129.1, 2485.98, 0.0030157128, -0.010019556, -83266.75, -83266.75, 0.0, 2.5005696, 2.4985206 
8.7520236e+0, 2.3733923e+1, -84149.99, -701487.25, 2061.1538, 0.0035221777, -0.009404087, -84143.11, -84143.11, 0.0, 2.500567, 2.498523 
8.752019e+0, 2.6232454e+1, -85699.57, -702231.75, 1708.7007, 0.004025906, -0.008787655, -85694.83, -85694.83, 0.0, 2.5005643, 2.498523 
8.752014e+0, 2.8730986e+1, -87261.26, -702982.1, 1356.8022, 0.0045266273, -0.008168477, -87258.266, -87258.266, 0.0, 2.5005615, 2.498523 
8.7520015e+0, 3.1229594e+1, -44213.125, -610608.75, 545.9642, 0.0043934104, -0.0075909602, -44212.598, -44212.598, 0.0, 2.5005584, 2.498683 
8.7519807e+0, 3.3728278e+1, -45474.016, -609580.75, 458.8274, 0.0036406221, -0.007972418, -45473.64, -45473.64, 0.0, 2.5005546, 2.4986868 
8.7519586e+0, 3.6226964e+1, -47772.77, -610686.6, 443.78143, 0.002884245, -0.008357469, -47772.42, -47772.42, 0.0, 2.5005505, 2.4986868 
8.751937e+0, 3.8725647e+1, -50085.23, -611799.1, 428.72144, 0.0021241936, -0.00874293, -50084.902, -50084.902, 0.0, 2.5005465, 2.4986868 
8.751925e+0, 4.122442e+1, -4784.272, -514995.06, 1741.8959, 0.0019298415, -0.008666598, -4778.325, -4778.325, 0.0, 2.5005436, 2.4988542 
8.7519217e+0, 4.3723273e+1, -4744.7627, -512862.88, 2228.5476, 0.002366498, -0.009178304, -4734.989, -4734.989, 0.0, 2.5005414, 2.498859 
8.751918e+0, 4.622213e+1, -6046.9595, -513488.8, 2825.1677, 0.0027986136, -0.00969561, -6031.231, -6031.231, 0.0, 2.5005393, 2.498859 
8.751914e+0, 4.8720983e+1, -7367.3267, -514123.5, 3422.822, 0.003225943, -0.010213835, -7344.2085, -7344.2085, 0.0, 2.500537, 2.498859 
8.751898e+0, 5.121993e+1, 36452.332, -419555.13, 1580.8722, 0.0029702133, -0.009663152, 36457.813, 36457.813, 0.0, 2.500533, 2.499023 
8.7518704e+0, 5.371896e+1, 34780.332, -417623.88, 721.61743, 0.0022080431, -0.009338946, 34781.484, 34781.484, 0.0, 2.5005274, 2.4990292 
8.751842e+0, 5.621799e+1, 31363.758, -419266.8, -10.949892, 0.001439966, -0.009023342, 31363.758, 31363.758, 0.0, 2.5005214, 2.4990292 
8.751814e+0, 5.871703e+1, 27915.879, -420924.8, -742.17145, 0.0006649322, -0.008709373, 27917.105, 27917.105, 0.0, 2.5005155, 2.4990292 
8.7518024e+0, 6.121614e+1, 73648.445, -322710.34, 1451.5499, 0.00078790134, -0.008662207, 73653.766, 73653.766, 0.0, 2.5005121, 2.4991994 
8.751809e+0, 6.371533e+1, 74988.28, -318755.53, 1557.8156, 0.0018783113, -0.010400743, 74994.445, 74994.445, 0.0, 2.500511, 2.4992068 
8.751815e+0, 6.6214526e+1, 74213.09, -319126.2, 1742.2313, 0.0029599576, -0.0121499365, 74220.81, 74220.81, 0.0, 2.5005095, 2.4992068 
8.7518215e+0, 6.871371e+1, 73398.6, -319515.8, 1923.7985, 0.0040325103, -0.013900695, 73408.02, 73408.02, 0.0, 2.500508, 2.4992068 
8.751793e+0, 7.1212995e+1, 117152.516, -224088.23, -2100.158, 0.002931965, -0.013977675, 117165.44, 117165.44, 0.0, 2.5005033, 2.499373 
8.751731e+0, 7.371237e+1, 114282.09, -221624.38, -2643.5176, -0.00011306093, -0.014302064, 114302.9, 114302.9, 0.0, 2.5004942, 2.4993815 
8.751668e+0, 7.6211756e+1, 108932.48, -224195.3, -3017.4314, -0.0031713021, -0.014642978, 108959.805, 108959.805, 0.0, 2.500485, 2.4993815 
8.751606e+0, 7.8711134e+1, 103511.87, -226800.42, -3396.457, -0.006244733, -0.014987423, 103546.79, 103546.79, 0.0, 2.5004756, 2.4993815 
8.751594e+0, 8.121061e+1, 148450.61, -129292.11, 1492.2524, -0.005936184, -0.013773146, 148458.63, 148458.63, 0.0, 2.500471, 2.499551 
8.7516296e+0, 8.371018e+1, 151313.66, -123426.02, 1922.273, -0.0022901963, -0.012256599, 151327.1, 151327.1, 0.0, 2.5004714, 2.499561 
8.751666e+0, 8.620976e+1, 151241.9, -123447.77, 2404.9692, 0.0013352443, -0.010752187, 151262.97, 151262.97, 0.0, 2.500471, 2.499561 
8.7517023e+0, 8.8709337e+1, 151042.31, -123531.1, 2876.933, 0.004941063, -0.00925076, 151072.45, 151072.45, 0.0, 2.5004709, 2.4995613 
8.751663e+0, 9.1208994e+1, 187509.67, -44317.047, -1005.92175, 0.0023641505, -0.0066540185, 187514.03, 187514.03, 0.0, 2.500467, 2.499699 
8.751563e+0, 9.370869e+1, 186163.86, -39778.844, -1480.2786, -0.0050075417, -0.0075968276, 186173.56, 186173.56, 0.0, 2.5004592, 2.4997106 
8.751462e+0, 9.620839e+1, 181375.61, -42082.12, -1786.9662, -0.012421061, -0.0085723335, 181389.89, 181389.89, 0.0, 2.5004508, 2.4997106 
8.751361e+0, 9.8708093e+1, 176397.56, -44476.793, -2093.1848, -0.019888742, -0.0095457155, 176417.4, 176417.4, 0.0, 2.5004423, 2.4997106 
1.12527e+1, 1.2490984e+0, -170688.73, -890509.8, -192.96954, 0.0062125125, 0.000036299185, -170688.69, -170688.69, 0.0, 2.5005767, 2.4981942 
1.1252703e+1, 3.7472954e+0, -171116.27, -891028.25, 678.72, 0.0069037816, 0.0001092161, -171115.63, -171115.63, 0.0, 2.5005765, 2.4981935 
1.1252704e+1, 6.2454927e+0, -171347.84, -891137.8, 1597.972, 0.007598891, 0.00018255843, -171344.3, -171344.3, 0.0, 2.500576, 2.4981935 
1.12527065e+1, 8.7436897e+0, -171580.48, -891247.9, 2517.2385, 0.00829784, 0.00025632602, -171571.69, -171571.69, 0.0, 2.5005755, 2.4981935 
1.1252697e+1, 1.1241958e+1, -124301.125, -791738.5, 1774.3857, 0.008107251, -0.0009215635, -124296.414, -124296.414, 0.0, 2.5005744, 2.4983647 
1.1252673e+1, 1.3740297e+1, -125415.99, -791709.6, 1657.6313, 0.007024882, -0.0038061503, -125411.87, -125411.87, 0.0, 2.5005717, 2.498366 
1.1252649e+1, 1.6238637e+1, -126883.62, -792412.06, 1592.9155, 0.005942397, -0.0066908477, -126879.805, -126879.805, 0.0, 2.500569, 2.498366 
1.1252625e+1, 1.8736976e+1, -128352.04, -793114.94, 1528.9974, 0.0048597874, -0.00957511, -128348.52, -128348.52, 0.0, 2.5005667, 2.498366 
1.12526104e+1, 2.1235414e+1, -86317.74, -702872.2, 1970.1676, 0.0044843126, -0.010320228, -86311.45, -86311.45, 0.0, 2.5005636, 2.4985223 
1.12526014e+1, 2.3733948e+1, -87936.55, -702617.8, 2663.2278, 0.0049267067, -0.009627159, -87925.01, -87925.01, 0.0, 2.5005596, 2.4985247 
1.1252593e+1, 2.623248e+1, -90202.66, -703705.2, 3443.0422, 0.0053705964, -0.008936015, -90183.336, -90183.336, 0.0, 2.5005558, 2.4985247 
1.1252584e+1, 2.8731015e+1, -92470.22, -704793.3, 4223.4644, 0.0058157165, -0.008245043, -92441.086, -92441.086, 0.0, 2.500552, 2.4985247 
1.12525694e+1, 3.1229627e+1, -48832.273, -612266.06, 4374.4375, 0.005656658, -0.0076232506, -48798.313, -48798.313, 0.0, 2.5005498, 2.4986844 
1.12525456e+1, 3.372831e+1, -48145.484, -610329.6, 4608.1577, 0.004920622, -0.007980779, -48107.715, -48107.715, 0.0, 2.5005493, 2.498688 
1.1252522e+1, 3.6226997e+1, -48464.145, -610478.4, 4940.5435, 0.0041857525, -0.008340029, -48420.72, -48420.72, 0.0, 2.5005488, 2.498688 
1.12524986e+1, 3.872568e+1, -48784.324, -610627.8, 5273.576, 0.003451921, -0.008697835, -48734.832, -48734.832, 0.0, 2.5005481, 2.498688 
1.1252482e+1, 4.1224453e+1, -3249.1584, -513801.97, 6153.2876, 0.0031204543, -0.008628572, -3175.0085, -3175.0085, 0.0, 2.5005457, 2.498855 
1.1252472e+1, 4.372331e+1, -4608.125, -512389.5, 5654.1284, 0.003277377, -0.009174988, -4545.1743, -4545.1743, 0.0, 2.5005412, 2.49886 
1.1252462e+1, 4.6222165e+1, -7262.4688, -513662.4, 5291.2275, 0.0034347211, -0.009724927, -7207.1885, -7207.1885, 0.0, 2.5005367, 2.49886 
1.1252453e+1, 4.8721018e+1, -9919.366, -514936.56, 4928.9053, 0.003592138, -0.010273747, -9871.265, -9871.265, 0.0, 2.5005322, 2.49886 
1.1252433e+1, 5.1219964e+1, 34457.273, -421033.72, 3267.9272, 0.0032672056, -0.009690818, 34480.72, 34480.72, 0.0, 2.5005302, 2.4990218 
1.1252403e+1, 5.3718996e+1, 36387.97, -417421.25, 3400.0667, 0.0026654191, -0.009258693, 36413.44, 36413.44, 0.0, 2.5005307, 2.499028 
1.1252375e+1, 5.6218034e+1, 36636.83, -417293.34, 3690.6462, 0.0020662285, -0.008832165, 36666.836, 36666.836, 0.0, 2.5005312, 2.499028 
1.1252345e+1, 5.8717066e+1, 36882.293, -417167.1, 3981.9006, 0.0014684546, -0.0084043285, 36917.21, 36917.21, 0.0, 2.5005314, 2.499028 
1.1252329e+1, 6.121618e+1, 82457.66, -318192.63, 6155.428, 0.0014901327, -0.008251838, 82552.2, 82552.2, 0.0, 2.500527, 2.4991999 
1.1252326e+1, 6.371537e+1, 78490.8, -316865.84, 5939.817, 0.0022430976, -0.009853787, 78580.016, 78580.016, 0.0, 2.5005167, 2.4992073 
1.1252323e+1, 6.621456e+1, 72489.85, -319753.7, 5840.7617, 0.0030005036, -0.011463137, 72576.805, 72576.805, 0.0, 2.5005064, 2.4992073 
1.12523206e+1, 6.8713754e+1, 66482.16, -322644.78, 5743.1016, 0.0037617465, -0.013071049, 66566.9, 66566.9, 0.0, 2.500496, 2.4992073 
1.1252287e+1, 7.1213037e+1, 110425.72, -228394.97, 2066.8774, 0.002520617, -0.013168906, 110438.33, 110438.33, 0.0, 2.5004928, 2.4993706 
1.1252223e+1, 7.371241e+1, 115026.91, -222435.31, 1392.6704, -0.0004171071, -0.013655724, 115032.66, 115032.66, 0.0, 2.5004966, 2.499379 
1.1252159e+1, 7.6211786e+1, 117273.734, -221353.06, 916.43506, -0.0033445838, -0.014153988, 117276.22, 117276.22, 0.0, 2.5005004, 2.499379 
1.1252096e+1, 7.871116e+1, 119513.76, -220274.08, 441.72134, -0.0062642377, -0.0146508785, 119514.33, 119514.33, 0.0, 2.5005045, 2.499379 
1.12520784e+1, 8.121063e+1, 164661.8, -121584.61, 4036.659, -0.0060206917, -0.013211747, 164718.7, 164718.7, 0.0, 2.500499, 2.4995508 
1.1252103e+1, 8.371022e+1, 158228.64, -120290.734, 3243.1575, -0.0027531355, -0.011048184, 158266.4, 158266.4, 0.0, 2.5004833, 2.4995608 
1.12521276e+1, 8.62098e+1, 149030.81, -124721.58, 2563.846, 0.00053497276, -0.008889729, 149054.83, 149054.83, 0.0, 2.5004675, 2.4995608 
1.1252152e+1, 8.870938e+1, 139824.33, -129156.59, 1883.8414, 0.0038452838, -0.006727488, 139837.52, 139837.52, 0.0, 2.5004518, 2.4995608 
1.1252107e+1, 9.1209036e+1, 176135.77, -49997.914, -1166.8585, 0.0008220103, -0.003985942, 176141.78, 176141.78, 0.0, 2.5004478, 2.4996986 
1.1252005e+1, 9.370873e+1, 183494.47, -41349.7, -1321.2097, -0.006603703, -0.005187911, 183502.23, 183502.23, 0.0, 2.500455, 2.49971 
1.1251903e+1, 9.620843e+1, 187606.67, -39362.04, -1284.0559, -0.014004176, -0.0064290515, 187613.94, 187613.94, 0.0, 2.5004618, 2.49971 
1.12518035e+1, 9.870813e+1, 191669.08, -37398.36, -1246.0197, -0.0213958, -0.007675616, 191675.86, 191675.86, 0.0, 2.500469, 2.49971 
1.3753286e+1, 1.24909855e+0, -168961.7, -886933.5, -249.44435, 0.006924983, -0.0002606875, -168961.61, -168961.61, 0.0, 2.5005767, 2.4982004 
1.3753287e+1, 3.7472957e+0, -169384.4, -887442.0, 613.8129, 0.007618932, -0.0007818118, -169383.89, -169383.89, 0.0, 2.5005765, 2.4981997 
1.3753289e+1, 6.2454927e+0, -169615.02, -887550.4, 1532.0945, 0.008314175, -0.0013026011, -169611.73, -169611.73, 0.0, 2.500576, 2.4981997 
1.375329e+1, 8.7436897e+0, -169846.22, -887659.0, 2450.409, 0.009010712, -0.0018230557, -169837.86, -169837.86, 0.0, 2.5005755, 2.4981997 
1.375328e+1, 1.1241967e+1, -124385.93, -791918.44, 1389.4669, 0.008970197, -0.0024796675, -124383.04, -124383.04, 0.0, 2.5005744, 2.4983644 
1.3753258e+1, 1.3740322e+1, -125519.49, -791927.06, 1260.5813, 0.008245844, -0.0037108418, -125517.1, -125517.1, 0.0, 2.5005717, 2.4983656 
1.3753235e+1, 1.6238678e+1, -126987.24, -792628.5, 1194.9451, 0.007519884, -0.0049408106, -126985.09, -126985.09, 0.0, 2.500569, 2.4983656 
1.3753213e+1, 1.8737034e+1, -128455.805, -793330.3, 1129.985, 0.0067922394, -0.0061690384, -128453.89, -128453.89, 0.0, 2.5005667, 2.4983656 
1.3753194e+1, 2.1235473e+1, -84841.86, -699816.2, 1368.7152, 0.0064799613, -0.006884596, -84838.81, -84838.81, 0.0, 2.5005636, 2.4985275 
1.375318e+1, 2.3733996e+1, -86469.81, -699581.1, 2050.3967, 0.006662996, -0.0077891718, -86462.95, -86462.95, 0.0, 2.5005596, 2.49853 
1.3753164e+1, 2.623252e+1, -88734.47, -700666.7, 2828.3867, 0.006845499, -0.008694794, -88721.4, -88721.4, 0.0, 2.5005558, 2.49853 
1.3753149e+1, 2.8731042e+1, -91000.24, -701752.9, 3606.8796, 0.0070272805, -0.009599752, -90978.945, -90978.945, 0.0, 2.500552, 2.49853 
1.3753133e+1, 3.122965e+1, -48148.137, -610847.7, 4283.38, 0.0068536946, -0.009554066, -48115.53, -48115.53, 0.0, 2.5005498, 2.4986868 
1.375311e+1, 3.3728343e+1, -47518.98, -609028.44, 4486.5313, 0.0063797925, -0.009413754, -47483.137, -47483.137, 0.0, 2.5005493, 2.4986901 
1.3753088e+1, 3.6227036e+1, -47838.535, -609176.3, 4817.08, 0.0059048175, -0.009274516, -47797.2, -47797.2, 0.0, 2.5005488, 2.4986901 
1.3753067e+1, 3.872573e+1, -48159.7, -609325.0, 5148.1724, 0.0054285536, -0.009133325, -48112.477, -48112.477, 0.0, 2.5005481, 2.4986901 
1.3753046e+1, 4.122451e+1, -3861.2412, -515083.56, 5442.255, 0.0048916256, -0.008261816, -3803.3118, -3803.3118, 0.0, 2.5005457, 2.498853 
1.3753025e+1, 4.3723375e+1, -5272.911, -513776.3, 4917.092, 0.0043853233, -0.0076743374, -5225.3687, -5225.3687, 0.0, 2.5005412, 2.4988575 
1.3753004e+1, 4.6222237e+1, -7928.584, -515048.5, 4552.481, 0.003876292, -0.0070899613, -7887.719, -7887.719, 0.0, 2.5005367, 2.4988575 
1.3752984e+1, 4.8721105e+1, -10586.622, -516321.8, 4188.471, 0.0033641253, -0.006504142, -10551.936, -10551.936, 0.0, 2.5005322, 2.4988575 
1.375296e+1, 5.122004e+1, 35041.63, -419805.2, 3304.5825, 0.0029622822, -0.0062304484, 35065.637, 35065.637, 0.0, 2.5005302, 2.499024 
1.3752937e+1, 5.371906e+1, 36921.926, -416292.4, 3405.633, 0.002904876, -0.007572491, 36947.516, 36947.516, 0.0, 2.5005307, 2.4990299 
1.3752913e+1, 5.6218076e+1, 37168.66, -416165.53, 3696.1802, 0.002845111, -0.008919637, 37198.793, 37198.793, 0.0, 2.5005312, 2.4990299 
1.375289e+1, 5.8717096e+1, 37412.004, -416040.28, 3987.3113, 0.0027817, -0.010265025, 37447.063, 37447.063, 0.0, 2.5005314, 2.4990299 
1.3752867e+1, 6.1216205e+1, 82344.67, -318408.34, 4585.641, 0.002584553, -0.010424445, 82397.13, 82397.13, 0.0, 2.500527, 2.4991996 
1.3752845e+1, 6.371541e+1, 78291.09, -317257.38, 4322.475, 0.002400144, -0.010737061, 78338.33, 78338.33, 0.0, 2.5005167, 2.4992065 
1.3752823e+1, 6.6214615e+1, 72289.664, -320143.03, 4221.395, 0.0022134634, -0.0110565685, 72335.06, 72335.06, 0.0, 2.5005064, 2.4992065 
1.3752799e+1, 6.871382e+1, 66283.85, -323030.78, 4120.673, 0.002023609, -0.011374755, 66327.46, 66327.46, 0.0, 2.500496, 2.4992065 
1.3752763e+1, 7.12131e+1, 109615.81, -230053.88, 2575.0845, 0.00080215733, -0.010819706, 109635.336, 109635.336, 0.0, 2.5004928, 2.4993677 
1.3752714e+1, 7.371248e+1, 114124.1, -224286.3, 1902.2333, -0.0010312573, -0.0112609835, 114134.8, 114134.8, 0.0, 2.5004966, 2.4993758 
1.3752666e+1, 7.621185e+1, 116370.98, -223204.81, 1424.8685, -0.0028655662, -0.011713233, 116376.95, 116376.95, 0.0, 2.5005004, 2.4993758 
1.3752615e+1, 7.871122e+1, 118611.66, -222126.3, 948.0151, -0.0047037983, -0.012163939, 118614.29, 118614.29, 0.0, 2.5005043, 2.4993758 
1.3752592e+1, 8.121069e+1, 163520.22, -123963.32, 1663.7614, -0.004671851, -0.010995356, 163529.86, 163529.86, 0.0, 2.5004992, 2.4995468 
1.3752584e+1, 8.3710265e+1, 156986.64, -122881.09, 771.4237, -0.003089634, -0.009427463, 156988.77, 156988.77, 0.0, 2.5004833, 2.4995563 
1.3752575e+1, 8.620984e+1, 147790.19, -127306.76, 93.557884, -0.0015073718, -0.007867057, 147790.22, 147790.22, 0.0, 2.5004675, 2.4995563 
1.3752568e+1, 8.87094e+1, 138583.86, -131737.17, -584.8261, 0.00007764731, -0.006305232, 138585.13, 138585.13, 0.0, 2.5004518, 2.4995563 
1.3752516e+1, 9.120906e+1, 176272.36, -49645.152, -169.53658, -0.0031198673, -0.0032401315, 176272.48, 176272.48, 0.0, 2.5004478, 2.499699 
1.3752443e+1, 9.370878e+1, 183557.13, -41147.14, -305.66306, -0.008469399, -0.0027954127, 183557.55, 183557.55, 0.0, 2.500455, 2.4997103 
1.375237e+1, 9.620849e+1, 187703.55, -39138.805, -240.11035, -0.013820684, -0.002387099, 187703.8, 187703.8, 0.0, 2.5004618, 2.4997103 
1.3752295e+1, 9.8708206e+1, 191835.47, -37137.45, -174.0912, -0.019195054, -0.0019842377, 191835.6, 191835.6, 0.0, 2.500469, 2.4997103 
1.625387e+1, 1.24909855e+0, -167242.55, -883361.56, -305.65002, 0.0076371897, -0.0005581592, -167242.42, -167242.42, 0.0, 2.5005767, 2.4982064 
1.6253872e+1, 3.7472957e+0, -167661.2, -883861.44, 551.53186, 0.008333295, -0.0016742948, -167660.77, -167660.77, 0.0, 2.5005765, 2.4982057 
1.6253874e+1, 6.2454927e+0, -167891.44, -883968.9, 1470.5907, 0.009028147, -0.0027901859, -167888.42, -167888.42, 0.0, 2.500576, 2.4982057 
1.6253874e+1, 8.74369e+0, -168122.3, -884076.6, 2389.6824, 0.009721748, -0.0039058328, -168114.31, -168114.31, 0.0, 2.5005755, 2.4982057 
1.6253865e+1, 1.12419754e+1, -124486.69, -792114.2, 1009.48694, 0.009835246, -0.0040402114, -124485.16, -124485.16, 0.0, 2.5005744, 2.4983642 
1.6253844e+1, 1.3740347e+1, -125636.44, -792152.44, 872.75354, 0.009468719, -0.0036199878, -125635.3, -125635.3, 0.0, 2.5005717, 2.4983652 
1.625382e+1, 1.6238718e+1, -127105.984, -792853.7, 808.1207, 0.009099087, -0.003197248, -127105.0, -127105.0, 0.0, 2.500569, 2.4983654 
1.6253799e+1, 1.8737091e+1, -128576.34, -793555.3, 744.164, 0.008726208, -0.0027714602, -128575.516, -128575.516, 0.0, 2.5005667, 2.4983654 
1.6253778e+1, 2.1235533e+1, -83391.875, -696786.75, 784.43744, 0.008478837, -0.0034489224, -83390.875, -83390.875, 0.0, 2.5005636, 2.4985328 
1.6253757e+1, 2.3734045e+1, -85022.1, -696554.44, 1455.4836, 0.008401899, -0.005952346, -85018.63, -85018.63, 0.0, 2.5005596, 2.4985352 
1.6253737e+1, 2.6232558e+1, -87287.31, -697639.2, 2234.1848, 0.0083223935, -0.008455989, -87279.13, -87279.13, 0.0, 2.5005558, 2.4985352 
1.6253714e+1, 2.873107e+1, -89553.64, -698724.5, 3013.389, 0.0082402155, -0.010958129, -89538.734, -89538.734, 0.0, 2.500552, 2.4985352 
1.6253695e+1, 3.1229675e+1, -47496.363, -609458.44, 4215.8, 0.0080533875, -0.011488095, -47464.74, -47464.74, 0.0, 2.5005498, 2.4986892 
1.6253674e+1, 3.3728373e+1, -46916.664, -607739.6, 4393.4165, 0.007841312, -0.010851474, -46882.25, -46882.25, 0.0, 2.5005493, 2.4986923 
1.6253655e+1, 3.6227074e+1, -47236.84, -607886.5, 4724.9077, 0.0076259174, -0.010215289, -47197.023, -47197.023, 0.0, 2.5005486, 2.4986925 
1.6253635e+1, 3.8725775e+1, -47558.62, -608034.2, 5056.942, 0.0074069067, -0.00957664, -47513.0, -47513.0, 0.0, 2.5005481, 2.4986925 
1.625361e+1, 4.1224563e+1, -4503.454, -516392.5, 4769.624, 0.006673295, -0.007893983, -4459.016, -4459.016, 0.0, 2.5005457, 2.4988508 
1.6253579e+1, 4.3723437e+1, -5959.1973, -515174.16, 4219.872, 0.005504213, -0.0061740526, -5924.2295, -5924.2295, 0.0, 2.5005412, 2.498855 
1.6253546e+1, 4.6222308e+1, -8615.798, -516445.44, 3856.426, 0.0043291706, -0.0044568954, -8586.515, -8586.515, 0.0, 2.5005367, 2.498855 
1.6253513e+1, 4.8721182e+1, -11274.764, -517717.84, 3493.5808, 0.0031477853, -0.0027379717, -11250.665, -11250.665, 0.0, 2.5005322, 2.498855 
1.625349e+1, 5.1220125e+1, 35597.98, -418606.5, 3389.154, 0.0026570328, -0.0027683177, 35623.27, 35623.27, 0.0, 2.5005302, 2.499026 
1.625347e+1, 5.371912e+1, 37438.918, -415172.63, 3461.35, 0.0031448596, -0.005886295, 37465.387, 37465.387, 0.0, 2.5005307, 2.4990318 
1.6253452e+1, 5.6218123e+1, 37683.902, -415046.6, 3753.6963, 0.0036255105, -0.009008947, 37715.023, 37715.023, 0.0, 2.500531, 2.4990318 
1.6253436e+1, 5.8717126e+1, 37925.496, -414922.2, 4046.6267, 0.004097452, -0.0121293925, 37961.652, 37961.652, 0.0, 2.5005314, 2.4990318 
1.6253404e+1, 6.1216235e+1, 82209.97, -318645.16, 3071.4695, 0.0036943255, -0.0125957085, 82233.5, 82233.5, 0.0, 2.500527, 2.4991992 
1.6253363e+1, 6.371545e+1, 78077.5, -317656.72, 2764.3057, 0.002572025, -0.01162055, 78096.805, 78096.805, 0.0, 2.5005167, 2.4992058 
1.6253321e+1, 6.621467e+1, 72076.63, -320539.63, 2665.4773, 0.001440583, -0.0106518455, 72094.734, 72094.734, 0.0, 2.5005062, 2.4992058 
1.6253279e+1, 6.871388e+1, 66071.4, -323424.7, 2567.007, 0.0002989568, -0.009681938, 66088.31, 66088.31, 0.0, 2.500496, 2.4992058 
1.6253239e+1, 7.121318e+1, 108785.7, -231732.86, 3156.5076, -0.0009075434, -0.008470454, 108814.95, 108814.95, 0.0, 2.5004928, 2.4993649 
1.6253205e+1, 7.3712546e+1, 113207.59, -226144.9, 2489.1267, -0.0016364335, -0.008867249, 113225.85, 113225.85, 0.0, 2.5004966, 2.4993725 
1.625317e+1, 7.621191e+1, 115454.02, -225064.44, 2015.2474, -0.0023772852, -0.009274599, 115465.945, 115465.945, 0.0, 2.5005004, 2.4993725 
1.6253136e+1, 7.8711283e+1, 117694.26, -223986.94, 1541.8796, -0.003133806, -0.009680239, 117701.21, 117701.21, 0.0, 2.5005043, 2.4993725 
1.6253103e+1, 8.1210744e+1, 162358.42, -126360.3, -614.01294, -0.0033085304, -0.00878134, 162359.73, 162359.73, 0.0, 2.500499, 2.4995427 
1.6253063e+1, 8.3710307e+1, 155731.78, -125479.01, -1600.6969, -0.0034169455, -0.007811744, 155740.89, 155740.89, 0.0, 2.5004833, 2.4995518 
1.6253023e+1, 8.620987e+1, 146542.66, -129896.63, -2272.2202, -0.0035458936, -0.006852048, 146561.33, 146561.33, 0.0, 2.5004675, 2.4995518 
1.6252983e+1, 8.870943e+1, 137343.66, -134319.02, -2944.2612, -0.0036915306, -0.0058933003, 137375.56, 137375.56, 0.0, 2.5004518, 2.4995518 
1.6252925e+1, 9.1209084e+1, 176403.34, -49333.344, 915.15814, -0.007011106, -0.0024842562, 176407.06, 176407.06, 0.0, 2.5004475, 2.4996998 
1.625288e+1, 9.370882e+1, 183641.56, -40934.906, 796.8316, -0.010289913, -0.00039600366, 183644.39, 183644.39, 0.0, 2.5004547, 2.4997108 
1.6252834e+1, 9.620855e+1, 187792.83, -38920.035, 874.00165, -0.013598301, 0.001658276, 187796.2, 187796.2, 0.0, 2.5004618, 2.4997108 
1.6252789e+1, 9.870827e+1, 191929.6, -36912.145, 951.63806, -0.01696172, 0.003707074, 191933.55, 191933.55, 0.0, 2.500469, 2.4997108 
1.8754455e+1, 1.2490986e+0, -166056.3, -880046.94, -353.34018, 0.00834937, -0.00085612724, -166056.11, -166056.11, 0.0, 2.500576, 2.4982126 
1.8754455e+1, 3.7472957e+0, -166462.5, -880535.1, 516.38116, 0.009047093, -0.0025682678, -166462.13, -166462.13, 0.0, 2.5005755, 2.4982119 
1.8754457e+1, 6.245493e+0, -166701.86, -880646.2, 1454.3933, 0.0097410325, -0.004280255, -166698.89, -166698.89, 0.0, 2.500575, 2.4982119 
1.8754457e+1, 8.74369e+0, -166960.25, -880766.5, 2392.5054, 0.010431187, -0.0059920903, -166952.23, -166952.23, 0.0, 2.5005746, 2.4982119 
1.8754448e+1, 1.1241984e+1, -125154.23, -792590.94, 709.3673, 0.010702629, -0.005603299, -125153.47, -125153.47, 0.0, 2.5005732, 2.4983637 
1.8754427e+1, 1.3740371e+1, -126286.75, -792636.25, 587.93915, 0.010693711, -0.00353371, -126286.234, -126286.234, 0.0, 2.5005708, 2.498365 
1.8754408e+1, 1.623876e+1, -127743.84, -793330.44, 545.6495, 0.010680195, -0.0014603054, -127743.4, -127743.4, 0.0, 2.5005682, 2.498365 
1.8754387e+1, 1.8737146e+1, -129216.77, -794032.25, 504.71478, 0.010661886, 0.0006174473, -129216.39, -129216.39, 0.0, 2.5005658, 2.498365 
1.8754362e+1, 2.1235594e+1, -82461.59, -694021.6, 369.20804, 0.010481128, -0.000013403722, -82461.37, -82461.37, 0.0, 2.5005627, 2.498538 
1.8754335e+1, 2.3734094e+1, -84065.36, -693765.0, 1047.3917, 0.010143582, -0.0041168826, -84063.56, -84063.56, 0.0, 2.5005589, 2.4985402 
1.8754306e+1, 2.6232594e+1, -86321.62, -694844.4, 1846.4955, 0.009801437, -0.008219802, -86316.016, -86316.016, 0.0, 2.5005548, 2.4985402 
1.8754278e+1, 2.8731096e+1, -88589.89, -695929.5, 2646.5754, 0.00945468, -0.012320382, -88578.35, -88578.35, 0.0, 2.500551, 2.4985402 
1.8754257e+1, 3.12297e+1, -47327.105, -608315.06, 4394.2603, 0.009255884, -0.013425549, -47292.688, -47292.688, 0.0, 2.500549, 2.4986916 
1.8754238e+1, 3.372841e+1, -46773.063, -606672.4, 4571.726, 0.009305306, -0.01229415, -46735.734, -46735.734, 0.0, 2.5005484, 2.4986947 
1.8754221e+1, 3.6227116e+1, -47093.367, -606818.0, 4927.654, 0.009349164, -0.0111625595, -47049.99, -47049.99, 0.0, 2.500548, 2.4986947 
1.8754204e+1, 3.8725823e+1, -47430.043, -606971.56, 5284.5483, 0.009387089, -0.010027994, -47380.137, -47380.137, 0.0, 2.5005472, 2.4986947 
1.8754174e+1, 4.1224617e+1, -5616.848, -517941.13, 4443.3237, 0.008465564, -0.007525291, -5578.315, -5578.315, 0.0, 2.500545, 2.4988484 
1.8754129e+1, 4.37235e+1, -7084.8867, -516784.2, 3897.1492, 0.0066341427, -0.0046743485, -7055.091, -7055.091, 0.0, 2.5005405, 2.4988527 
1.8754087e+1, 4.6222383e+1, -9742.274, -518054.44, 3565.527, 0.0047934633, -0.0018259406, -9717.266, -9717.266, 0.0, 2.500536, 2.4988527 
1.8754044e+1, 4.8721263e+1, -12425.722, -519337.28, 3235.5452, 0.0029432464, 0.0010245576, -12405.07, -12405.07, 0.0, 2.5005312, 2.4988527 
1.8754014e+1, 5.12202e+1, 35692.586, -417646.44, 3932.74, 0.0023515744, 0.00069539004, 35726.7, 35726.7, 0.0, 2.5005293, 2.4990282 
1.8754004e+1, 5.3719187e+1, 37545.813, -414251.16, 3990.356, 0.0033854435, -0.0042002527, 37581.05, 37581.05, 0.0, 2.5005298, 2.4990337 
1.8753992e+1, 5.621817e+1, 37802.016, -414119.7, 4300.1055, 0.00440748, -0.009100209, 37842.926, 37842.926, 0.0, 2.5005302, 2.4990337 
1.8753979e+1, 5.8717155e+1, 38023.164, -414005.13, 4613.126, 0.0054157665, -0.013997515, 38070.24, 38070.24, 0.0, 2.5005307, 2.4990337 
1.8753943e+1, 6.1216265e+1, 81673.54, -319085.94, 2080.0242, 0.0048195054, -0.014765684, 81684.336, 81684.336, 0.0, 2.5005262, 2.499199 
1.8753882e+1, 6.3715494e+1, 77516.51, -318224.28, 1741.9401, 0.0027587975, -0.01250428, 77524.18, 77524.18, 0.0, 2.500516, 2.4992054 
1.8753819e+1, 6.621472e+1, 71517.33, -321103.94, 1657.4634, 0.0006819519, -0.010248964, 71524.32, 71524.32, 0.0, 2.5005057, 2.4992054 
1.8753758e+1, 6.871395e+1, 65472.61, -324005.56, 1573.0237, -0.001412059, -0.007992564, 65478.96, 65478.96, 0.0, 2.5004952, 2.4992054 
1.8753713e+1, 7.121325e+1, 107625.94, -233580.77, 4295.997, -0.0026083428, -0.0061210752, 107680.016, 107680.016, 0.0, 2.500492, 2.499362 
1.8753694e+1, 7.371262e+1, 112116.61, -228088.38, 3620.0437, -0.0022325646, -0.0064743953, 112155.125, 112155.125, 0.0, 2.5004961, 2.4993694 
1.8753676e+1, 7.621198e+1, 114433.19, -226974.9, 3137.3982, -0.0018796908, -0.006837915, 114462.016, 114462.016, 0.0, 2.5005002, 2.4993694 
1.8753657e+1, 7.871134e+1, 116661.336, -225904.02, 2657.7869, -0.0015541825, -0.0071995566, 116681.95, 116681.95, 0.0, 2.500504, 2.4993694 
1.8753617e+1, 8.12108e+1, 161137.05, -128794.22, -2375.0745, -0.0019306443, -0.006569422, 161156.5, 161156.5, 0.0, 2.500499, 2.4995387 
1.8753543e+1, 8.371035e+1, 154522.06, -128056.305, -3463.657, -0.0037349772, -0.006200689, 154564.52, 154564.52, 0.0, 2.5004835, 2.4995472 
1.8753472e+1, 8.6209905e+1, 145298.95, -132485.78, -4135.8022, -0.00558041, -0.0058442913, 145360.52, 145360.52, 0.0, 2.5004675, 2.4995475 
1.8753397e+1, 8.8709456e+1, 135924.88, -136987.97, -4811.976, -0.0074618924, -0.005491204, 136009.7, 136009.7, 0.0, 2.5004513, 2.4995475 
1.8753333e+1, 9.1209114e+1, 176394.17, -49127.055, 2442.6309, -0.010851348, -0.0017177725, 176420.63, 176420.63, 0.0, 2.5004473, 2.4997003 
1.8753317e+1, 9.3708855e+1, 183789.47, -40692.703, 2296.8704, -0.012064986, 0.0020108824, 183812.97, 183812.97, 0.0, 2.500455, 2.499711 
1.8753299e+1, 9.62086e+1, 187799.22, -38741.797, 2313.9421, -0.013336667, 0.0057076593, 187822.86, 187822.86, 0.0, 2.5004616, 2.4997113 
1.8753283e+1, 9.870835e+1, 191476.64, -36950.938, 2322.3833, -0.014695116, 0.0093989195, 191500.25, 191500.25, 0.0, 2.500468, 2.4997113 
2.1255043e+1, 1.249101e+0, -174821.94, -882027.1, -651.48956, 0.01041934, -0.000867731, -174821.34, -174821.34, 0.0, 2.5005584, 2.4982176 
2.1255039e+1, 3.747303e+0, -175541.72, -882658.9, -188.24628, 0.010664107, -0.0026034752, -175541.67, -175541.67, 0.0, 2.5005574, 2.4982169 
2.1255036e+1, 6.2455046e+0, -176082.0, -882914.1, 348.34375, 0.010913579, -0.004339595, -176081.83, -176081.83, 0.0, 2.5005567, 2.4982169 
2.1255031e+1, 8.743707e+0, -176624.48, -883170.5, 885.29095, 0.011167756, -0.00607609, -176623.38, -176623.38, 0.0, 2.5005558, 2.4982169 
2.1255021e+1, 1.1242005e+1, -134841.5, -795692.25, -584.3437, 0.011394453, -0.0055945576, -134840.98, -134840.98, 0.0, 2.500555, 2.4983673 
2.1255001e+1, 1.37404e+1, -134890.39, -795225.9, 380.2075, 0.011738524, -0.0033070347, -134890.17, -134890.17, 0.0, 2.5005543, 2.4983683 
2.1254982e+1, 1.6238792e+1, -135240.23, -795383.75, 1426.3843, 0.012086032, -0.0010192521, -135237.16, -135237.16, 0.0, 2.5005536, 2.4983685 
2.1254963e+1, 1.8737185e+1, -135590.63, -795541.9, 2472.8408, 0.012436776, 0.0012693098, -135581.36, -135581.36, 0.0, 2.5005531, 2.4983685 
2.1254939e+1, 2.1235634e+1, -87288.8, -694570.56, 2557.817, 0.012323931, 0.0006110784, -87278.02, -87278.02, 0.0, 2.5005524, 2.4985418 
2.1254906e+1, 2.3734136e+1, -87199.67, -693510.9, 2763.8745, 0.011751725, -0.0037650815, -87187.07, -87187.07, 0.0, 2.5005515, 2.4985442 
2.1254873e+1, 2.623264e+1, -87741.164, -693759.56, 3103.2131, 0.011180603, -0.008141261, -87725.27, -87725.27, 0.0, 2.5005505, 2.4985442 
2.125484e+1, 2.873114e+1, -88283.08, -694008.5, 3442.99, 0.010610543, -0.012515658, -88263.51, -88263.51, 0.0, 2.5005496, 2.4985442 
2.1254814e+1, 3.1229746e+1, -47069.86, -607160.2, 5092.5654, 0.010265839, -0.013676199, -47023.56, -47023.56, 0.0, 2.5005484, 2.498694 
2.1254796e+1, 3.372846e+1, -47369.742, -605984.9, 5138.6406, 0.01024889, -0.012358999, -47322.477, -47322.477, 0.0, 2.5005465, 2.4986968 
2.1254776e+1, 3.622717e+1, -48489.777, -606510.5, 5379.598, 0.010231891, -0.011042424, -48437.918, -48437.918, 0.0, 2.5005443, 2.4986968 
2.1254757e+1, 3.872588e+1, -49611.094, -607036.7, 5621.501, 0.010214462, -0.009723763, -49554.41, -49554.41, 0.0, 2.5005424, 2.4986968 
2.1254724e+1, 4.1224682e+1, -7773.1743, -518877.34, 4828.51, 0.009273178, -0.0070227743, -7727.5625, -7727.5625, 0.0, 2.5005412, 2.4988487 
2.1254678e+1, 4.3723565e+1, -7344.555, -516870.44, 4870.298, 0.0074548144, -0.0039503165, -7298.0063, -7298.0063, 0.0, 2.50054, 2.4988527 
2.1254633e+1, 4.622245e+1, -8037.847, -517187.1, 5153.6787, 0.005635046, -0.000879714, -7985.6865, -7985.6865, 0.0, 2.5005388, 2.4988527 
2.1254586e+1, 4.872133e+1, -8735.29, -517505.78, 5438.7207, 0.0038136195, 0.0021936297, -8677.157, -8677.157, 0.0, 2.5005376, 2.4988527 
2.1254554e+1, 5.122027e+1, 39629.016, -414979.88, 6590.701, 0.0031182515, 0.0018676791, 39724.543, 39724.543, 0.0, 2.5005352, 2.4990299 
2.125454e+1, 5.371925e+1, 39100.184, -412824.22, 6388.6943, 0.0039492883, -0.0032205728, 39190.48, 39190.48, 0.0, 2.500532, 2.4990351 
2.1254525e+1, 5.6218237e+1, 37067.938, -413788.56, 6459.0156, 0.004781881, -0.008314816, 37160.453, 37160.453, 0.0, 2.5005283, 2.4990354 
2.125451e+1, 5.8717227e+1, 35035.37, -414753.1, 6529.7466, 0.005613932, -0.013408253, 35130.145, 35130.145, 0.0, 2.5005248, 2.4990354 
2.1254466e+1, 6.121633e+1, 79699.64, -320661.4, 3201.767, 0.004812959, -0.014245014, 79725.24, 79725.24, 0.0, 2.5005233, 2.4991975 
2.1254398e+1, 6.371556e+1, 81581.19, -317030.8, 2405.1477, 0.002517405, -0.011876332, 81595.7, 81595.7, 0.0, 2.5005238, 2.4992034 
2.125433e+1, 6.621478e+1, 81761.445, -316926.3, 1893.6002, 0.0002227516, -0.009513323, 81770.44, 81770.44, 0.0, 2.500524, 2.4992037 
2.125426e+1, 6.871401e+1, 81933.67, -316825.7, 1384.7665, -0.0020719974, -0.0071490784, 81938.48, 81938.48, 0.0, 2.5005243, 2.4992037 
2.1254213e+1, 7.121331e+1, 123909.66, -225664.55, 4687.7837, -0.0032737448, -0.0051007187, 123972.51, 123972.51, 0.0, 2.50052, 2.4993622 
2.1254194e+1, 7.3712677e+1, 120224.99, -224251.14, 4820.3804, -0.0026481552, -0.005110371, 120292.44, 120292.44, 0.0, 2.5005102, 2.4993694 
2.1254176e+1, 7.621205e+1, 114537.04, -226985.13, 5169.421, -0.0020161262, -0.0051290113, 114615.266, 114615.266, 0.0, 2.5005004, 2.4993694 
2.1254157e+1, 7.871142e+1, 108846.414, -229720.39, 5519.6533, -0.001382446, -0.0051452024, 108936.375, 108936.375, 0.0, 2.5004907, 2.4993694 
2.125411e+1, 8.1210876e+1, 153961.48, -133639.08, 701.86993, -0.002018832, -0.004458664, 153963.2, 153963.2, 0.0, 2.5004883, 2.4995356 
2.1254022e+1, 8.371042e+1, 158895.23, -127541.67, -251.68417, -0.0047496776, -0.004323662, 158895.45, 158895.45, 0.0, 2.5004926, 2.499544 
2.1253935e+1, 8.620996e+1, 161503.38, -126272.484, -742.839, -0.0074730786, -0.004197174, 161505.3, 161505.3, 0.0, 2.500497, 2.499544 
2.1253847e+1, 8.870951e+1, 164111.25, -125003.42, -1231.8895, -0.010183337, -0.004070192, 164116.5, 164116.5, 0.0, 2.5005016, 2.499544 
2.1253778e+1, 9.120916e+1, 204732.77, -36251.84, 6074.976, -0.013600911, -0.00045287627, 204885.8, 204885.8, 0.0, 2.5004969, 2.4996986 
2.1253768e+1, 9.370891e+1, 197790.77, -34866.266, 5064.772, -0.013774181, 0.0034529832, 197900.97, 197900.97, 0.0, 2.50048, 2.4997091 
2.1253757e+1, 9.620865e+1, 187820.47, -39664.65, 4302.968, -0.0138974255, 0.007324969, 187901.83, 187901.83, 0.0, 2.5004628, 2.4997091 
2.1253747e+1, 9.87084e+1, 177791.08, -44491.48, 3541.9607, -0.014000841, 0.011187402, 177847.5, 177847.5, 0.0, 2.5004456, 2.4997091 
2.3755634e+1, 1.2491057e+0, -173777.08, -879919.9, -795.57544, 0.01353225, -0.0005798115, -173776.17, -173776.17, 0.0, 2.5005586, 2.4982212 
2.3755619e+1, 3.747317e+0, -174494.14, -880541.8, -339.6425, 0.012891444, -0.0017392592, -174493.97, -174493.97, 0.0, 2.5005577, 2.4982204 
2.3755606e+1, 6.2455285e+0, -175035.58, -880797.75, 192.75467, 0.012252336, -0.0028984724, -175035.53, -175035.53, 0.0, 2.5005567, 2.4982204 
2.3755592e+1, 8.743739e+0, -175577.7, -881054.0, 725.50854, 0.011614925, -0.004057451, -175576.97, -175576.97, 0.0, 2.5005558, 2.4982204 
2.3755577e+1, 1.1242041e+1, -132839.78, -791598.0, -700.9653, 0.011595972, -0.0038852133, -132839.05, -132839.05, 0.0, 2.500555, 2.4983742 
2.3755562e+1, 1.374043e+1, -132890.08, -791139.94, 257.32468, 0.012328294, -0.0027844068, -132889.97, -132889.97, 0.0, 2.5005543, 2.4983754 
2.3755546e+1, 1.6238818e+1, -133235.83, -791294.7, 1300.4666, 0.013062633, -0.0016827892, -133233.25, -133233.25, 0.0, 2.5005538, 2.4983754 
2.3755531e+1, 1.8737206e+1, -133582.13, -791449.7, 2343.99, 0.013798812, -0.00057986093, -133573.77, -133573.77, 0.0, 2.5005531, 2.4983754 
2.3755507e+1, 2.1235658e+1, -86576.49, -693163.06, 2379.6436, 0.013769165, -0.0013168511, -86567.16, -86567.16, 0.0, 2.5005524, 2.4985442 
2.375547e+1, 2.3734173e+1, -86510.45, -692157.1, 2573.519, 0.013011184, -0.0046377685, -86499.516, -86499.516, 0.0, 2.5005515, 2.4985464 
2.3755436e+1, 2.6232687e+1, -87047.43, -692401.94, 2909.4143, 0.012252173, -0.00795773, -87033.445, -87033.445, 0.0, 2.5005507, 2.4985466 
2.37554e+1, 2.8731203e+1, -87585.46, -692647.25, 3245.9988, 0.011492023, -0.011274967, -87568.05, -87568.05, 0.0, 2.5005498, 2.4985466 
2.3755369e+1, 3.1229818e+1, -46517.855, -606107.2, 4747.5015, 0.010881929, -0.0119629195, -46477.582, -46477.582, 0.0, 2.5005484, 2.4986956 
2.3755345e+1, 3.3728528e+1, -46856.16, -605006.1, 4781.288, 0.010505287, -0.010766783, -46815.203, -46815.203, 0.0, 2.5005465, 2.4986985 
2.375532e+1, 3.6227238e+1, -47978.65, -605531.5, 5020.0137, 0.01012677, -0.009570379, -47933.453, -47933.453, 0.0, 2.5005445, 2.4986985 
2.3755294e+1, 3.872595e+1, -49102.42, -606057.44, 5259.4995, 0.00974607, -0.008370995, -49052.758, -49052.758, 0.0, 2.5005426, 2.4986985 
2.3755263e+1, 4.1224748e+1, -7148.404, -517640.4, 4594.014, 0.008953127, -0.006089065, -7107.065, -7107.065, 0.0, 2.5005412, 2.4988508 
2.3755223e+1, 4.3723625e+1, -6780.7134, -515744.9, 4609.529, 0.007829618, -0.0037052073, -6738.9697, -6738.9697, 0.0, 2.50054, 2.4988546 
2.3755182e+1, 4.6222508e+1, -7481.5156, -516064.22, 4890.5806, 0.006702101, -0.0013220436, -7434.4917, -7434.4917, 0.0, 2.5005388, 2.4988546 
2.375514e+1, 4.8721385e+1, -8184.28, -516384.47, 5172.418, 0.0055701993, 0.00106487, -8131.641, -8131.641, 0.0, 2.5005376, 2.4988546 
2.3755106e+1, 5.122033e+1, 39871.145, -414502.94, 5985.7603, 0.00479846, 0.0010152805, 39949.984, 39949.984, 0.0, 2.5005352, 2.4990306 
2.375508e+1, 5.3719324e+1, 39240.9, -412548.8, 5768.2295, 0.0047390456, -0.0027342918, 39314.53, 39314.53, 0.0, 2.500532, 2.4990356 
2.3755051e+1, 5.621832e+1, 37202.855, -413514.1, 5836.523, 0.00467737, -0.0064885365, 37278.42, 37278.42, 0.0, 2.5005283, 2.4990356 
2.3755024e+1, 5.871732e+1, 35162.418, -414480.53, 5905.6836, 0.004611512, -0.010241075, 35239.973, 35239.973, 0.0, 2.5005248, 2.4990358 
2.3754978e+1, 6.1216426e+1, 78838.266, -322439.72, 3158.6785, 0.0035805278, -0.0109502, 78863.13, 78863.13, 0.0, 2.5005233, 2.4991944 
2.3754913e+1, 6.371564e+1, 80610.9, -319029.03, 2347.2124, 0.0017582753, -0.0096974885, 80624.69, 80624.69, 0.0, 2.5005238, 2.4992 
2.375485e+1, 6.6214854e+1, 80787.09, -318927.25, 1830.3685, -0.00006730438, -0.008449279, 80795.48, 80795.48, 0.0, 2.500524, 2.4992 
2.3754786e+1, 6.8714064e+1, 80960.18, -318826.97, 1314.1516, -0.0018973401, -0.0071986387, 80964.5, 80964.5, 0.0, 2.5005243, 2.4992 
2.3754734e+1, 7.1213365e+1, 124648.01, -224132.5, 3141.3535, -0.0030967542, -0.005505749, 124676.3, 124676.3, 0.0, 2.50052, 2.4993649 
2.37547e+1, 7.3712736e+1, 120856.9, -222931.97, 3215.1516, -0.0029677406, -0.0049378388, 120886.96, 120886.96, 0.0, 2.5005102, 2.4993715 
2.3754667e+1, 7.6212114e+1, 115165.1, -225667.47, 3558.2173, -0.0028394912, -0.0043776496, 115202.24, 115202.24, 0.0, 2.5005004, 2.4993715 
2.3754632e+1, 7.871149e+1, 109469.04, -228405.0, 3901.5261, -0.00271663, -0.0038147836, 109514.086, 109514.086, 0.0, 2.5004907, 2.4993715 
2.3754579e+1, 8.1210953e+1, 153203.6, -135210.95, 1210.1361, -0.003689832, -0.0028157586, 153208.67, 153208.67, 0.0, 2.5004883, 2.4995327 
2.3754495e+1, 8.37105e+1, 157971.86, -129438.07, 257.53683, -0.0065709045, -0.0026321379, 157972.08, 157972.08, 0.0, 2.5004926, 2.4995406 
2.3754412e+1, 8.6210036e+1, 160560.48, -128180.47, -237.74722, -0.009454643, -0.0024565319, 160560.69, 160560.69, 0.0, 2.500497, 2.4995406 
2.3754326e+1, 8.870958e+1, 163143.53, -126925.57, -732.69666, -0.012335459, -0.0022799768, 163145.39, 163145.39, 0.0, 2.5005014, 2.4995406 
2.3754254e+1, 9.120922e+1, 203433.19, -38851.266, 3515.9387, -0.015763044, 0.00059278007, 203484.2, 203484.2, 0.0, 2.5004969, 2.499694 
2.3754227e+1, 9.3708944e+1, 196332.25, -37759.207, 2331.775, -0.015748909, 0.0032040072, 196355.48, 196355.48, 0.0, 2.5004797, 2.4997041 
2.3754202e+1, 9.6208674e+1, 186382.86, -42540.89, 1586.6154, -0.015711771, 0.0057809693, 186393.86, 186393.86, 0.0, 2.5004625, 2.4997041 
2.3754175e+1, 9.8708403e+1, 176419.16, -47329.457, 841.6589, -0.01568194, 0.008345978, 176422.33, 176422.33, 0.0, 2.5004454, 2.4997044 
2.6256225e+1, 1.24911025e+0, -172773.28, -877833.3, -938.24994, 0.016645413, -0.00029260086, -172772.03, -172772.03, 0.0, 2.5005586, 2.4982247 
2.62562e+1, 3.747331e+0, -173487.1, -878446.5, -483.3983, 0.015119587, -0.0008771698, -173486.77, -173486.77, 0.0, 2.5005577, 2.498224 
2.6256177e+1, 6.245552e+0, -174029.88, -878703.1, 50.047344, 0.013592451, -0.0014608942, -174029.86, -174029.86, 0.0, 2.5005567, 2.498224 
2.6256153e+1, 8.7437713e+0, -174573.31, -878960.1, 583.8497, 0.012064005, -0.0020437744, -174572.84, -174572.84, 0.0, 2.5005558, 2.498224 
2.6256135e+1, 1.1242075e+1, -130889.16, -787538.5, -794.2365, 0.011797199, -0.0021771314, -130888.195, -130888.195, 0.0, 2.500555, 2.4983811 
2.6256123e+1, 1.3740459e+1, -130940.5, -787080.44, 161.05147, 0.012917372, -0.0022653544, -130940.46, -130940.46, 0.0, 2.5005543, 2.4983823 
2.625611e+1, 1.6238841e+1, -131286.88, -787234.3, 1204.978, 0.0140381465, -0.0023522282, -131284.66, -131284.66, 0.0, 2.5005538, 2.4983823 
2.6256096e+1, 1.8737225e+1, -131633.78, -787388.5, 2249.286, 0.015159365, -0.0024372605, -131626.08, -131626.08, 0.0, 2.5005531, 2.4983823 
2.6256073e+1, 2.1235682e+1, -85937.71, -691805.8, 2236.251, 0.015218435, -0.003248593, -85929.45, -85929.45, 0.0, 2.5005524, 2.4985466 
2.6256034e+1, 2.3734209e+1, -85892.11, -690839.2, 2425.703, 0.014273853, -0.0055164015, -85882.38, -85882.38, 0.0, 2.5005515, 2.4985487 
2.6255998e+1, 2.6232737e+1, -86429.93, -691082.7, 2762.5679, 0.013326102, -0.007782309, -86417.305, -86417.305, 0.0, 2.5005505, 2.4985487 
2.625596e+1, 2.8731263e+1, -86968.805, -691326.7, 3100.122, 0.012375008, -0.010044547, -86952.91, -86952.91, 0.0, 2.5005496, 2.4985487 
2.6255924e+1, 3.1229886e+1, -46056.19, -605112.2, 4456.8613, 0.011503405, -0.010254729, -46020.664, -46020.664, 0.0, 2.5005484, 2.4986973 
2.6255894e+1, 3.3728597e+1, -46423.195, -604067.5, 4480.9067, 0.010767005, -0.009181297, -46387.19, -46387.19, 0.0, 2.5005465, 2.4987001 
2.6255864e+1, 3.622731e+1, -47546.895, -604591.94, 4720.3574, 0.010026875, -0.008106757, -47506.9, -47506.9, 0.0, 2.5005445, 2.4987001 
2.6255834e+1, 3.872602e+1, -48671.875, -605117.06, 4960.5684, 0.009282811, -0.007028338, -48627.656, -48627.656, 0.0, 2.5005424, 2.4987001 
2.62558e+1, 4.1224816e+1, -6608.662, -516461.28, 4424.058, 0.008636975, -0.0051581706, -6570.2773, -6570.2773, 0.0, 2.5005412, 2.498853 
2.6255766e+1, 4.372369e+1, -6285.205, -514653.53, 4418.1514, 0.008208914, -0.0034648988, -6246.81, -6246.81, 0.0, 2.50054, 2.4988565 
2.6255733e+1, 4.6222565e+1, -6987.934, -514972.78, 4700.3877, 0.0077742576, -0.0017712368, -6944.445, -6944.445, 0.0, 2.5005386, 2.4988565 
2.6255694e+1, 4.872144e+1, -7692.625, -515292.97, 4983.409, 0.0073324894, -0.00007281595, -7643.7046, -7643.7046, 0.0, 2.5005374, 2.4988565 
2.6255658e+1, 5.122038e+1, 40048.93, -414070.16, 5461.933, 0.0064917402, 0.0001579041, 40114.617, 40114.617, 0.0, 2.5005352, 2.4990313 
2.625562e+1, 5.3719395e+1, 39328.242, -412300.16, 5232.225, 0.005542001, -0.002255134, 39388.848, 39388.848, 0.0, 2.5005317, 2.499036 
2.6255578e+1, 5.621841e+1, 37288.906, -413264.22, 5301.838, 0.004586107, -0.0046715774, 37351.29, 37351.29, 0.0, 2.5005283, 2.499036 
2.6255536e+1, 5.871742e+1, 35247.184, -414229.44, 5372.318, 0.0036223894, -0.0070854165, 35311.387, 35311.387, 0.0, 2.5005248, 2.4990363 
2.6255488e+1, 6.121653e+1, 77924.18, -324267.9, 3210.3357, 0.0023559162, -0.007655645, 77949.805, 77949.805, 0.0, 2.5005233, 2.4991913 
2.625543e+1, 6.3715726e+1, 79604.12, -321046.03, 2387.9907, 0.0010087119, -0.007521732, 79618.35, 79618.35, 0.0, 2.5005236, 2.4991968 
2.6255372e+1, 6.621492e+1, 79777.43, -320946.44, 1873.0629, -0.00034597068, -0.007391304, 79786.18, 79786.18, 0.0, 2.5005238, 2.4991968 
2.6255313e+1, 6.871412e+1, 79947.63, -320848.34, 1358.7622, -0.0017094698, -0.007257252, 79952.234, 79952.234, 0.0, 2.5005243, 2.4991968 
2.6255256e+1, 7.121341e+1, 125336.15, -222644.36, 1721.3322, -0.0029025613, -0.005911644, 125344.664, 125344.664, 0.0, 2.50052, 2.4993675 
2.6255208e+1, 7.37128e+1, 121454.15, -221630.33, 1740.1664, -0.00326855, -0.004767919, 121462.97, 121462.97, 0.0, 2.5005102, 2.499374 
2.625516e+1, 7.621218e+1, 115760.86, -224366.19, 2085.591, -0.003642554, -0.0036307764, 115773.65, 115773.65, 0.0, 2.5005004, 2.499374 
2.625511e+1, 7.8711563e+1, 110063.32, -227104.1, 2431.259, -0.004028985, -0.0024907298, 110080.85, 110080.85, 0.0, 2.5004907, 2.499374 
2.625505e+1, 8.121103e+1, 152412.1, -136819.27, 1879.769, -0.005350327, -0.0011730798, 152424.31, 152424.31, 0.0, 2.500488, 2.49953 
2.625497e+1, 8.3710563e+1, 157037.88, -131340.38, 932.32654, -0.00837977, -0.0009421764, 157040.88, 157040.88, 0.0, 2.5004926, 2.4995372 
2.625489e+1, 8.621011e+1, 159623.58, -130086.4, 440.01025, -0.011421811, -0.00071889185, 159624.25, 159624.25, 0.0, 2.500497, 2.4995372 
2.6254806e+1, 8.8709646e+1, 162203.7, -128835.1, -51.971394, -0.014471146, -0.00049420533, 162203.72, 162203.72, 0.0, 2.5005014, 2.4995372 
2.6254728e+1, 9.1209275e+1, 202183.95, -41446.742, 1145.709, -0.017887818, 0.0016484505, 202189.34, 202189.34, 0.0, 2.5004969, 2.4996896 
2.625469e+1, 9.3708986e+1, 194960.86, -40611.64, -226.61519, -0.01769081, 0.0029613278, 194961.08, 194961.08, 0.0, 2.5004797, 2.4996994 
2.6254645e+1, 9.620869e+1, 185017.16, -45383.96, -961.3924, -0.017498156, 0.0042392923, 185021.17, 185021.17, 0.0, 2.5004625, 2.4996994 
2.6254606e+1, 9.8708403e+1, 175059.14, -50163.168, -1695.9662, -0.017339962, 0.0055029024, 175071.92, 175071.92, 0.0, 2.5004456, 2.4996994 
2.8756815e+1, 1.2491149e+0, -172781.22, -876235.0, -1071.016, 0.019759469, -0.00000612144, -172779.6, -172779.6, 0.0, 2.5005567, 2.4982283 
2.875678e+1, 3.7473446e+0, -173458.39, -876824.6, -595.10724, 0.017349131, -0.000017274604, -173457.89, -173457.89, 0.0, 2.500556, 2.4982276 
2.875675e+1, 6.2455744e+0, -173989.1, -877075.56, -39.092144, 0.014934501, -0.000026974163, -173989.1, -173989.1, 0.0, 2.500555, 2.4982278 
2.8756714e+1, 8.7438047e+0, -174541.34, -877336.9, 517.30725, 0.0125155775, -0.000035220273, -174540.95, -174540.95, 0.0, 2.500554, 2.4982278 
2.8756693e+1, 1.12421095e+1, -129919.125, -783961.44, -793.5352, 0.011998715, -0.0004705074, -129918.164, -129918.164, 0.0, 2.5005534, 2.4983883 
2.8756684e+1, 1.3740487e+1, -129955.13, -783487.5, 172.09758, 0.013506314, -0.0017500948, -129955.09, -129955.09, 0.0, 2.5005527, 2.4983892 
2.8756675e+1, 1.6238867e+1, -130298.32, -783638.7, 1229.5552, 0.015013104, -0.0030278054, -130296.0, -130296.0, 0.0, 2.5005522, 2.4983892 
2.8756666e+1, 1.8737243e+1, -130649.56, -783793.75, 2286.1533, 0.016518947, -0.0043031415, -130641.56, -130641.56, 0.0, 2.5005515, 2.4983892 
2.8756642e+1, 2.1235704e+1, -86261.86, -690927.2, 2237.224, 0.016672218, -0.0051844195, -86253.586, -86253.586, 0.0, 2.5005507, 2.498549 
2.87566e+1, 2.3734245e+1, -86211.984, -689974.8, 2448.2134, 0.015540178, -0.006401275, -86202.055, -86202.055, 0.0, 2.5005498, 2.4985511 
2.875656e+1, 2.6232785e+1, -86749.58, -690216.44, 2809.5352, 0.01440282, -0.007615312, -86736.49, -86736.49, 0.0, 2.5005488, 2.4985511 
2.8756517e+1, 2.8731325e+1, -87304.37, -690466.4, 3172.2507, 0.013259935, -0.008824737, -87287.68, -87287.68, 0.0, 2.500548, 2.4985511 
2.8756478e+1, 3.1229955e+1, -46552.47, -604593.2, 4409.7505, 0.012130693, -0.008551988, -46517.625, -46517.625, 0.0, 2.5005467, 2.498699 
2.8756443e+1, 3.3728665e+1, -46914.832, -603575.4, 4451.479, 0.01103443, -0.00760292, -46879.234, -46879.234, 0.0, 2.5005448, 2.4987016 
2.8756407e+1, 3.6227378e+1, -48022.94, -604090.9, 4720.3853, 0.009932566, -0.006651947, -47982.875, -47982.875, 0.0, 2.5005429, 2.4987018 
2.875637e+1, 3.8726088e+1, -49141.375, -604611.4, 4991.4233, 0.008825025, -0.005696197, -49096.523, -49096.523, 0.0, 2.500541, 2.4987018 
2.8756338e+1, 4.1224885e+1, -6963.568, -515729.75, 4616.2983, 0.008325025, -0.0042304755, -6921.6855, -6921.6855, 0.0, 2.5005395, 2.4988549 
2.875631e+1, 4.372375e+1, -6653.1284, -513979.1, 4627.7065, 0.008592959, -0.003229732, -6610.919, -6610.919, 0.0, 2.5005383, 2.4988585 
2.8756282e+1, 4.622262e+1, -7347.986, -514293.56, 4944.912, 0.008851745, -0.0022275923, -7299.7563, -7299.7563, 0.0, 2.5005372, 2.4988585 
2.875625e+1, 4.872149e+1, -8056.045, -514614.38, 5259.3535, 0.009100717, -0.0012196883, -8001.446, -8001.446, 0.0, 2.500536, 2.4988585 
2.875621e+1, 5.122044e+1, 39397.914, -414049.56, 5431.229, 0.008198299, -0.00070468505, 39462.957, 39462.957, 0.0, 2.5005338, 2.4990323 
2.875616e+1, 5.371946e+1, 38657.4, -412417.5, 5216.191, 0.006358317, -0.0017833159, 38717.71, 38717.71, 0.0, 2.5005305, 2.4990366 
2.8756106e+1, 5.6218493e+1, 36656.824, -413361.03, 5313.531, 0.004508235, -0.0028641298, 36719.555, 36719.555, 0.0, 2.500527, 2.4990366 
2.8756052e+1, 5.871752e+1, 34629.406, -414317.5, 5412.066, 0.0026467133, -0.003941433, 34694.64, 34694.64, 0.0, 2.5005233, 2.4990368 
2.8756e+1, 6.121662e+1, 76335.31, -326445.34, 3854.3667, 0.0011392664, -0.004361455, 76372.19, 76372.19, 0.0, 2.5005221, 2.4991882 
2.8755945e+1, 6.3715804e+1, 78009.88, -323346.97, 3031.011, 0.00026883304, -0.0053491048, 78032.77, 78032.77, 0.0, 2.5005226, 2.4991932 
2.875589e+1, 6.621499e+1, 78241.19, -323220.2, 2524.2766, -0.0006131326, -0.0063393777, 78257.06, 78257.06, 0.0, 2.5005229, 2.4991932 
2.8755838e+1, 6.871417e+1, 78455.2, -323101.72, 2014.6539, -0.0015082547, -0.0073248316, 78465.31, 78465.31, 0.0, 2.5005233, 2.4991934 
2.8755778e+1, 7.121346e+1, 125622.12, -221369.3, 906.8575, -0.0026910328, -0.0063182497, 125624.484, 125624.484, 0.0, 2.5005193, 2.4993699 
2.8755715e+1, 7.371285e+1, 121786.305, -220456.8, 849.8766, -0.0035504554, -0.004600386, 121788.414, 121788.414, 0.0, 2.5005097, 2.499376 
2.875565e+1, 7.621225e+1, 116181.88, -223149.48, 1184.5673, -0.004425159, -0.0028880953, 116186.016, 116186.016, 0.0, 2.5005, 2.499376 
2.8755587e+1, 7.871164e+1, 110539.22, -225860.6, 1524.912, -0.0053192955, -0.001172674, 110546.13, 110546.13, 0.0, 2.5004904, 2.499376 
2.8755522e+1, 8.121111e+1, 151570.53, -138471.53, 3113.932, -0.007000066, 0.00046982366, 151603.95, 151603.95, 0.0, 2.500488, 2.4995272 
2.8755444e+1, 8.371064e+1, 156171.19, -133210.66, 2168.3708, -0.010176012, 0.00074677344, 156187.44, 156187.44, 0.0, 2.5004926, 2.4995341 
2.8755367e+1, 8.6210173e+1, 158821.16, -131927.9, 1686.5938, -0.013374272, 0.0010163939, 158830.94, 158830.94, 0.0, 2.500497, 2.4995341 
2.8755286e+1, 8.870972e+1, 161424.83, -130667.44, 1209.0977, -0.016590007, 0.0012878655, 161429.84, 161429.84, 0.0, 2.5005016, 2.4995341 
2.8755203e+1, 9.1209334e+1, 201115.56, -43974.938, -671.863, -0.019974738, 0.0027149701, 201117.4, 201117.4, 0.0, 2.500497, 2.499685 
2.875515e+1, 9.370902e+1, 193762.19, -43381.813, -2322.1775, -0.01959922, 0.002725883, 193784.94, 193784.94, 0.0, 2.50048, 2.4996943 
2.875509e+1, 9.6208715e+1, 183678.55, -48214.867, -3133.7068, -0.01925559, 0.002700989, 183720.89, 183720.89, 0.0, 2.5004628, 2.4996943 
2.8755036e+1, 9.8708403e+1, 173452.98, -53116.266, -3949.27, -0.018973457, 0.0026593523, 173521.8, 173521.8, 0.0, 2.5004451, 2.4996946 
3.125737e+1, 1.2491174e+0, -177227.4, -876277.6, -1162.7853, 0.020238709, 0.000013800574, -177225.47, -177225.47, 0.0, 2.500547, 2.498233 
3.125734e+1, 3.7473524e+0, -178551.0, -877172.1, -428.36093, 0.0183565, 0.000042203123, -178550.73, -178550.73, 0.0, 2.5005448, 2.4982324 
3.125731e+1, 6.2455875e+0, -179712.38, -877727.5, 385.14667, 0.016479794, 0.00007167486, -179712.16, -179712.16, 0.0, 2.5005429, 2.4982324 
3.1257284e+1, 8.743822e+0, -180875.0, -878283.56, 1198.6626, 0.01460859, 0.00010221565, -180872.94, -180872.94, 0.0, 2.500541, 2.4982324 
3.125726e+1, 1.1242132e+1, -136200.53, -784971.9, -134.77504, 0.014125847, -0.00031286696, -136200.5, -136200.5, 0.0, 2.5005403, 2.4983926 
3.1257245e+1, 1.3740514e+1, -135360.53, -784080.0, 25.377295, 0.01513661, -0.0015901518, -135360.53, -135360.53, 0.0, 2.5005412, 2.4983938 
3.1257233e+1, 1.6238898e+1, -134818.36, -783806.1, 278.3151, 0.016147604, -0.002865237, -134818.23, -134818.23, 0.0, 2.5005422, 2.4983938 
3.1257218e+1, 1.873728e+1, -134276.5, -783532.44, 531.33234, 0.017158702, -0.004137625, -134276.06, -134276.06, 0.0, 2.500543, 2.4983938 
3.125719e+1, 2.1235746e+1, -89759.73, -691209.2, 14.48207, 0.017119683, -0.004895619, -89759.73, -89759.73, 0.0, 2.5005434, 2.498552 
3.125715e+1, 2.3734291e+1, -89622.93, -690244.6, 383.1553, 0.016112521, -0.0058524, -89622.68, -89622.68, 0.0, 2.5005426, 2.498554 
3.125711e+1, 2.623284e+1, -90036.97, -690423.9, 902.062, 0.015107565, -0.0068065412, -90035.62, -90035.62, 0.0, 2.500542, 2.4985542 
3.125707e+1, 2.8731385e+1, -90451.05, -690603.1, 1420.952, 0.014104583, -0.007756291, -90447.69, -90447.69, 0.0, 2.5005412, 2.4985542 
3.1257033e+1, 3.1230015e+1, -49765.652, -605016.44, 2666.577, 0.013098059, -0.007435423, -49752.844, -49752.844, 0.0, 2.50054, 2.4987016 
3.1256995e+1, 3.3728725e+1, -50001.465, -603966.7, 2843.9768, 0.012078712, -0.006662191, -49986.867, -49986.867, 0.0, 2.5005383, 2.4987042 
3.1256956e+1, 3.622744e+1, -50951.453, -604398.8, 3249.2952, 0.011057398, -0.0058864243, -50932.38, -50932.38, 0.0, 2.5005367, 2.4987042 
3.125692e+1, 3.8726154e+1, -51901.855, -604831.06, 3655.1006, 0.010034139, -0.0051052095, -51877.695, -51877.695, 0.0, 2.500535, 2.4987042 
3.1256884e+1, 4.1224945e+1, -8977.961, -515572.72, 3640.7366, 0.009395172, -0.0037258763, -8951.798, -8951.798, 0.0, 2.500535, 2.4988575 
3.1256855e+1, 4.3723816e+1, -7248.461, -513222.9, 3632.1555, 0.00930431, -0.0026930918, -7222.3887, -7222.3887, 0.0, 2.5005362, 2.4988608 
3.1256822e+1, 4.622269e+1, -6458.0566, -512817.13, 3939.546, 0.009212381, -0.0016594746, -6427.408, -6427.408, 0.0, 2.5005376, 2.4988608 
3.1256786e+1, 4.872156e+1, -5672.6597, -512413.75, 4251.686, 0.009118693, -0.0006207936, -5636.9897, -5636.9897, 0.0, 2.5005388, 2.4988608 
3.1256744e+1, 5.122051e+1, 41829.438, -412355.34, 3804.701, 0.008085693, 0.00004446277, 41861.31, 41861.31, 0.0, 2.5005374, 2.4990332 
3.1256688e+1, 5.3719544e+1, 40230.523, -411269.7, 3554.48, 0.0063034403, -0.00072351255, 40258.504, 40258.504, 0.0, 2.5005326, 2.4990375 
3.125663e+1, 5.6218576e+1, 37481.164, -412571.0, 3628.618, 0.0045194104, -0.0014896562, 37510.42, 37510.42, 0.0, 2.5005279, 2.4990375 
3.1256574e+1, 5.87176e+1, 34731.383, -413872.5, 3702.5107, 0.00273243, -0.0022484588, 34761.938, 34761.938, 0.0, 2.500523, 2.4990375 
3.125652e+1, 6.121671e+1, 76108.586, -325940.94, 3430.8655, 0.0012545054, -0.0026263644, 76137.86, 76137.86, 0.0, 2.500521, 2.4991896 
3.1256467e+1, 6.3715893e+1, 77458.89, -323135.0, 3832.661, 0.0003798818, -0.0038351289, 77495.555, 77495.555, 0.0, 2.500521, 2.4991944 
3.1256413e+1, 6.6215074e+1, 77462.52, -323112.03, 4572.906, -0.00049959426, -0.0050469916, 77514.72, 77514.72, 0.0, 2.500521, 2.4991944 
3.125636e+1, 6.8714255e+1, 77461.945, -323091.1, 5317.5, -0.0013856364, -0.006254658, 77532.52, 77532.52, 0.0, 2.500521, 2.4991944 
3.1256294e+1, 7.121355e+1, 125776.22, -221259.25, 3452.8364, -0.0027497597, -0.0053193616, 125810.57, 125810.57, 0.0, 2.5005195, 2.4993699 
3.125622e+1, 7.371294e+1, 125017.72, -219048.36, 2488.9387, -0.0040358813, -0.0034187243, 125035.72, 125035.72, 0.0, 2.5005155, 2.4993758 
3.1256145e+1, 7.6212335e+1, 122653.47, -220169.03, 1959.4706, -0.005325856, -0.0015240492, 122664.664, 122664.664, 0.0, 2.5005114, 2.4993758 
3.125607e+1, 7.8711724e+1, 120289.06, -221289.77, 1428.8268, -0.0066234274, 0.00037271177, 120295.04, 120295.04, 0.0, 2.500507, 2.4993758 
3.1256002e+1, 8.121119e+1, 161219.25, -133494.05, 4255.1846, -0.008431568, 0.0020624804, 161280.69, 161280.69, 0.0, 2.5005043, 2.499528 
3.1255928e+1, 8.3710724e+1, 161369.66, -130547.56, 4279.701, -0.011370394, 0.0022751647, 161432.39, 161432.39, 0.0, 2.5005014, 2.4995344 
3.1255853e+1, 8.621027e+1, 159729.64, -131315.28, 4776.861, -0.014319347, 0.0024798617, 159808.02, 159808.02, 0.0, 2.5004985, 2.4995344 
3.125578e+1, 8.87098e+1, 158092.86, -132081.44, 5275.222, -0.017274214, 0.0026855646, 158188.73, 158188.73, 0.0, 2.5004957, 2.4995346 
3.1255692e+1, 9.120941e+1, 198315.88, -45898.332, 2744.1409, -0.020550957, 0.0038701708, 198346.7, 198346.7, 0.0, 2.5004928, 2.4996839 
3.1255624e+1, 9.37091e+1, 197598.19, -42349.6, 1820.6803, -0.020428794, 0.0037095058, 197612.02, 197612.02, 0.0, 2.5004876, 2.4996927 
3.1255552e+1, 9.6208787e+1, 194426.94, -43849.17, 1913.5825, -0.020310085, 0.0035180189, 194442.31, 194442.31, 0.0, 2.500482, 2.4996927 
3.1255484e+1, 9.8708475e+1, 191241.78, -45355.438, 2012.3649, -0.020222638, 0.0033129123, 191258.9, 191258.9, 0.0, 2.5004766, 2.4996927 
3.3757892e+1, 1.24911785e+0, -175580.95, -873072.75, -1475.1282, 0.017531628, -0.00021318722, -175577.83, -175577.83, 0.0, 2.5005472, 2.4982383 
3.375788e+1, 3.7473536e+0, -176898.33, -873954.94, -746.5812, 0.017631706, -0.000638668, -176897.53, -176897.53, 0.0, 2.500545, 2.4982378 
3.3757865e+1, 6.245589e+0, -178058.34, -874509.2, 58.238453, 0.01773469, -0.0010629566, -178058.33, -178058.33, 0.0, 2.500543, 2.4982378 
3.3757854e+1, 8.743825e+0, -179218.92, -875063.7, 863.2378, 0.017840581, -0.0014860531, -179217.84, -179217.84, 0.0, 2.5005412, 2.4982378 
3.3757836e+1, 1.12421416e+1, -135577.75, -783897.56, -46.989277, 0.017678274, -0.0015318712, -135577.75, -135577.75, 0.0, 2.5005405, 2.4983945 
3.375781e+1, 1.3740538e+1, -134743.31, -783021.0, 112.15446, 0.017330665, -0.0016021034, -134743.28, -134743.28, 0.0, 2.5005414, 2.4983954 
3.3757782e+1, 1.6238935e+1, -134198.1, -782744.56, 358.74582, 0.016982228, -0.0016697497, -134197.89, -134197.89, 0.0, 2.5005424, 2.4983954 
3.3757758e+1, 1.8737331e+1, -133653.31, -782468.4, 605.8013, 0.01663285, -0.0017343233, -133652.75, -133652.75, 0.0, 2.5005434, 2.4983954 
3.3757725e+1, 2.1235804e+1, -88612.72, -689048.3, -167.39607, 0.016140524, -0.0021567002, -88612.67, -88612.67, 0.0, 2.5005436, 2.4985557 
3.375769e+1, 2.3734346e+1, -88507.34, -688146.75, 198.43468, 0.015602669, -0.0036157283, -88507.27, -88507.27, 0.0, 2.5005429, 2.4985576 
3.375765e+1, 2.6232892e+1, -88922.77, -688325.3, 716.9353, 0.015065078, -0.0050714593, -88921.914, -88921.914, 0.0, 2.5005422, 2.4985576 
3.3757615e+1, 2.8731436e+1, -89339.23, -688504.3, 1236.1061, 0.014527502, -0.006522248, -89336.68, -89336.68, 0.0, 2.5005412, 2.4985576 
3.375758e+1, 3.1230065e+1, -48854.418, -603318.94, 2330.6074, 0.014030715, -0.0065659047, -48844.62, -48844.62, 0.0, 2.5005403, 2.4987044 
3.375755e+1, 3.3728778e+1, -49121.57, -602327.1, 2514.1172, 0.013556879, -0.006006748, -49110.15, -49110.15, 0.0, 2.5005386, 2.4987068 
3.3757514e+1, 3.6227494e+1, -50075.043, -602759.25, 2918.218, 0.01307962, -0.0054444815, -50059.637, -50059.637, 0.0, 2.500537, 2.4987068 
3.375748e+1, 3.8726205e+1, -51029.59, -603191.9, 3323.135, 0.012599008, -0.0048762234, -51009.59, -51009.59, 0.0, 2.5005352, 2.498707 
3.3757442e+1, 4.1225e+1, -8227.881, -514164.66, 3746.8037, 0.011571231, -0.003278288, -8200.135, -8200.135, 0.0, 2.500535, 2.4988596 
3.3757398e+1, 4.3723884e+1, -6588.704, -511984.34, 3752.273, 0.01011332, -0.0015250086, -6560.847, -6560.847, 0.0, 2.5005364, 2.4988627 
3.375735e+1, 4.6222767e+1, -5806.004, -511580.22, 4059.3457, 0.008651449, 0.00022932887, -5773.426, -5773.426, 0.0, 2.5005376, 2.498863 
3.3757305e+1, 4.8721644e+1, -5024.9316, -511176.88, 4367.218, 0.007185053, 0.0019886736, -4987.253, -4987.253, 0.0, 2.500539, 2.498863 
3.375726e+1, 5.12206e+1, 42109.566, -411865.2, 3005.2761, 0.0059699835, 0.002650466, 42129.46, 42129.46, 0.0, 2.5005376, 2.4990342 
3.375721e+1, 5.371962e+1, 40418.125, -410960.06, 2742.1284, 0.0052297697, 0.0011545701, 40434.785, 40434.785, 0.0, 2.5005329, 2.499038 
3.375716e+1, 5.621865e+1, 37661.66, -412262.7, 2814.801, 0.0044846716, -0.0003393478, 37679.27, 37679.27, 0.0, 2.500528, 2.499038 
3.3757105e+1, 5.871767e+1, 34903.375, -413566.22, 2888.2485, 0.0037334894, -0.0018258258, 34921.973, 34921.973, 0.0, 2.5005233, 2.499038 
3.3757055e+1, 6.121678e+1, 77596.7, -322891.72, 3336.8044, 0.0025703274, -0.002322542, 77624.5, 77624.5, 0.0, 2.5005212, 2.4991946 
3.3756995e+1, 6.371597e+1, 78832.85, -320301.88, 3726.3335, 0.0012363504, -0.002921848, 78867.64, 78867.64, 0.0, 2.5005212, 2.4991992 
3.3756936e+1, 6.6215163e+1, 78829.945, -320279.34, 4459.8906, -0.00010607418, -0.0035240066, 78879.78, 78879.78, 0.0, 2.500521, 2.4991992 
3.375688e+1, 6.8714356e+1, 78824.89, -320257.88, 5194.063, -0.0014584532, -0.0041223597, 78892.48, 78892.48, 0.0, 2.500521, 2.4991994 
3.375681e+1, 7.1213645e+1, 124933.64, -223009.17, 2731.292, -0.003188702, -0.0030544293, 124955.08, 124955.08, 0.0, 2.5005195, 2.499367 
3.3756724e+1, 7.3713034e+1, 124008.4, -221132.97, 1724.5468, -0.004823884, -0.0014312582, 124017.016, 124017.016, 0.0, 2.5005155, 2.4993722 
3.3756647e+1, 7.6212424e+1, 121633.95, -222257.17, 1187.5131, -0.0064684604, 0.00018602578, 121638.05, 121638.05, 0.0, 2.5005112, 2.4993722 
3.375656e+1, 7.871181e+1, 119256.78, -223382.7, 650.933, -0.008125585, 0.0018049886, 119258.02, 119258.02, 0.0, 2.500507, 2.4993722 
3.3756492e+1, 8.1211275e+1, 162206.38, -131390.38, 3677.777, -0.009855523, 0.0031944702, 162252.44, 162252.44, 0.0, 2.5005043, 2.4995317 
3.375642e+1, 8.371081e+1, 162227.83, -128665.086, 3663.6406, -0.012181835, 0.0031522012, 162273.95, 162273.95, 0.0, 2.5005014, 2.4995377 
3.3756348e+1, 8.621034e+1, 160555.72, -129445.74, 4156.3867, -0.01452261, 0.003102425, 160615.28, 160615.28, 0.0, 2.5004983, 2.4995377 
3.3756274e+1, 8.8709885e+1, 158880.5, -130227.91, 4649.271, -0.016874317, 0.0030536263, 158955.23, 158955.23, 0.0, 2.5004954, 2.4995377 
3.3756188e+1, 9.12095e+1, 198509.36, -45249.96, 1847.141, -0.020032587, 0.0043920428, 198523.34, 198523.34, 0.0, 2.5004926, 2.499685 
3.3756107e+1, 9.37092e+1, 197583.53, -42090.207, 810.2128, -0.020721098, 0.0050862334, 197586.27, 197586.27, 0.0, 2.500487, 2.4996932 
3.3756024e+1, 9.6208894e+1, 194396.08, -43596.676, 907.67664, -0.021430423, 0.005751183, 194399.55, 194399.55, 0.0, 2.5004816, 2.4996932 
3.375594e+1, 9.870859e+1, 191200.19, -45107.21, 1005.2197, -0.022184998, 0.006402017, 191204.47, 191204.47, 0.0, 2.5004761, 2.4996934 
3.625841e+1, 1.2491182e+0, -174070.75, -869934.7, -1783.1971, 0.014824456, -0.00044088642, -174066.17, -174066.17, 0.0, 2.5005472, 2.4982438 
3.625842e+1, 3.7473547e+0, -175383.69, -870806.75, -1050.2809, 0.016906736, -0.0013216739, -175382.11, -175382.11, 0.0, 2.500545, 2.498243 
3.6258423e+1, 6.245591e+0, -176543.9, -871360.6, -244.61569, 0.018989328, -0.0022011467, -176543.81, -176543.81, 0.0, 2.500543, 2.4982433 
3.625843e+1, 8.743828e+0, -177704.69, -871914.7, 561.22925, 0.02107223, -0.0030793052, -177704.23, -177704.23, 0.0, 2.5005412, 2.4982433 
3.625841e+1, 1.1242152e+1, -135104.02, -782903.8, 81.27537, 0.021232, -0.0027534266, -135104.02, -135104.02, 0.0, 2.5005405, 2.4983962 
3.6258373e+1, 1.3740562e+1, -134274.84, -782036.2, 248.09624, 0.019525774, -0.0016190357, -134274.73, -134274.73, 0.0, 2.5005414, 2.498397 
3.6258334e+1, 1.6238971e+1, -133730.19, -781758.94, 495.3683, 0.017817652, -0.00048168332, -133729.81, -133729.81, 0.0, 2.5005424, 2.498397 
3.6258298e+1, 1.8737383e+1, -133185.98, -781481.94, 743.1045, 0.016107546, 0.00065911736, -133185.13, -133185.13, 0.0, 2.5005434, 2.4983974 
3.625826e+1, 2.1235861e+1, -87629.63, -686978.94, -284.18146, 0.015164314, 0.0005760501, -87629.5, -87629.5, 0.0, 2.5005436, 2.4985592 
3.625823e+1, 2.3734401e+1, -87549.586, -686127.1, 82.96119, 0.0150957005, -0.001387203, -87549.57, -87549.57, 0.0, 2.5005429, 2.4985611 
3.6258194e+1, 2.6232946e+1, -87965.93, -686304.7, 602.2514, 0.015025398, -0.0033465293, -87965.32, -87965.32, 0.0, 2.500542, 2.4985611 
3.625816e+1, 2.8731486e+1, -88383.29, -686482.8, 1122.2118, 0.01495315, -0.005300364, -88381.18, -88381.18, 0.0, 2.5005412, 2.4985611 
3.6258128e+1, 3.123012e+1, -48103.906, -601711.1, 2064.623, 0.014967218, -0.005705473, -48096.207, -48096.207, 0.0, 2.50054, 2.498707 
3.62581e+1, 3.3728832e+1, -48393.92, -600762.9, 2258.8323, 0.015039224, -0.005362247, -48384.684, -48384.684, 0.0, 2.5005383, 2.4987094 
3.6258072e+1, 3.6227548e+1, -49348.81, -601194.0, 2663.6023, 0.0151063455, -0.0050153653, -49335.95, -49335.95, 0.0, 2.5005367, 2.4987097 
3.6258042e+1, 3.8726258e+1, -50304.766, -601625.6, 3069.1882, 0.015168708, -0.0046619494, -50287.68, -50287.68, 0.0, 2.500535, 2.4987097 
3.6258e+1, 4.1225064e+1, -7625.1323, -512842.4, 3927.4287, 0.01375477, -0.0028401716, -7594.6035, -7594.6035, 0.0, 2.500535, 2.498862 
3.6257944e+1, 4.3723953e+1, -6058.081, -510809.47, 3947.6477, 0.010929702, -0.00036814704, -6027.2085, -6027.2085, 0.0, 2.5005362, 2.498865 
3.6257884e+1, 4.6222842e+1, -5275.607, -510403.4, 4255.7627, 0.0080977585, 0.0021051029, -5239.7544, -5239.7544, 0.0, 2.5005376, 2.498865 
3.6257824e+1, 4.8721734e+1, -4494.7607, -509998.1, 4564.6772, 0.005258524, 0.004583305, -4453.5454, -4453.5454, 0.0, 2.5005388, 2.4988651 
3.6257774e+1, 5.1220685e+1, 42266.863, -411452.25, 2289.642, 0.0038647326, 0.005246206, 42278.418, 42278.418, 0.0, 2.5005374, 2.499035 
3.625773e+1, 5.3719705e+1, 40499.13, -410703.0, 2020.048, 0.00416609, 0.0030205017, 40508.17, 40508.17, 0.0, 2.5005326, 2.4990385 
3.6257687e+1, 5.621872e+1, 37742.35, -412003.7, 2093.954, 0.004459424, 0.00079686206, 37752.1, 37752.1, 0.0, 2.5005279, 2.4990385 
3.625764e+1, 5.8717734e+1, 34983.758, -413305.28, 2168.6353, 0.0047435397, -0.0014192379, 34994.25, 34994.25, 0.0, 2.500523, 2.4990385 
3.625759e+1, 6.121685e+1, 78988.586, -319911.9, 3338.8523, 0.0039007084, -0.0020251162, 79016.53, 79016.53, 0.0, 2.500521, 2.4991999 
3.6257523e+1, 6.371605e+1, 80136.875, -317503.56, 3719.917, 0.0021062354, -0.0020176175, 80171.67, 80171.67, 0.0, 2.500521, 2.499204 
3.625746e+1, 6.621525e+1, 80134.92, -317477.9, 4455.185, 0.0002996513, -0.0020128582, 80184.836, 80184.836, 0.0, 2.500521, 2.4992042 
3.6257398e+1, 6.871445e+1, 80130.82, -317453.28, 5191.0684, -0.001520276, -0.0020046842, 80198.59, 80198.59, 0.0, 2.500521, 2.4992042 
3.6257324e+1, 7.121375e+1, 124021.75, -224824.22, 2141.8591, -0.003608475, -0.0007916897, 124034.9, 124034.9, 0.0, 2.5005193, 2.499364 
3.625723e+1, 7.3713136e+1, 122956.73, -223238.73, 1103.1824, -0.0055935266, 0.00055177254, 122960.24, 122960.24, 0.0, 2.5005152, 2.4993687 
3.6257145e+1, 7.621251e+1, 120583.21, -224361.13, 568.1336, -0.007593621, 0.0018892359, 120584.15, 120584.15, 0.0, 2.5005112, 2.4993687 
3.6257052e+1, 7.871189e+1, 118206.984, -225484.83, 33.53852, -0.0096112145, 0.003227969, 118206.99, 118206.99, 0.0, 2.500507, 2.4993687 
3.625698e+1, 8.121135e+1, 163179.03, -129323.24, 3272.22, -0.011265963, 0.0043253643, 163215.63, 163215.63, 0.0, 2.5005043, 2.4995353 
3.6256912e+1, 8.371089e+1, 163118.94, -126767.83, 3224.3809, -0.012981975, 0.004025286, 163154.81, 163154.81, 0.0, 2.5005012, 2.499541 
3.6256844e+1, 8.6210424e+1, 161448.42, -127545.21, 3719.2405, -0.01471675, 0.0037180409, 161496.28, 161496.28, 0.0, 2.5004983, 2.499541 
3.6256775e+1, 8.870997e+1, 159774.75, -128324.11, 4214.238, -0.016467474, 0.003411746, 159836.39, 159836.39, 0.0, 2.5004954, 2.499541 
3.6256686e+1, 9.1209584e+1, 198828.38, -44576.824, 1143.0554, -0.019462578, 0.004930108, 198833.75, 198833.75, 0.0, 2.5004926, 2.4996862 
3.6256588e+1, 9.370929e+1, 197744.64, -41747.066, -12.115387, -0.02096218, 0.006477461, 197744.64, 197744.64, 0.0, 2.500487, 2.4996939 
3.6256492e+1, 9.6209e+1, 194558.64, -43251.98, 90.71488, -0.022500655, 0.007996722, 194558.67, 194558.67, 0.0, 2.5004816, 2.4996939 
3.6256394e+1, 9.87087e+1, 191364.19, -44760.957, 193.62442, -0.024098381, 0.009501372, 191364.34, 191364.34, 0.0, 2.5004761, 2.4996939 
3.8758934e+1, 1.2491186e+0, -174028.88, -867505.1, -2083.991, 0.012118424, -0.0006693189, -174022.61, -174022.61, 0.0, 2.5005445, 2.498249 
3.8758957e+1, 3.7473556e+0, -175293.38, -868347.3, -1330.7615, 0.016182756, -0.00200688, -175290.83, -175290.83, 0.0, 2.5005426, 2.4982486 
3.875898e+1, 6.245593e+0, -176427.31, -868888.0, -509.57898, 0.020244822, -0.0033430054, -176426.94, -176426.94, 0.0, 2.5005407, 2.4982486 
3.8759002e+1, 8.743831e+0, -177580.06, -869437.75, 311.09375, 0.02430462, -0.0046776948, -177579.92, -177579.92, 0.0, 2.5005388, 2.4982486 
3.875899e+1, 1.1242162e+1, -136020.81, -782588.9, 274.11713, 0.024788085, -0.0039777295, -136020.7, -136020.7, 0.0, 2.500538, 2.4983978 
3.8758937e+1, 1.3740586e+1, -135186.45, -781718.75, 464.29416, 0.02172296, -0.0016411863, -135186.13, -135186.13, 0.0, 2.500539, 2.4983988 
3.8758886e+1, 1.623901e+1, -134642.55, -781440.8, 726.18115, 0.018654885, 0.0006986832, -134641.73, -134641.73, 0.0, 2.50054, 2.4983988 
3.8758835e+1, 1.8737432e+1, -134105.88, -781166.4, 988.0514, 0.015583798, 0.0030423745, -134104.38, -134104.38, 0.0, 2.500541, 2.498399 
3.8758793e+1, 2.1235916e+1, -88035.97, -685591.4, -284.15686, 0.014192016, 0.0033022803, -88035.83, -88035.83, 0.0, 2.5005412, 2.4985628 
3.8758767e+1, 2.3734456e+1, -87962.34, -684769.94, 95.78412, 0.01459251, 0.00083280914, -87962.33, -87962.33, 0.0, 2.5005405, 2.4985645 
3.8758737e+1, 2.6232997e+1, -88381.14, -684947.4, 625.31256, 0.014989369, -0.0016321356, -88380.484, -88380.484, 0.0, 2.5005395, 2.4985645 
3.8758704e+1, 2.873154e+1, -88813.49, -685131.3, 1155.386, 0.015382341, -0.004091042, -88811.26, -88811.26, 0.0, 2.5005388, 2.4985647 
3.8758677e+1, 3.123017e+1, -48746.53, -600786.7, 1961.5004, 0.015908321, -0.0048545236, -48739.563, -48739.563, 0.0, 2.5005376, 2.49871 
3.875865e+1, 3.3728883e+1, -49033.4, -599859.06, 2195.1833, 0.016526422, -0.0047290437, -49024.65, -49024.65, 0.0, 2.500536, 2.4987123 
3.875863e+1, 3.6227596e+1, -49978.375, -600283.75, 2626.8962, 0.017138189, -0.0045993924, -49965.832, -49965.832, 0.0, 2.5005343, 2.4987123 
3.8758603e+1, 3.8726312e+1, -50932.094, -600712.7, 3059.0647, 0.017743817, -0.004462662, -50915.074, -50915.074, 0.0, 2.5005326, 2.4987123 
3.8758555e+1, 4.122512e+1, -8359.452, -512179.0, 4372.903, 0.015946312, -0.0024117867, -8321.5, -8321.5, 0.0, 2.5005326, 2.4988644 
3.8758484e+1, 4.3724018e+1, -6819.649, -510258.47, 4430.6426, 0.011753907, 0.00077722676, -6780.659, -6780.659, 0.0, 2.500534, 2.498867 
3.8758415e+1, 4.622292e+1, -6020.191, -509842.16, 4757.659, 0.00755173, 0.003967589, -5975.268, -5975.268, 0.0, 2.5005352, 2.498867 
3.8758346e+1, 4.8721817e+1, -5241.638, -509435.88, 5085.7695, 0.0033395316, 0.007162864, -5190.3438, -5190.3438, 0.0, 2.5005367, 2.498867 
3.875829e+1, 5.1220775e+1, 41185.28, -411653.84, 1918.7917, 0.001770329, 0.007831482, 41193.41, 41193.41, 0.0, 2.5005352, 2.4990356 
3.875825e+1, 5.371978e+1, 39453.938, -410989.4, 1671.4789, 0.0031127112, 0.004874126, 39460.137, 39460.137, 0.0, 2.5005307, 2.499039 
3.8758212e+1, 5.621879e+1, 36778.81, -412248.7, 1770.2628, 0.0044439384, 0.0019188657, 36785.79, 36785.79, 0.0, 2.500526, 2.499039 
3.875817e+1, 5.87178e+1, 34083.016, -413517.94, 1865.9158, 0.005762851, -0.0010287503, 34090.793, 34090.793, 0.0, 2.5005214, 2.4990392 
3.8758123e+1, 6.1216915e+1, 79475.16, -317391.0, 3766.307, 0.005245891, -0.0017340967, 79510.9, 79510.9, 0.0, 2.5005193, 2.4992049 
3.875805e+1, 6.371613e+1, 80652.266, -315086.0, 4138.247, 0.0029897431, -0.0011223999, 80695.54, 80695.54, 0.0, 2.5005195, 2.499209 
3.8757983e+1, 6.621535e+1, 80712.625, -315027.63, 4868.8936, 0.00071781815, -0.00051344687, 80772.52, 80772.52, 0.0, 2.5005195, 2.499209 
3.8757914e+1, 6.871456e+1, 80730.41, -314989.75, 5594.4517, -0.0015707733, 0.000098546865, 80809.48, 80809.48, 0.0, 2.5005195, 2.499209 
3.8757837e+1, 7.1213853e+1, 122498.55, -226964.98, 1953.4043, -0.004008748, 0.001469089, 122509.47, 122509.47, 0.0, 2.5005183, 2.4993608 
3.875774e+1, 7.3713225e+1, 121507.72, -225536.19, 882.44293, -0.0063445535, 0.00253063, 121509.96, 121509.96, 0.0, 2.5005145, 2.499365 
3.875764e+1, 7.62126e+1, 119254.875, -226599.11, 342.9859, -0.008701058, 0.0035859, 119255.21, 119255.21, 0.0, 2.5005107, 2.499365 
3.8757545e+1, 7.8711975e+1, 116922.336, -227700.42, -201.98889, -0.011079913, 0.0046420516, 116922.45, 116922.45, 0.0, 2.5005066, 2.499365 
3.875747e+1, 8.1211436e+1, 163998.36, -127359.05, 3250.0708, -0.012662404, 0.0054556583, 164034.61, 164034.61, 0.0, 2.5005038, 2.4995387 
3.8757405e+1, 8.371097e+1, 164020.61, -124866.12, 3176.1592, -0.013770303, 0.0048950044, 164055.52, 164055.52, 0.0, 2.5005012, 2.4995441 
3.875734e+1, 8.6210513e+1, 162406.69, -125613.74, 3683.164, -0.014901131, 0.00432738, 162453.78, 162453.78, 0.0, 2.5004985, 2.4995444 
3.875727e+1, 8.8710046e+1, 160700.02, -126406.04, 4185.2266, -0.016052825, 0.0037606736, 160761.0, 160761.0, 0.0, 2.5004954, 2.4995444 
3.8757184e+1, 9.1209674e+1, 199279.83, -43875.047, 823.2155, -0.018839896, 0.005485181, 199282.61, 199282.61, 0.0, 2.5004928, 2.4996874 
3.8757074e+1, 9.370939e+1, 198210.05, -41257.715, -496.36896, -0.021150758, 0.00788406, 198211.08, 198211.08, 0.0, 2.5004876, 2.4996943 
3.875696e+1, 9.6209097e+1, 194871.61, -42835.15, -435.50546, -0.023518953, 0.010255558, 194872.4, 194872.4, 0.0, 2.5004818, 2.4996943 
3.875685e+1, 9.8708814e+1, 191208.69, -44568.844, -376.15698, -0.025960127, 0.01261195, 191209.28, 191209.28, 0.0, 2.5004756, 2.4996946 
4.125948e+1, 1.2491208e+0, -182734.6, -869914.4, -2220.2808, 0.013328944, -0.00064160407, -182727.42, -182727.42, 0.0, 2.5005276, 2.498253 
4.1259503e+1, 3.7473625e+0, -180913.63, -869264.3, -1940.6384, 0.017289836, -0.0019240774, -180908.16, -180908.16, 0.0, 2.5005312, 2.4982526 
4.1259524e+1, 6.245604e+0, -178948.72, -868313.1, -1598.624, 0.02125464, -0.0032055704, -178945.02, -178945.02, 0.0, 2.5005345, 2.4982526 
4.1259548e+1, 8.743846e+0, -176985.1, -867362.6, -1256.6187, 0.025223354, -0.004486083, -176982.8, -176982.8, 0.0, 2.5005379, 2.4982526 
4.1259536e+1, 1.1242182e+1, -134941.2, -780906.94, -1585.317, 0.02564993, -0.0036512627, -134937.31, -134937.31, 0.0, 2.5005388, 2.4984004 
4.1259483e+1, 1.374061e+1, -135537.02, -780737.8, -1177.2408, 0.022559345, -0.0010960893, -135534.88, -135534.88, 0.0, 2.5005374, 2.4984014 
4.125943e+1, 1.6239038e+1, -136410.92, -781144.2, -704.1522, 0.01947022, 0.0014622563, -136410.16, -136410.16, 0.0, 2.5005357, 2.4984014 
4.1259375e+1, 1.8737467e+1, -137285.61, -781550.94, -231.18332, 0.016382497, 0.0040242663, -137285.52, -137285.52, 0.0, 2.5005343, 2.4984014 
4.125934e+1, 2.1235955e+1, -91620.445, -686065.06, -1538.884, 0.015043757, 0.0043485267, -91616.46, -91616.46, 0.0, 2.5005336, 2.4985657 
4.1259313e+1, 2.3734497e+1, -90982.25, -684997.2, -1413.4282, 0.015545026, 0.0018073419, -90978.89, -90978.89, 0.0, 2.5005338, 2.4985673 
4.125928e+1, 2.623304e+1, -90803.91, -684885.8, -1152.371, 0.016047793, -0.0007293897, -90801.67, -90801.67, 0.0, 2.500534, 2.4985673 
4.1259253e+1, 2.8731582e+1, -90627.2, -684775.3, -890.96875, 0.016551867, -0.003260203, -90625.87, -90625.87, 0.0, 2.5005345, 2.4985673 
4.1259223e+1, 3.1230214e+1, -49741.875, -600129.6, -366.94858, 0.017003609, -0.003989593, -49741.633, -49741.633, 0.0, 2.5005348, 2.4987123 
4.1259196e+1, 3.3728936e+1, -48819.215, -598677.44, -295.24228, 0.01735622, -0.0036816266, -48819.06, -48819.06, 0.0, 2.5005352, 2.4987147 
4.1259167e+1, 3.6227652e+1, -48509.8, -598494.25, -48.320175, 0.017708553, -0.0033683015, -48509.797, -48509.797, 0.0, 2.5005357, 2.4987147 
4.1259137e+1, 3.8726372e+1, -48204.348, -598313.0, 199.56358, 0.01806081, -0.003046858, -48204.273, -48204.273, 0.0, 2.5005362, 2.498715 
4.125909e+1, 4.1225183e+1, -6368.804, -509810.4, 1364.0891, 0.016212765, -0.0008444717, -6365.108, -6365.108, 0.0, 2.5005345, 2.4988675 
4.1259018e+1, 4.3724087e+1, -7995.468, -509496.4, 1614.4177, 0.012132051, 0.0024771942, -7990.271, -7990.271, 0.0, 2.5005305, 2.49887 
4.125895e+1, 4.6222988e+1, -10287.798, -510564.06, 2118.8533, 0.008052173, 0.0058063124, -10278.824, -10278.824, 0.0, 2.5005267, 2.49887 
4.1258878e+1, 4.8721895e+1, -12580.963, -511632.13, 2623.597, 0.0039731036, 0.0091464035, -12567.17, -12567.17, 0.0, 2.5005226, 2.4988701 
4.1258824e+1, 5.122085e+1, 34345.395, -413821.3, -155.52098, 0.00235922, 0.009820485, 34345.45, 34345.45, 0.0, 2.5005224, 2.4990382 
4.1258782e+1, 5.3719866e+1, 36991.695, -411165.03, 19.74113, 0.0034553243, 0.006759881, 36991.695, 36991.695, 0.0, 2.5005252, 2.499041 
4.125874e+1, 5.6218874e+1, 38785.645, -410272.9, 537.0556, 0.0045510805, 0.0037029753, 38786.29, 38786.29, 0.0, 2.5005283, 2.4990413 
4.12587e+1, 5.871788e+1, 40574.773, -409383.1, 1056.2643, 0.005645439, 0.0006551213, 40577.254, 40577.254, 0.0, 2.5005314, 2.4990413 
4.125864e+1, 6.1217e+1, 86451.664, -312479.53, 2492.7878, 0.00499648, -0.00001410727, 86467.24, 86467.24, 0.0, 2.5005298, 2.4992085 
4.1258568e+1, 6.3716215e+1, 83148.7, -312473.56, 2256.196, 0.0026623295, 0.0008183676, 83161.57, 83161.57, 0.0, 2.5005224, 2.499212 
4.1258496e+1, 6.621544e+1, 78858.44, -314509.75, 2406.1636, 0.0003318515, 0.0016528517, 78873.16, 78873.16, 0.0, 2.500515, 2.499212 
4.1258422e+1, 6.871466e+1, 74564.375, -316547.78, 2561.1104, -0.0019955507, 0.0024948602, 74581.15, 74581.15, 0.0, 2.5005076, 2.4992123 
4.1258344e+1, 7.121396e+1, 115764.89, -229835.22, -179.0854, -0.004373835, 0.003926338, 115764.984, 115764.984, 0.0, 2.5005064, 2.4993615 
4.125825e+1, 7.371333e+1, 119338.21, -226374.84, -138.21884, -0.0066185794, 0.004918359, 119338.266, 119338.266, 0.0, 2.5005105, 2.4993656 
4.1258153e+1, 7.621271e+1, 121828.234, -225157.56, 461.39108, -0.008856099, 0.0059097055, 121828.85, 121828.85, 0.0, 2.5005147, 2.4993656 
4.1258058e+1, 7.8712076e+1, 124320.375, -223939.25, 1059.8196, -0.011087532, 0.006907264, 124323.6, 124323.6, 0.0, 2.500519, 2.4993656 
4.1257977e+1, 8.121153e+1, 172113.05, -122915.49, 3830.4155, -0.012669349, 0.007614986, 172162.77, 172162.77, 0.0, 2.5005171, 2.4995399 
4.1257903e+1, 8.371107e+1, 167771.38, -122685.766, 2850.5552, -0.013825557, 0.006893664, 167799.34, 167799.34, 0.0, 2.5005074, 2.499545 
4.125783e+1, 8.621061e+1, 161976.97, -125448.57, 2521.284, -0.014979332, 0.006162288, 161999.08, 161999.08, 0.0, 2.5004973, 2.499545 
4.1257763e+1, 8.871014e+1, 156171.53, -128216.695, 2194.0732, -0.016129354, 0.0054287403, 156188.45, 156188.45, 0.0, 2.5004873, 2.4995453 
4.125767e+1, 9.120977e+1, 195941.44, -45094.457, -330.27353, -0.01889942, 0.0070869913, 195941.89, 195941.89, 0.0, 2.5004869, 2.4996881 
4.1257557e+1, 9.3709487e+1, 202346.05, -39119.668, -1853.4137, -0.021778481, 0.009749233, 202360.27, 202360.27, 0.0, 2.5004947, 2.4996946 
4.125744e+1, 9.6209204e+1, 206955.27, -36864.707, -1943.3772, -0.024633288, 0.012381063, 206970.75, 206970.75, 0.0, 2.5005026, 2.4996948 
4.1257328e+1, 9.8708916e+1, 211572.1, -34606.09, -2029.9462, -0.02747453, 0.014993126, 211588.83, 211588.83, 0.0, 2.5005105, 2.4996948 
4.3760052e+1, 1.24912485e+0, -181808.27, -868462.0, -1727.6744, 0.017642258, -0.00034758422, -181803.92, -181803.92, 0.0, 2.5005283, 2.4982553 
4.3760055e+1, 3.7473744e+0, -179989.06, -867804.75, -1449.2324, 0.019473918, -0.0010417018, -179986.02, -179986.02, 0.0, 2.5005317, 2.4982548 
4.3760064e+1, 6.2456244e+0, -178030.03, -866856.1, -1116.2736, 0.02130699, -0.0017344177, -178028.23, -178028.23, 0.0, 2.500535, 2.4982548 
4.3760067e+1, 8.7438744e+0, -176071.58, -865907.75, -783.10205, 0.02314147, -0.002425732, -176070.69, -176070.69, 0.0, 2.5005383, 2.4982548 
4.3760052e+1, 1.1242212e+1, -133782.78, -778926.44, -1866.3867, 0.023147695, -0.0016647344, -133777.39, -133777.39, 0.0, 2.5005393, 2.4984035 
4.376001e+1, 1.3740636e+1, -134398.64, -778785.6, -1459.2233, 0.021378526, 0.00016217383, -134395.34, -134395.34, 0.0, 2.5005376, 2.4984045 
4.375997e+1, 1.6239062e+1, -135279.17, -779193.94, -991.5723, 0.019609818, 0.0019930617, -135277.66, -135277.66, 0.0, 2.5005362, 2.4984045 
4.3759927e+1, 1.8737485e+1, -136160.13, -779602.5, -523.3424, 0.017841484, 0.0038284063, -136159.7, -136159.7, 0.0, 2.5005348, 2.4984047 
4.375989e+1, 2.1235973e+1, -90886.27, -684905.7, -1589.4303, 0.017077282, 0.0039626528, -90882.016, -90882.016, 0.0, 2.500534, 2.4985673 
4.3759862e+1, 2.373452e+1, -90270.47, -683870.75, -1441.9236, 0.01735777, 0.0017929153, -90266.97, -90266.97, 0.0, 2.5005343, 2.498569 
4.3759832e+1, 2.6233068e+1, -90100.805, -683761.8, -1181.0922, 0.017637996, -0.000371752, -90098.46, -90098.46, 0.0, 2.5005345, 2.498569 
4.37598e+1, 2.8731617e+1, -89931.88, -683653.2, -919.4658, 0.017917879, -0.0025299278, -89930.45, -89930.45, 0.0, 2.5005348, 2.4985693 
4.3759766e+1, 3.1230256e+1, -49022.49, -598939.5, -395.01736, 0.017748918, -0.0028317205, -49022.203, -49022.203, 0.0, 2.500535, 2.4987142 
4.3759727e+1, 3.372898e+1, -48173.34, -597618.75, -288.22726, 0.017081026, -0.0019593828, -48173.188, -48173.188, 0.0, 2.5005355, 2.4987164 
4.375969e+1, 3.6227706e+1, -47873.53, -597438.3, -37.706657, 0.016411256, -0.0010814881, -47873.527, -47873.527, 0.0, 2.500536, 2.4987164 
4.375965e+1, 3.8726434e+1, -47574.598, -597258.3, 213.54863, 0.015739784, -0.00019556943, -47574.51, -47574.51, 0.0, 2.5005364, 2.4987166 
4.3759602e+1, 4.1225246e+1, -5259.4956, -507726.88, 675.9285, 0.014207325, 0.0020767832, -5258.586, -5258.586, 0.0, 2.5005348, 2.4988708 
4.3759546e+1, 4.3724152e+1, -6930.2285, -507496.97, 952.8026, 0.011757529, 0.004954668, -6928.4146, -6928.4146, 0.0, 2.5005307, 2.4988732 
4.3759486e+1, 4.6223053e+1, -9226.197, -508564.22, 1455.5251, 0.009305618, 0.007839426, -9221.954, -9221.954, 0.0, 2.500527, 2.4988732 
4.375943e+1, 4.8721954e+1, -11523.33, -509632.06, 1959.0054, 0.0068518007, 0.010734645, -11515.626, -11515.626, 0.0, 2.5005229, 2.4988735 
4.3759376e+1, 5.122092e+1, 35499.332, -411613.9, 221.3107, 0.005354816, 0.011389928, 35499.44, 35499.44, 0.0, 2.5005224, 2.4990418 
4.375932e+1, 5.371994e+1, 38059.63, -409119.38, 410.72723, 0.0049833544, 0.008820983, 38060.004, 38060.004, 0.0, 2.5005255, 2.4990447 
4.3759266e+1, 5.621896e+1, 39846.836, -408227.2, 928.7814, 0.0046080556, 0.0062555494, 39848.76, 39848.76, 0.0, 2.5005286, 2.4990447 
4.3759212e+1, 5.871797e+1, 41632.703, -407335.7, 1447.5537, 0.004228104, 0.003698577, 41637.37, 41637.37, 0.0, 2.5005317, 2.4990447 
4.3759146e+1, 6.1217093e+1, 86901.04, -311680.6, 1328.4797, 0.0030033586, 0.0031591058, 86905.47, 86905.47, 0.0, 2.5005298, 2.4992096 
4.3759072e+1, 6.371631e+1, 83486.83, -311889.7, 1060.2676, 0.0010009052, 0.0037890815, 83489.67, 83489.67, 0.0, 2.5005224, 2.499213 
4.3758994e+1, 6.6215533e+1, 79187.87, -313929.4, 1204.7451, -0.0010030429, 0.0044210786, 79191.555, 79191.555, 0.0, 2.500515, 2.499213 
4.375892e+1, 6.871475e+1, 74887.016, -315970.03, 1349.9218, -0.00300897, 0.0050604055, 74891.68, 74891.68, 0.0, 2.5005076, 2.4992132 
4.3758842e+1, 7.121405e+1, 116995.36, -227360.52, 358.98077, -0.0049149967, 0.006413379, 116995.734, 116995.734, 0.0, 2.5005064, 2.4993658 
4.3758756e+1, 7.371342e+1, 120458.68, -224082.39, 377.91406, -0.0065765404, 0.007521537, 120459.09, 120459.09, 0.0, 2.5005107, 2.4993694 
4.375867e+1, 7.6212806e+1, 122921.55, -222872.58, 972.0985, -0.008240095, 0.008628279, 122924.28, 122924.28, 0.0, 2.5005147, 2.4993694 
4.3758583e+1, 7.871219e+1, 125381.73, -221664.03, 1566.3896, -0.0099065155, 0.009740058, 125388.8, 125388.8, 0.0, 2.500519, 2.4993694 
4.3758503e+1, 8.121164e+1, 171566.33, -123916.76, 2263.6685, -0.011596578, 0.010459367, 171583.67, 171583.67, 0.0, 2.5005171, 2.4995382 
4.3758416e+1, 8.371117e+1, 167045.69, -123977.555, 1187.8049, -0.013467378, 0.00962046, 167050.53, 167050.53, 0.0, 2.500507, 2.499543 
4.3758324e+1, 8.621071e+1, 161206.1, -126759.9, 864.4603, -0.015348808, 0.008772086, 161208.69, 161208.69, 0.0, 2.5004969, 2.499543 
4.3758237e+1, 8.871024e+1, 155362.3, -129544.26, 541.8213, -0.017240074, 0.0079223495, 155363.33, 155363.33, 0.0, 2.5004869, 2.4995432 
4.3758142e+1, 9.120987e+1, 195757.75, -45129.207, 694.1448, -0.020298015, 0.009197873, 195759.75, 195759.75, 0.0, 2.5004864, 2.4996884 
4.375803e+1, 9.370958e+1, 201968.67, -39515.85, -801.78796, -0.023644833, 0.011482633, 201971.33, 201971.33, 0.0, 2.5004942, 2.499694 
4.3757915e+1, 9.620929e+1, 206547.88, -37272.664, -879.7753, -0.02699227, 0.013738106, 206551.05, 206551.05, 0.0, 2.500502, 2.4996943 
4.3757805e+1, 9.8709e+1, 211120.86, -35032.477, -957.84564, -0.030346196, 0.015972953, 211124.6, 211124.6, 0.0, 2.50051, 2.4996943 
4.6260625e+1, 1.24912895e+0, -181179.3, -867154.7, -1230.9395, 0.021955352, -0.000054549335, -181177.08, -181177.08, 0.0, 2.5005283, 2.4982576 
4.6260607e+1, 3.7473866e+0, -179356.92, -866489.8, -942.6518, 0.021657605, -0.0001622816, -179355.63, -179355.63, 0.0, 2.5005317, 2.4982572 
4.6260598e+1, 6.2456447e+0, -177398.33, -865541.0, -608.84576, 0.021358768, -0.00026819142, -177397.8, -177397.8, 0.0, 2.500535, 2.4982572 
4.6260586e+1, 8.7439024e+0, -175440.31, -864592.5, -274.82715, 0.02105884, -0.0003722789, -175440.2, -175440.2, 0.0, 2.5005383, 2.4982572 
4.6260563e+1, 1.1242243e+1, -132904.63, -777090.75, -2105.838, 0.020646742, 0.0003168696, -132897.73, -132897.73, 0.0, 2.5005393, 2.4984066 
4.6260536e+1, 1.3740663e+1, -133529.89, -776966.8, -1691.5298, 0.020198625, 0.001412813, -133525.45, -133525.45, 0.0, 2.5005376, 2.4984076 
4.6260506e+1, 1.6239083e+1, -134411.28, -777374.25, -1223.1963, 0.019749956, 0.0025135328, -134408.95, -134408.95, 0.0, 2.5005362, 2.4984078 
4.6260476e+1, 1.8737502e+1, -135293.1, -777781.94, -754.2838, 0.019300634, 0.0036195007, -135292.2, -135292.2, 0.0, 2.5005348, 2.4984078 
4.626045e+1, 2.123599e+1, -90411.32, -683885.25, -1577.7467, 0.019113332, 0.0035670088, -90407.125, -90407.125, 0.0, 2.500534, 2.4985693 
4.6260414e+1, 2.3734544e+1, -89804.86, -682865.8, -1403.7034, 0.019173, 0.0017663138, -89801.53, -89801.53, 0.0, 2.5005343, 2.4985707 
4.6260384e+1, 2.6233098e+1, -89636.48, -682755.7, -1142.0902, 0.01923063, -0.000028719684, -89634.27, -89634.27, 0.0, 2.5005345, 2.498571 
4.6260348e+1, 2.873165e+1, -89468.83, -682645.9, -879.6821, 0.01928627, -0.0018166893, -89467.52, -89467.52, 0.0, 2.5005348, 2.498571 
4.6260312e+1, 3.1230298e+1, -48532.063, -597874.56, -356.6181, 0.018500067, -0.0016844944, -48531.83, -48531.83, 0.0, 2.500535, 2.498716 
4.6260262e+1, 3.3729032e+1, -47736.945, -596663.3, -217.13013, 0.016811721, -0.0002500249, -47736.86, -47736.86, 0.0, 2.5005355, 2.498718 
4.626021e+1, 3.622776e+1, -47437.69, -596481.3, 34.20374, 0.015119872, 0.0011901393, -47437.69, -47437.69, 0.0, 2.500536, 2.498718 
4.6260163e+1, 3.8726494e+1, -47139.313, -596299.7, 286.27228, 0.013424693, 0.002638234, -47139.164, -47139.164, 0.0, 2.5005364, 2.4987183 
4.6260116e+1, 4.1225314e+1, -4354.3857, -505766.53, 40.908638, 0.012205021, 0.004984445, -4354.383, -4354.383, 0.0, 2.5005348, 2.4988744 
4.626007e+1, 4.3724215e+1, -6051.8228, -505589.4, 348.79306, 0.011385923, 0.0074165207, -6051.579, -6051.579, 0.0, 2.5005307, 2.4988766 
4.6260026e+1, 4.6223113e+1, -8348.008, -506654.63, 852.59393, 0.010561784, 0.009854846, -8346.549, -8346.549, 0.0, 2.5005267, 2.4988766 
4.6259978e+1, 4.8722017e+1, -10645.356, -507720.4, 1357.1523, 0.009733026, 0.012303117, -10641.651, -10641.651, 0.0, 2.5005226, 2.4988768 
4.6259925e+1, 5.1220983e+1, 36468.57, -409517.75, 661.22595, 0.008363794, 0.012950187, 36469.55, 36469.55, 0.0, 2.5005224, 2.4990454 
4.6259862e+1, 5.372001e+1, 38964.887, -407153.75, 867.06415, 0.0065240813, 0.010870956, 38966.57, 38966.57, 0.0, 2.5005255, 2.499048 
4.6259797e+1, 5.6219035e+1, 40752.59, -406258.1, 1386.4899, 0.004676926, 0.008794921, 40756.89, 40756.89, 0.0, 2.5005283, 2.499048 
4.6259728e+1, 5.871806e+1, 42538.953, -405363.06, 1906.6338, 0.0028218636, 0.006726756, 42547.07, 42547.07, 0.0, 2.5005314, 2.4990482 
4.625966e+1, 6.121719e+1, 87190.8, -310983.6, 233.66002, 0.0010137308, 0.0063216197, 87190.93, 87190.93, 0.0, 2.5005298, 2.499211 
4.625958e+1, 6.3716406e+1, 83689.695, -311372.28, -61.80829, -0.0006574955, 0.006747605, 83689.7, 83689.7, 0.0, 2.5005224, 2.499214 
4.6259496e+1, 6.621562e+1, 79390.58, -313411.4, 84.45975, -0.0023352844, 0.0071755527, 79390.59, 79390.59, 0.0, 2.500515, 2.499214 
4.6259415e+1, 6.8714833e+1, 75089.586, -315451.47, 231.42702, -0.0040201074, 0.0076106335, 75089.72, 75089.72, 0.0, 2.5005076, 2.499214 
4.6259344e+1, 7.121414e+1, 118108.11, -224970.52, 1002.15784, -0.0054380163, 0.008897208, 118111.03, 118111.03, 0.0, 2.5005064, 2.4993699 
4.6259266e+1, 7.3713523e+1, 121508.96, -221825.31, 1008.4742, -0.0065214033, 0.010118785, 121511.92, 121511.92, 0.0, 2.5005105, 2.4993732 
4.625919e+1, 7.6212907e+1, 123977.14, -220607.3, 1606.1749, -0.0076162484, 0.011338019, 123984.625, 123984.625, 0.0, 2.5005147, 2.4993734 
4.6259114e+1, 7.8712296e+1, 126442.63, -219390.58, 2203.9824, -0.008722911, 0.012561116, 126456.68, 126456.68, 0.0, 2.500519, 2.4993734 
4.625903e+1, 8.121175e+1, 171040.1, -124947.625, 828.8424, -0.010504484, 0.013301433, 171042.4, 171042.4, 0.0, 2.5005171, 2.4995365 
4.6258923e+1, 8.371128e+1, 166416.48, -125223.83, -338.5597, -0.013094187, 0.012342941, 166416.89, 166416.89, 0.0, 2.5005069, 2.4995408 
4.6258816e+1, 8.621082e+1, 160579.16, -128002.85, -657.0088, -0.015707845, 0.011375421, 160580.66, 160580.66, 0.0, 2.5004969, 2.499541 
4.625871e+1, 8.8710344e+1, 154737.63, -130783.88, -974.7524, -0.018344937, 0.010407344, 154740.95, 154740.95, 0.0, 2.5004869, 2.499541 
4.625861e+1, 9.120996e+1, 195772.23, -45108.37, 1859.9108, -0.021673799, 0.011330067, 195786.6, 195786.6, 0.0, 2.5004864, 2.4996884 
4.6258503e+1, 9.3709666e+1, 201843.73, -39791.65, 374.0071, -0.025493057, 0.013234183, 201844.31, 201844.31, 0.0, 2.5004942, 2.4996936 
4.6258393e+1, 9.620937e+1, 206428.34, -37543.203, 303.38458, -0.029338047, 0.01510966, 206428.72, 206428.72, 0.0, 2.500502, 2.4996939 
4.6258286e+1, 9.870908e+1, 211006.72, -35297.758, 232.67894, -0.03320956, 0.016963644, 211006.94, 211006.94, 0.0, 2.50051, 2.4996939 
4.8761195e+1, 1.249133e+0, -182296.42, -866690.56, -732.1617, 0.026270008, 0.00023748787, -182295.64, -182295.64, 0.0, 2.5005252, 2.4982598 
4.8761165e+1, 3.747399e+0, -180447.2, -866008.6, -427.47223, 0.023842603, 0.0007141431, -180446.94, -180446.94, 0.0, 2.5005286, 2.4982593 
4.8761135e+1, 6.2456644e+0, -178481.36, -865055.94, -87.41029, 0.021411644, 0.0011930383, -178481.36, -178481.36, 0.0, 2.500532, 2.4982593 
4.8761106e+1, 8.743931e+0, -176533.53, -864112.0, 252.63522, 0.01897713, 0.0016741733, -176533.44, -176533.44, 0.0, 2.5005352, 2.4982593 
4.876108e+1, 1.1242273e+1, -133753.58, -776097.06, -2322.4976, 0.01814871, 0.0022934305, -133745.19, -133745.19, 0.0, 2.5005362, 2.4984097 
4.8761064e+1, 1.3740689e+1, -134370.34, -775975.1, -1895.0896, 0.019021194, 0.0026557061, -134364.75, -134364.75, 0.0, 2.5005348, 2.4984107 
4.8761043e+1, 1.6239104e+1, -135251.25, -776381.06, -1422.1273, 0.019892134, 0.003023533, -135248.1, -135248.1, 0.0, 2.5005333, 2.498411 
4.8761025e+1, 1.873752e+1, -136144.56, -776793.0, -949.25726, 0.020761412, 0.0033973872, -136143.16, -136143.16, 0.0, 2.5005317, 2.498411 
4.8761e+1, 2.123601e+1, -91654.42, -683706.75, -1528.5403, 0.021153288, 0.0031614283, -91650.48, -91650.48, 0.0, 2.500531, 2.498571 
4.8760968e+1, 2.3734568e+1, -91027.305, -682677.25, -1319.8866, 0.02099197, 0.0017273934, -91024.36, -91024.36, 0.0, 2.5005312, 2.4985726 
4.8760933e+1, 2.6233128e+1, -90848.18, -682560.1, -1051.7439, 0.020826856, 0.00029958237, -90846.31, -90846.31, 0.0, 2.5005314, 2.4985726 
4.87609e+1, 2.8731686e+1, -90679.41, -682448.0, -782.871, 0.020658126, -0.0011205965, -90678.37, -90678.37, 0.0, 2.500532, 2.4985726 
4.8760852e+1, 3.1230336e+1, -49722.023, -597634.25, -258.06924, 0.019258074, -0.00054802035, -49721.902, -49721.902, 0.0, 2.5005322, 2.498718 
4.8760793e+1, 3.3729076e+1, -48974.695, -596516.94, -83.7914, 0.016549261, 0.001446335, -48974.684, -48974.684, 0.0, 2.5005326, 2.4987197 
4.8760736e+1, 3.6227816e+1, -48686.8, -596338.56, 170.2446, 0.0138353165, 0.0034464658, -48686.75, -48686.75, 0.0, 2.500533, 2.4987197 
4.8760673e+1, 3.872656e+1, -48406.297, -596163.7, 424.51343, 0.011116437, 0.005454437, -48405.97, -48405.97, 0.0, 2.5005336, 2.49872 
4.8760632e+1, 4.122538e+1, -5139.601, -504645.4, -530.00287, 0.010206678, 0.007878402, -5139.0386, -5139.0386, 0.0, 2.5005317, 2.4988778 
4.8760596e+1, 4.3724278e+1, -6785.5186, -504460.44, -183.59529, 0.011017924, 0.009862659, -6785.4507, -6785.4507, 0.0, 2.5005279, 2.49888 
4.8760563e+1, 4.6223179e+1, -9035.222, -505501.16, 321.97144, 0.011821277, 0.011852504, -9035.014, -9035.014, 0.0, 2.500524, 2.49888 
4.8760533e+1, 4.872208e+1, -11302.59, -506550.34, 825.5081, 0.012617344, 0.01385179, -11301.214, -11301.214, 0.0, 2.50052, 2.4988801 
4.876048e+1, 5.122105e+1, 35941.16, -408164.9, 1168.3469, 0.0113866655, 0.014501249, 35944.234, 35944.234, 0.0, 2.5005198, 2.499049 
4.87604e+1, 5.3720087e+1, 38458.313, -405869.97, 1391.5299, 0.0080779595, 0.012909787, 38462.67, 38462.67, 0.0, 2.5005229, 2.4990513 
4.8760322e+1, 5.621912e+1, 40300.617, -404944.72, 1912.7625, 0.004758139, 0.0113210855, 40308.832, 40308.832, 0.0, 2.500526, 2.4990516 
4.8760247e+1, 5.8718157e+1, 42125.875, -404027.7, 2434.8066, 0.0014272103, 0.009739672, 42139.164, 42139.164, 0.0, 2.500529, 2.4990516 
4.8760167e+1, 6.1217284e+1, 86251.2, -310903.78, -792.84827, -0.00097193266, 0.009473462, 86252.78, 86252.78, 0.0, 2.5005276, 2.4992123 
4.8760083e+1, 6.3716495e+1, 82844.7, -311360.94, -1118.9164, -0.0023124942, 0.009693972, 82847.875, 82847.875, 0.0, 2.5005205, 2.499215 
4.8759997e+1, 6.621571e+1, 78680.164, -313334.56, -976.2181, -0.0036645264, 0.0099163195, 78682.59, 78682.59, 0.0, 2.5005133, 2.499215 
4.875991e+1, 6.871493e+1, 74474.45, -315328.06, -833.7364, -0.0050285887, 0.010145611, 74476.24, 74476.24, 0.0, 2.500506, 2.499215 
4.8759842e+1, 7.1214235e+1, 118510.82, -222950.31, 1693.7778, -0.0059425016, 0.011377921, 118519.23, 118519.23, 0.0, 2.500505, 2.499374 
4.8759773e+1, 7.3713624e+1, 121994.89, -219841.45, 1679.4949, -0.0064527392, 0.012710238, 122003.14, 122003.14, 0.0, 2.5005095, 2.4993773 
4.8759708e+1, 7.6213014e+1, 124529.445, -218585.84, 2271.7188, -0.0069839805, 0.014039102, 124544.484, 124544.484, 0.0, 2.5005138, 2.4993773 
4.8759642e+1, 7.8712404e+1, 126986.336, -217367.63, 2861.6345, -0.0075358804, 0.015370658, 127010.12, 127010.12, 0.0, 2.500518, 2.4993775 
4.8759556e+1, 8.121186e+1, 170128.69, -126203.18, -590.9536, -0.009392161, 0.016141428, 170129.86, 170129.86, 0.0, 2.5005164, 2.4995346 
4.875943e+1, 8.3711386e+1, 165721.33, -126502.58, -1845.4783, -0.012705133, 0.015061376, 165732.98, 165732.98, 0.0, 2.5005069, 2.4995387 
4.8759308e+1, 8.621091e+1, 160079.81, -129185.08, -2163.7717, -0.0160554, 0.0139726, 160096.0, 160096.0, 0.0, 2.500497, 2.499539 
4.8759183e+1, 8.871044e+1, 154324.33, -131922.47, -2486.7485, -0.01944246, 0.012884102, 154345.92, 154345.92, 0.0, 2.500487, 2.499539 
4.875908e+1, 9.1210055e+1, 196093.61, -44979.16, 3038.985, -0.023024911, 0.013483984, 196131.9, 196131.9, 0.0, 2.5004869, 2.4996884 
4.8758975e+1, 9.3709755e+1, 202116.02, -39876.887, 1568.5741, -0.027321022, 0.015004274, 202126.19, 202126.19, 0.0, 2.500495, 2.4996932 
4.875887e+1, 9.6209455e+1, 206554.63, -37696.094, 1529.7952, -0.031667963, 0.016496092, 206564.2, 206564.2, 0.0, 2.5005026, 2.4996934 
4.8758766e+1, 9.870916e+1, 210734.63, -35639.848, 1494.2958, -0.03606119, 0.01796555, 210743.69, 210743.69, 0.0, 2.5005097, 2.4996934 
5.1261735e+1, 1.249135e+0, -177389.9, -863335.44, -549.7755, 0.02770628, 0.00033682134, -177389.47, -177389.47, 0.0, 2.5005326, 2.4982622 
5.1261705e+1, 3.747405e+0, -177876.0, -863776.2, -261.6398, 0.024765598, 0.0010113723, -177875.9, -177875.9, 0.0, 2.500532, 2.4982617 
5.126167e+1, 6.245675e+0, -178230.56, -863941.94, 51.85858, 0.021829674, 0.001687135, -178230.56, -178230.56, 0.0, 2.5005314, 2.4982617 
5.1261634e+1, 8.7439454e+0, -178586.16, -864108.25, 365.45807, 0.018898513, 0.0023641093, -178585.95, -178585.95, 0.0, 2.5005307, 2.4982617 
5.126161e+1, 1.12422906e+1, -136393.86, -776206.9, -2636.7993, 0.018027728, 0.003053382, -136383.0, -136383.0, 0.0, 2.5005305, 2.4984124 
5.12616e+1, 1.3740708e+1, -136074.2, -775646.94, -2380.5017, 0.019304976, 0.003370698, -136065.33, -136065.33, 0.0, 2.5005307, 2.4984133 
5.126158e+1, 1.6239126e+1, -135998.78, -775592.94, -2089.3862, 0.020584865, 0.0036909953, -135991.97, -135991.97, 0.0, 2.5005307, 2.4984133 
5.126157e+1, 1.8737543e+1, -135924.67, -775539.6, -1797.921, 0.02186729, 0.0040147323, -135919.63, -135919.63, 0.0, 2.5005307, 2.4984136 
5.1261544e+1, 2.1236037e+1, -91052.53, -682466.1, -2284.4111, 0.022288334, 0.0038611966, -91043.7, -91043.7, 0.0, 2.500531, 2.498573 
5.12615e+1, 2.37346e+1, -90363.44, -681428.75, -1963.1028, 0.02174837, 0.0026575527, -90356.92, -90356.92, 0.0, 2.5005314, 2.4985745 
5.1261467e+1, 2.623316e+1, -90098.54, -681268.06, -1616.003, 0.021209747, 0.0014599625, -90094.12, -90094.12, 0.0, 2.500532, 2.4985747 
5.126143e+1, 2.8731725e+1, -89837.99, -681109.44, -1268.5708, 0.0206727, 0.0002698036, -89835.27, -89835.27, 0.0, 2.5005322, 2.4985747 
5.126138e+1, 3.123038e+1, -49218.62, -596168.56, -740.6859, 0.019136954, 0.0010263482, -49217.62, -49217.62, 0.0, 2.5005317, 2.4987206 
5.1261324e+1, 3.3729127e+1, -49574.527, -595626.9, -251.53728, 0.016492696, 0.00317688, -49574.414, -49574.414, 0.0, 2.5005302, 2.4987223 
5.1261264e+1, 3.622787e+1, -50350.934, -595958.06, 280.6384, 0.013848723, 0.005334971, -50350.79, -50350.79, 0.0, 2.5005288, 2.4987223 
5.1261204e+1, 3.8726616e+1, -51130.863, -596290.94, 813.76794, 0.011205356, 0.00750263, -51129.65, -51129.65, 0.0, 2.5005276, 2.4987226 
5.1261157e+1, 4.1225436e+1, -7521.629, -504578.28, -423.83838, 0.010346129, 0.009923652, -7521.267, -7521.267, 0.0, 2.5005264, 2.4988804 
5.126112e+1, 4.3724337e+1, -7507.406, -503645.25, -282.19897, 0.011177964, 0.011772303, -7507.245, -7507.245, 0.0, 2.5005252, 2.4988825 
5.126109e+1, 4.622324e+1, -8048.6846, -503864.8, -13.750104, 0.012011739, 0.013629277, -8048.684, -8048.684, 0.0, 2.5005243, 2.4988825 
5.126105e+1, 4.8722142e+1, -8592.249, -504085.5, 255.78426, 0.012848102, 0.015498285, -8592.117, -8592.117, 0.0, 2.5005233, 2.4988828 
5.1260996e+1, 5.1221114e+1, 38004.0, -405328.53, 878.00793, 0.011607137, 0.016236503, 38005.74, 38005.74, 0.0, 2.5005212, 2.4990532 
5.126092e+1, 5.372016e+1, 36587.82, -404983.72, 1270.1581, 0.008155746, 0.014956684, 36591.473, 36591.473, 0.0, 2.5005178, 2.4990554 
5.1260835e+1, 5.62192e+1, 34554.113, -405920.8, 1945.4498, 0.0047062854, 0.013682822, 34562.707, 34562.707, 0.0, 2.5005143, 2.4990556 
5.1260763e+1, 5.871824e+1, 32518.693, -406858.72, 2621.3794, 0.001259209, 0.012419448, 32534.332, 32534.332, 0.0, 2.5005107, 2.4990556 
5.126068e+1, 6.1217374e+1, 76746.98, -314696.34, -752.6989, -0.0011649334, 0.012301592, 76748.42, 76748.42, 0.0, 2.5005105, 2.499214 
5.126059e+1, 6.371659e+1, 78771.58, -312638.78, -931.013, -0.0024443658, 0.012518826, 78773.8, 78773.8, 0.0, 2.5005126, 2.4992163 
5.126051e+1, 6.6215813e+1, 80137.74, -311946.66, -620.97516, -0.0037202595, 0.012739871, 80138.73, 80138.73, 0.0, 2.500515, 2.4992166 
5.1260424e+1, 6.8715024e+1, 81512.766, -311250.25, -310.08594, -0.004993142, 0.012969703, 81513.016, 81513.016, 0.0, 2.5005174, 2.4992166 
5.126035e+1, 7.121433e+1, 126475.42, -217618.5, 2629.895, -0.0058861836, 0.014181733, 126495.516, 126495.516, 0.0, 2.5005171, 2.4993773 
5.126028e+1, 7.371372e+1, 124950.63, -217004.89, 2339.009, -0.0065765474, 0.015466195, 124966.625, 124966.625, 0.0, 2.500513, 2.4993804 
5.1260215e+1, 7.621311e+1, 122594.79, -218107.56, 2687.7393, -0.0072621815, 0.016746858, 122615.99, 122615.99, 0.0, 2.500509, 2.4993804 
5.126015e+1, 7.871251e+1, 120243.68, -219207.94, 3036.253, -0.007941862, 0.018029902, 120270.836, 120270.836, 0.0, 2.500505, 2.4993806 
5.126006e+1, 8.1211966e+1, 164497.28, -129207.695, -474.5618, -0.009861172, 0.018939989, 164498.06, 164498.06, 0.0, 2.5005069, 2.4995341 
5.1259935e+1, 8.3711505e+1, 169698.81, -125010.305, -1468.9214, -0.013031266, 0.018170735, 169706.14, 169706.14, 0.0, 2.500514, 2.4995377 
5.125981e+1, 8.621103e+1, 173843.4, -122991.48, -1461.2563, -0.01618154, 0.017397124, 173850.6, 173850.6, 0.0, 2.5005212, 2.499538 
5.125969e+1, 8.871056e+1, 177987.97, -120972.66, -1455.4353, -0.019312331, 0.01662834, 177995.06, 177995.06, 0.0, 2.5005283, 2.499538 
5.125959e+1, 9.121017e+1, 219320.58, -35102.266, 4012.8135, -0.022706725, 0.017160676, 219383.84, 219383.84, 0.0, 2.5005283, 2.4996853 
5.1259476e+1, 9.370986e+1, 215285.66, -35030.047, 1548.0963, -0.027720382, 0.0182415, 215295.22, 215295.22, 0.0, 2.5005193, 2.4996898 
5.125936e+1, 9.6209556e+1, 209985.06, -37537.855, 535.7016, -0.032724995, 0.019294834, 209986.23, 209986.23, 0.0, 2.50051, 2.49969 
5.125925e+1, 9.870925e+1, 204695.5, -40040.35, -481.2188, -0.037709836, 0.020326655, 204696.45, 204696.45, 0.0, 2.500501, 2.49969 
5.3762245e+1, 1.2491351e+0, -176451.8, -861966.3, -657.8768, 0.025373528, 0.0002512209, -176451.17, -176451.17, 0.0, 2.5005333, 2.498264 
5.376222e+1, 3.7474054e+0, -176940.27, -862405.0, -362.15842, 0.023559919, 0.00075477926, -176940.08, -176940.08, 0.0, 2.5005326, 2.4982636 
5.37622e+1, 6.245676e+0, -177297.98, -862571.2, -51.895336, 0.021748535, 0.0012598269, -177297.98, -177297.98, 0.0, 2.500532, 2.4982636 
5.3762174e+1, 8.743946e+0, -177656.27, -862737.6, 258.568, 0.019939378, 0.0017663637, -177656.17, -177656.17, 0.0, 2.5005314, 2.4982636 
5.3762156e+1, 1.1242295e+1, -135511.16, -774912.4, -2657.2153, 0.019411512, 0.002672691, -135500.11, -135500.11, 0.0, 2.5005312, 2.4984145 
5.376213e+1, 1.3740721e+1, -135216.5, -774379.5, -2387.427, 0.020223401, 0.003625885, -135207.6, -135207.6, 0.0, 2.5005312, 2.4984152 
5.3762114e+1, 1.6239147e+1, -135155.44, -774331.06, -2097.801, 0.02103636, 0.004582866, -135148.55, -135148.55, 0.0, 2.5005312, 2.4984152 
5.3762096e+1, 1.8737574e+1, -135094.88, -774282.9, -1807.574, 0.021850316, 0.0055440553, -135089.75, -135089.75, 0.0, 2.5005314, 2.4984155 
5.3762066e+1, 2.1236072e+1, -90109.71, -680951.7, -2288.7253, 0.021792449, 0.0057455166, -90100.84, -90100.84, 0.0, 2.5005314, 2.4985754 
5.3762025e+1, 2.3734638e+1, -89461.62, -679974.25, -1931.903, 0.020777348, 0.0046318662, -89455.3, -89455.3, 0.0, 2.500532, 2.4985769 
5.376198e+1, 2.6233205e+1, -89208.84, -679817.6, -1584.5126, 0.01976184, 0.003524754, -89204.59, -89204.59, 0.0, 2.5005322, 2.4985769 
5.376194e+1, 2.8731772e+1, -88956.67, -679661.3, -1236.5516, 0.018746123, 0.0024255093, -88954.086, -88954.086, 0.0, 2.5005326, 2.498577 
5.37619e+1, 3.123043e+1, -48007.03, -594001.75, -1025.9148, 0.01758506, 0.0031133553, -48005.105, -48005.105, 0.0, 2.5005322, 2.4987242 
5.3761846e+1, 3.3729175e+1, -48380.344, -593481.8, -491.70294, 0.016118502, 0.0050225114, -48379.9, -48379.9, 0.0, 2.5005307, 2.498726 
5.37618e+1, 3.622792e+1, -49164.098, -593814.44, 43.016888, 0.014650151, 0.0069395294, -49164.094, -49164.094, 0.0, 2.5005293, 2.498726 
5.376175e+1, 3.8726667e+1, -49948.535, -594147.44, 578.4449, 0.013180567, 0.008866468, -49947.918, -49947.918, 0.0, 2.5005279, 2.498726 
5.37617e+1, 4.122549e+1, -6779.3516, -503359.72, -630.8838, 0.012163609, 0.011203723, -6778.5503, -6778.5503, 0.0, 2.5005267, 2.4988823 
5.376165e+1, 4.3724397e+1, -6821.46, -502534.75, -457.2875, 0.011491774, 0.0132187735, -6821.038, -6821.038, 0.0, 2.5005257, 2.4988842 
5.37616e+1, 4.62233e+1, -7366.5117, -502753.03, -187.97594, 0.010819175, 0.015242099, -7366.4404, -7366.4404, 0.0, 2.5005248, 2.4988842 
5.376155e+1, 4.8722208e+1, -7912.518, -502971.78, 82.11042, 0.010146398, 0.017277, -7912.5044, -7912.5044, 0.0, 2.5005238, 2.4988844 
5.376149e+1, 5.1221186e+1, 39423.355, -402642.97, 292.22955, 0.008771788, 0.018178683, 39423.547, 39423.547, 0.0, 2.5005217, 2.4990575 
5.3761417e+1, 5.372023e+1, 37983.105, -402334.88, 701.08234, 0.0065314793, 0.017031401, 37984.223, 37984.223, 0.0, 2.500518, 2.49906 
5.376135e+1, 5.621928e+1, 35940.86, -403274.75, 1377.517, 0.0042903563, 0.01588923, 35945.18, 35945.18, 0.0, 2.5005145, 2.49906 
5.3761274e+1, 5.8718324e+1, 33897.652, -404215.1, 2054.3997, 0.002049221, 0.014756855, 33907.285, 33907.285, 0.0, 2.500511, 2.4990602 
5.37612e+1, 6.1217463e+1, 77498.2, -313356.44, -432.81964, 0.00018576723, 0.014785331, 77498.68, 77498.68, 0.0, 2.5005107, 2.499216 
5.376112e+1, 6.3716686e+1, 79459.59, -311417.8, -621.33527, -0.0012441247, 0.015193729, 79460.58, 79460.58, 0.0, 2.5005128, 2.4992185 
5.376103e+1, 6.62159e+1, 80817.414, -310727.44, -313.30115, -0.002673723, 0.015605994, 80817.664, 80817.664, 0.0, 2.5005152, 2.4992185 
5.3760946e+1, 6.8715125e+1, 82174.305, -310037.5, -4.774375, -0.0041032825, 0.016026946, 82174.305, 82174.305, 0.0, 2.5005176, 2.4992185 
5.376087e+1, 7.121444e+1, 127239.82, -216158.64, 2001.9159, -0.00547968, 0.017231202, 127251.484, 127251.484, 0.0, 2.5005171, 2.4993799 
5.376079e+1, 7.371383e+1, 125621.836, -215667.45, 1661.1362, -0.007109734, 0.018286956, 125629.914, 125629.914, 0.0, 2.500513, 2.4993827 
5.376071e+1, 7.6213217e+1, 123221.03, -216792.8, 2009.6815, -0.008741025, 0.019339273, 123232.914, 123232.914, 0.0, 2.500509, 2.4993827 
5.376063e+1, 7.8712606e+1, 120818.84, -217918.81, 2358.4111, -0.010371496, 0.020394461, 120835.266, 120835.266, 0.0, 2.5005047, 2.4993827 
5.3760535e+1, 8.1212074e+1, 164496.4, -129068.0, 557.9312, -0.012387373, 0.021534828, 164497.45, 164497.45, 0.0, 2.5005069, 2.4995344 
5.3760433e+1, 8.371162e+1, 169568.94, -125045.664, -472.94424, -0.014514531, 0.021492578, 169569.7, 169569.7, 0.0, 2.5005138, 2.499538 
5.3760326e+1, 8.621115e+1, 173658.83, -123051.32, -463.2153, -0.016628945, 0.021445338, 173659.56, 173659.56, 0.0, 2.500521, 2.499538 
5.376022e+1, 8.8710684e+1, 177746.03, -121058.28, -453.5733, -0.018732764, 0.021402111, 177746.72, 177746.72, 0.0, 2.5005279, 2.499538 
5.3760123e+1, 9.1210294e+1, 217332.77, -38782.375, 2640.0693, -0.021679537, 0.022113536, 217359.98, 217359.98, 0.0, 2.5005279, 2.4996793 
5.375999e+1, 9.3709975e+1, 213169.84, -38950.195, 118.256775, -0.02777115, 0.022715358, 213169.9, 213169.9, 0.0, 2.5005186, 2.4996834 
5.3759855e+1, 9.6209663e+1, 207872.64, -41454.15, -868.6058, -0.033874173, 0.023287376, 207875.66, 207875.66, 0.0, 2.5005095, 2.4996836 
5.375973e+1, 9.8709345e+1, 202570.45, -43960.49, -1855.8037, -0.039970998, 0.023836384, 202584.42, 202584.42, 0.0, 2.5005004, 2.4996836 
5.6262755e+1, 1.24913536e+0, -175878.55, -860774.8, -763.74536, 0.023040269, 0.00016451416, -175877.69, -175877.69, 0.0, 2.5005333, 2.4982662 
5.6262743e+1, 3.747406e+0, -176367.02, -861212.5, -456.56174, 0.022353042, 0.0004948674, -176366.72, -176366.72, 0.0, 2.5005326, 2.4982657 
5.626273e+1, 6.245677e+0, -176724.66, -861377.5, -145.39273, 0.021665506, 0.0008269877, -176724.63, -176724.63, 0.0, 2.500532, 2.4982657 
5.626272e+1, 8.743948e+0, -177082.86, -861542.8, 165.97653, 0.020977661, 0.001160875, -177082.81, -177082.81, 0.0, 2.5005314, 2.4982657 
5.62627e+1, 1.1242301e+1, -134982.25, -773799.9, -2662.1187, 0.020797556, 0.0022866616, -134971.16, -134971.16, 0.0, 2.500531, 2.4984164 
5.626268e+1, 1.3740735e+1, -134694.13, -773277.44, -2374.1223, 0.021143498, 0.0038721259, -134685.3, -134685.3, 0.0, 2.5005312, 2.4984171 
5.6262654e+1, 1.623917e+1, -134634.11, -773228.2, -2083.4395, 0.02148892, 0.0054621715, -134627.31, -134627.31, 0.0, 2.5005312, 2.4984171 
5.626263e+1, 1.8737604e+1, -134574.6, -773179.25, -1792.1559, 0.021833804, 0.0070571923, -134569.56, -134569.56, 0.0, 2.5005312, 2.4984174 
5.6262594e+1, 2.1236107e+1, -89474.125, -679605.44, -2266.0342, 0.021296764, 0.0076209293, -89465.42, -89465.42, 0.0, 2.5005314, 2.4985776 
5.6262547e+1, 2.3734677e+1, -88842.234, -678659.0, -1872.6907, 0.019805918, 0.006594118, -88836.29, -88836.29, 0.0, 2.500532, 2.498579 
5.62625e+1, 2.6233247e+1, -88590.04, -678500.94, -1524.3032, 0.018312912, 0.005574282, -88586.1, -88586.1, 0.0, 2.5005322, 2.4985793 
5.626246e+1, 2.8731817e+1, -88338.45, -678343.1, -1175.3453, 0.016817909, 0.00456275, -88336.11, -88336.11, 0.0, 2.5005326, 2.4985793 
5.6262416e+1, 3.1230476e+1, -47066.125, -591988.7, -1286.2832, 0.016036415, 0.0051874216, -47063.09, -47063.09, 0.0, 2.500532, 2.4987278 
5.6262374e+1, 3.3729222e+1, -47436.813, -591460.06, -703.9082, 0.01574692, 0.006852618, -47435.902, -47435.902, 0.0, 2.5005305, 2.4987292 
5.626234e+1, 3.622797e+1, -48221.203, -591790.9, -168.17981, 0.01545352, 0.008525931, -48221.152, -48221.152, 0.0, 2.5005293, 2.4987295 
5.6262296e+1, 3.8726714e+1, -49006.28, -592122.06, 368.2567, 0.015157044, 0.0102095185, -49006.03, -49006.03, 0.0, 2.5005279, 2.4987295 
5.626224e+1, 4.1225544e+1, -6284.399, -502280.06, -810.0276, 0.013986032, 0.012470977, -6283.076, -6283.076, 0.0, 2.5005267, 2.4988842 
5.6262183e+1, 4.3724453e+1, -6367.514, -501538.1, -607.22565, 0.011809189, 0.014649907, -6366.7695, -6366.7695, 0.0, 2.5005257, 2.4988859 
5.626211e+1, 4.6223363e+1, -6912.1147, -501753.1, -336.62198, 0.009628845, 0.016836967, -6911.8857, -6911.8857, 0.0, 2.5005248, 2.498886 
5.626204e+1, 4.8722267e+1, -7457.6704, -501968.53, -65.24348, 0.0074455556, 0.019035146, -7457.6616, -7457.6616, 0.0, 2.5005236, 2.498886 
5.626198e+1, 5.122125e+1, 40599.066, -400112.7, -271.1764, 0.005937282, 0.02011141, 40599.234, 40599.234, 0.0, 2.5005214, 2.499062 
5.626192e+1, 5.372031e+1, 39164.66, -399790.88, 159.58636, 0.004907995, 0.019093959, 39164.72, 39164.72, 0.0, 2.5005178, 2.4990642 
5.6261855e+1, 5.6219363e+1, 37122.43, -400729.44, 837.3486, 0.0038751482, 0.018080633, 37124.03, 37124.03, 0.0, 2.5005143, 2.4990644 
5.6261796e+1, 5.8718413e+1, 35079.24, -401668.44, 1515.5588, 0.002839891, 0.017076412, 35084.496, 35084.496, 0.0, 2.500511, 2.4990644 
5.6261724e+1, 6.121755e+1, 78045.305, -312140.34, -82.84104, 0.001542786, 0.017259372, 78045.33, 78045.33, 0.0, 2.5005105, 2.4992182 
5.626164e+1, 6.3716775e+1, 79964.836, -310286.28, -280.90204, -0.00003779405, 0.017857097, 79965.04, 79965.04, 0.0, 2.5005128, 2.4992204 
5.626156e+1, 6.6216004e+1, 81322.445, -309593.75, 28.366781, -0.0016213974, 0.018458625, 81322.445, 81322.445, 0.0, 2.5005152, 2.4992204 
5.626147e+1, 6.871523e+1, 82679.125, -308901.63, 338.12823, -0.0032079336, 0.019068737, 82679.42, 82679.42, 0.0, 2.5005174, 2.4992206 
5.6261384e+1, 7.121454e+1, 127860.92, -214796.9, 1418.9241, -0.0050736615, 0.02027612, 127866.8, 127866.8, 0.0, 2.5005171, 2.4993823 
5.6261295e+1, 7.371393e+1, 126211.9, -214370.16, 1026.9111, -0.0076432507, 0.021101678, 126214.99, 126214.99, 0.0, 2.500513, 2.4993849 
5.62612e+1, 7.6213324e+1, 123810.26, -215496.94, 1377.3195, -0.010219952, 0.021923993, 123815.85, 123815.85, 0.0, 2.5005088, 2.4993849 
5.6261104e+1, 7.8712714e+1, 121407.234, -216624.39, 1727.9119, -0.012800972, 0.022749672, 121416.06, 121416.06, 0.0, 2.5005047, 2.499385 
5.6261015e+1, 8.1212187e+1, 164537.55, -128939.81, 1643.9822, -0.01491023, 0.024127325, 164546.77, 164546.77, 0.0, 2.5005069, 2.4995346 
5.626093e+1, 8.371173e+1, 169561.23, -125023.03, 573.05566, -0.015997183, 0.024810027, 169562.34, 169562.34, 0.0, 2.5005138, 2.499538 
5.626084e+1, 8.6211276e+1, 173654.53, -123025.2, 586.24054, -0.017078504, 0.025486983, 173655.69, 173655.69, 0.0, 2.5005207, 2.499538 
5.626075e+1, 8.8710815e+1, 177745.13, -121028.67, 599.3384, -0.018158125, 0.026167141, 177746.33, 177746.33, 0.0, 2.5005279, 2.499538 
5.626066e+1, 9.1210425e+1, 215598.72, -42386.02, 1320.4873, -0.020651264, 0.027091514, 215605.48, 215605.48, 0.0, 2.5005279, 2.4996731 
5.626051e+1, 9.37101e+1, 211355.1, -42727.023, -1272.9875, -0.027824055, 0.027209608, 211361.47, 211361.47, 0.0, 2.5005186, 2.499677 
5.6260353e+1, 9.620977e+1, 206062.34, -45226.582, -2253.729, -0.0350288, 0.02729505, 206082.55, 206082.55, 0.0, 2.5005095, 2.499677 
5.62602e+1, 9.870944e+1, 200764.63, -47728.527, -3234.8057, -0.04224091, 0.027355984, 200806.72, 200806.72, 0.0, 2.5005004, 2.4996772 
5.8763266e+1, 1.2491355e+0, -177135.78, -860467.6, -874.10254, 0.020708565, 0.00007671648, -177134.67, -177134.67, 0.0, 2.50053, 2.4982681 
5.8763266e+1, 3.7474066e+0, -177608.17, -860898.8, -564.1624, 0.021146953, 0.00023168112, -177607.7, -177607.7, 0.0, 2.5005295, 2.4982677 
5.876326e+1, 6.2456775e+0, -177967.9, -861063.7, -261.72433, 0.021582538, 0.00038868852, -177967.8, -177967.8, 0.0, 2.5005288, 2.4982677 
5.876326e+1, 8.743949e+0, -178347.78, -861238.25, 40.143063, 0.022015318, 0.0005477386, -178347.78, -178347.78, 0.0, 2.500528, 2.4982677 
5.876324e+1, 1.1242307e+1, -136291.27, -773584.9, -2709.5144, 0.022187768, 0.0018954079, -136279.75, -136279.75, 0.0, 2.5005279, 2.498418 
5.876321e+1, 1.3740748e+1, -135968.58, -773045.56, -2404.5974, 0.022067048, 0.0041095493, -135959.5, -135959.5, 0.0, 2.500528, 2.498419 
5.876319e+1, 1.6239192e+1, -135887.98, -772985.06, -2116.216, 0.021944236, 0.0063290554, -135880.95, -135880.95, 0.0, 2.500528, 2.498419 
5.876316e+1, 1.8737635e+1, -135822.95, -772932.06, -1827.2633, 0.021819381, 0.008554306, -135817.7, -135817.7, 0.0, 2.5005283, 2.498419 
5.8763117e+1, 2.1236143e+1, -90620.38, -679138.44, -2300.7585, 0.020802839, 0.009487608, -90611.39, -90611.39, 0.0, 2.5005283, 2.49858 
5.876307e+1, 2.3734717e+1, -90004.0, -678205.56, -1882.0481, 0.01883556, 0.008544478, -89997.98, -89997.98, 0.0, 2.5005288, 2.4985814 
5.876302e+1, 2.623329e+1, -89776.445, -678057.56, -1544.7684, 0.016864408, 0.0076087033, -89772.39, -89772.39, 0.0, 2.500529, 2.4985814 
5.876297e+1, 2.8731862e+1, -89563.7, -677916.75, -1208.7524, 0.014889504, 0.006681665, -89561.22, -89561.22, 0.0, 2.5005295, 2.4985816 
5.8762926e+1, 3.1230524e+1, -47980.63, -590893.44, -1660.8314, 0.014492367, 0.007248678, -47975.547, -47975.547, 0.0, 2.5005288, 2.4987311 
5.87629e+1, 3.372927e+1, -48303.48, -590313.44, -1044.0671, 0.015379121, 0.008667333, -48301.47, -48301.47, 0.0, 2.5005274, 2.4987328 
5.876287e+1, 3.622802e+1, -49076.023, -590636.5, -527.2463, 0.016259871, 0.010094301, -49075.51, -49075.51, 0.0, 2.500526, 2.4987328 
5.876284e+1, 3.8726768e+1, -49871.813, -590970.75, -12.371195, 0.017135754, 0.011531889, -49871.813, -49871.813, 0.0, 2.5005245, 2.498733 
5.876279e+1, 4.1225597e+1, -7586.4033, -502086.3, -1180.9076, 0.015814293, 0.013725521, -7583.583, -7583.583, 0.0, 2.5005236, 2.498886 
5.8762705e+1, 4.372451e+1, -7643.489, -501377.5, -978.46045, 0.012131024, 0.016065815, -7641.55, -7641.55, 0.0, 2.5005226, 2.4988878 
5.876262e+1, 4.622342e+1, -8153.243, -501572.63, -737.3809, 0.008441531, 0.018414004, -8152.141, -8152.141, 0.0, 2.5005217, 2.4988878 
5.876254e+1, 4.8722333e+1, -8682.233, -501777.03, -497.9557, 0.004746372, 0.020772848, -8681.73, -8681.73, 0.0, 2.5005207, 2.498888 
5.876247e+1, 5.1221323e+1, 40126.95, -398414.66, -1154.5718, 0.003104356, 0.022034783, 40129.99, 40129.99, 0.0, 2.5005186, 2.4990664 
5.876242e+1, 5.372038e+1, 38809.867, -397989.4, -724.7334, 0.0032859063, 0.021144412, 38811.07, 38811.07, 0.0, 2.5005152, 2.4990687 
5.8762366e+1, 5.6219435e+1, 36832.78, -398895.28, -75.6479, 0.0034612103, 0.020257065, 36832.797, 36832.797, 0.0, 2.5005116, 2.4990687 
5.876231e+1, 5.8718497e+1, 34827.465, -399814.78, 571.11035, 0.0036317667, 0.019378152, 34828.215, 34828.215, 0.0, 2.5005083, 2.499069 
5.8762246e+1, 6.121764e+1, 77225.18, -311608.78, -159.84544, 0.0029066568, 0.019723723, 77225.24, 77225.24, 0.0, 2.500508, 2.4992204 
5.876216e+1, 6.371687e+1, 79247.52, -309745.47, -380.8506, 0.0011751275, 0.020508878, 79247.9, 79247.9, 0.0, 2.5005107, 2.4992223 
5.876208e+1, 6.6216105e+1, 80716.19, -308997.2, -82.56673, -0.00056276, 0.02129766, 80716.2, 80716.2, 0.0, 2.500513, 2.4992225 
5.8761996e+1, 6.8715334e+1, 82158.15, -308261.75, 217.33725, -0.0023064986, 0.022094924, 82158.266, 82158.266, 0.0, 2.5005155, 2.4992225 
5.8761907e+1, 7.1214646e+1, 127572.555, -213902.73, 368.45148, -0.0046674977, 0.023316298, 127572.95, 127572.95, 0.0, 2.5005155, 2.4993844 
5.87618e+1, 7.3714036e+1, 126083.164, -213420.53, -83.12664, -0.008176448, 0.023910133, 126083.19, 126083.19, 0.0, 2.5005116, 2.4993873 
5.876169e+1, 7.6213425e+1, 123824.86, -214479.3, 263.90875, -0.011698206, 0.024500756, 123825.06, 123825.06, 0.0, 2.5005078, 2.4993873 
5.876158e+1, 7.871282e+1, 121527.99, -215556.64, 608.5022, -0.015229329, 0.025095224, 121529.086, 121529.086, 0.0, 2.5005038, 2.4993873 
5.8761495e+1, 8.1212294e+1, 164239.48, -129006.88, 2243.7903, -0.017428631, 0.026717106, 164256.66, 164256.66, 0.0, 2.5005062, 2.4995348 
5.8761424e+1, 8.3711845e+1, 169414.13, -125068.49, 1127.3389, -0.017478019, 0.028122626, 169418.44, 169418.44, 0.0, 2.5005136, 2.499538 
5.876135e+1, 8.6211395e+1, 173657.25, -122996.64, 1143.6565, -0.017528845, 0.029521534, 173661.66, 173661.66, 0.0, 2.5005207, 2.4995382 
5.8761287e+1, 8.8710946e+1, 177859.34, -120944.555, 1157.725, -0.017586784, 0.030922836, 177863.83, 177863.83, 0.0, 2.5005279, 2.4995382 
5.876119e+1, 9.1210556e+1, 214104.67, -45919.53, -462.8108, -0.019619884, 0.032093946, 214105.48, 214105.48, 0.0, 2.5005283, 2.499667 
5.876102e+1, 9.3710214e+1, 209915.69, -46324.47, -3082.4453, -0.027876412, 0.031723563, 209952.77, 209952.77, 0.0, 2.5005193, 2.4996705 
5.876085e+1, 9.620988e+1, 204587.61, -48838.813, -4010.9368, -0.03618523, 0.031317208, 204651.08, 204651.08, 0.0, 2.5005102, 2.4996705 
5.876068e+1, 9.8709536e+1, 199117.3, -51421.66, -4941.095, -0.044514682, 0.030884914, 199214.7, 199214.7, 0.0, 2.5005007, 2.4996707 
6.126379e+1, 1.2491368e+0, -178544.5, -859869.9, -904.6202, 0.020548787, 0.000057663903, -178543.3, -178543.3, 0.0, 2.5005262, 2.498271 
6.126379e+1, 3.7474102e+0, -179505.4, -860542.2, -313.64423, 0.021163687, 0.00017409906, -179505.27, -179505.27, 0.0, 2.5005248, 2.4982705 
6.126379e+1, 6.2456834e+0, -180331.6, -860933.06, 259.6178, 0.021784002, 0.0002920112, -180331.5, -180331.5, 0.0, 2.5005233, 2.4982705 
6.126379e+1, 8.743957e+0, -181158.88, -861324.44, 832.9262, 0.022409735, 0.0004114002, -181157.86, -181157.86, 0.0, 2.500522, 2.4982705 
6.126377e+1, 1.1242319e+1, -138778.53, -773674.5, -1347.7686, 0.02261733, 0.001945645, -138775.67, -138775.67, 0.0, 2.5005224, 2.4984207 
6.1263746e+1, 1.3740769e+1, -137093.33, -772481.4, -822.0244, 0.022338253, 0.0045778444, -137092.25, -137092.25, 0.0, 2.500525, 2.4984214 
6.1263716e+1, 1.6239218e+1, -135632.66, -771754.3, -336.45703, 0.022062877, 0.007215283, -135632.47, -135632.47, 0.0, 2.5005274, 2.4984217 
6.1263686e+1, 1.8737668e+1, -134172.27, -771027.4, 149.57861, 0.02179129, 0.009858333, -134172.23, -134172.23, 0.0, 2.50053, 2.4984217 
6.1263645e+1, 2.1236181e+1, -88843.18, -677358.6, -539.5771, 0.020673623, 0.011027164, -88842.68, -88842.68, 0.0, 2.5005305, 2.4985821 
6.1263597e+1, 2.3734756e+1, -89197.625, -676908.7, -123.476685, 0.01863574, 0.010132908, -89197.59, -89197.59, 0.0, 2.500529, 2.4985833 
6.1263543e+1, 2.623333e+1, -89920.336, -677220.56, 180.14854, 0.016600931, 0.00924451, -89920.28, -89920.28, 0.0, 2.5005279, 2.4985836 
6.126349e+1, 2.873191e+1, -90644.664, -677533.2, 485.08008, 0.014569351, 0.008363354, -90644.26, -90644.26, 0.0, 2.5005267, 2.4985836 
6.126345e+1, 3.1230572e+1, -49772.816, -590711.0, -384.36096, 0.014226723, 0.008932196, -49772.543, -49772.543, 0.0, 2.5005245, 2.4987335 
6.126342e+1, 3.372932e+1, -50872.805, -590503.7, -2.4435806, 0.015257538, 0.010300423, -50872.805, -50872.805, 0.0, 2.500522, 2.4987352 
6.1263394e+1, 3.622807e+1, -52409.605, -591199.56, 234.74498, 0.016291728, 0.011675478, -52409.5, -52409.5, 0.0, 2.5005193, 2.4987352 
6.1263365e+1, 3.8726822e+1, -53946.137, -591895.3, 472.94415, 0.017330522, 0.013059688, -53945.72, -53945.72, 0.0, 2.5005164, 2.4987354 
6.126331e+1, 4.1225654e+1, -11389.737, -502671.84, -360.4314, 0.016014295, 0.015402188, -11389.474, -11389.474, 0.0, 2.5005157, 2.4988887 
6.126323e+1, 4.3724573e+1, -10259.431, -501401.72, 271.46356, 0.012128797, 0.01808915, -10259.28, -10259.28, 0.0, 2.500517, 2.4988904 
6.126314e+1, 4.622349e+1, -9555.035, -501016.1, 912.1399, 0.00824678, 0.02078314, -9553.342, -9553.342, 0.0, 2.5005178, 2.4988906 
6.1263055e+1, 4.8722407e+1, -8854.439, -500632.28, 1552.7354, 0.0043690046, 0.023486966, -8849.537, -8849.537, 0.0, 2.500519, 2.4988906 
6.1262983e+1, 5.12214e+1, 40493.07, -397152.34, 319.77823, 0.0026930359, 0.024833888, 40493.305, 40493.305, 0.0, 2.500518, 2.4990687 
6.126293e+1, 5.3720456e+1, 38949.78, -396844.28, 256.7611, 0.0029949532, 0.023760764, 38949.934, 38949.934, 0.0, 2.5005143, 2.4990711 
6.126287e+1, 5.621952e+1, 36768.402, -397853.34, 403.7819, 0.0033026405, 0.02269407, 36768.777, 36768.777, 0.0, 2.5005105, 2.4990711 
6.1262816e+1, 5.871858e+1, 34586.563, -398862.63, 550.1903, 0.003617599, 0.021639248, 34587.26, 34587.26, 0.0, 2.5005066, 2.4990714 
6.126275e+1, 6.1217725e+1, 76854.34, -310721.4, 594.85583, 0.0029416499, 0.021994138, 76855.26, 76855.26, 0.0, 2.5005064, 2.4992228 
6.126267e+1, 6.371696e+1, 78988.66, -308809.44, 549.0242, 0.0010952771, 0.022937568, 78989.43, 78989.43, 0.0, 2.500509, 2.4992247 
6.126259e+1, 6.6216195e+1, 80588.234, -307999.38, 1026.3306, -0.0007462424, 0.023885062, 80590.945, 80590.945, 0.0, 2.500512, 2.4992247 
6.1262506e+1, 6.871543e+1, 82191.445, -307187.56, 1501.0284, -0.0025820073, 0.024841715, 82197.234, 82197.234, 0.0, 2.5005145, 2.499225 
6.1262417e+1, 7.121475e+1, 127678.164, -213634.88, 739.4644, -0.0048984457, 0.02620883, 127679.766, 127679.766, 0.0, 2.5005155, 2.4993849 
6.1262304e+1, 7.371414e+1, 127327.1, -212635.06, -274.35992, -0.0082983505, 0.026889673, 127327.33, 127327.33, 0.0, 2.5005136, 2.4993875 
6.12622e+1, 7.621353e+1, 126251.02, -213125.23, -435.63855, -0.011694223, 0.027566122, 126251.58, 126251.58, 0.0, 2.5005116, 2.4993877 
6.126209e+1, 7.871292e+1, 125177.28, -213614.27, -594.83057, -0.015082104, 0.028245542, 125178.33, 125178.33, 0.0, 2.50051, 2.4993877 
6.1262e+1, 8.1212395e+1, 167487.3, -126997.01, 2234.4895, -0.01742091, 0.029882582, 167504.25, 167504.25, 0.0, 2.5005112, 2.4995358 
6.1261934e+1, 8.3711946e+1, 170372.78, -124187.46, 1360.9056, -0.017712502, 0.031200072, 170379.08, 170379.08, 0.0, 2.5005147, 2.499539 
6.126187e+1, 8.62115e+1, 172378.86, -123195.51, 1670.3827, -0.017989889, 0.03251116, 172388.31, 172388.31, 0.0, 2.500518, 2.499539 
6.1261797e+1, 8.8711053e+1, 174388.81, -122201.695, 1980.8632, -0.018260129, 0.033825092, 174402.03, 174402.03, 0.0, 2.5005217, 2.4995391 
6.1261714e+1, 9.1210663e+1, 212195.69, -47428.277, 94.04395, -0.019849079, 0.035177626, 212195.73, 212195.73, 0.0, 2.5005257, 2.4996655 
6.126154e+1, 9.371032e+1, 214947.56, -44532.953, -1148.4432, -0.027780753, 0.03508702, 214952.64, 214952.64, 0.0, 2.5005286, 2.499669 
6.1261374e+1, 9.6209985e+1, 216699.19, -43644.8, -627.8173, -0.0357143, 0.034972917, 216700.7, 216700.7, 0.0, 2.5005317, 2.499669 
6.12612e+1, 9.870965e+1, 218403.1, -42779.625, -111.370735, -0.043612033, 0.034846824, 218403.16, 218403.16, 0.0, 2.5005345, 2.4996693 
6.376433e+1, 1.2491391e+0, -177173.19, -857525.0, -1132.8463, 0.021627052, 0.00009995508, -177171.3, -177171.3, 0.0, 2.500527, 2.4982748 
6.376432e+1, 3.7474173e+0, -178144.36, -858208.4, -531.6255, 0.021519005, 0.00030101402, -178143.95, -178143.95, 0.0, 2.5005255, 2.4982743 
6.376431e+1, 6.2456954e+0, -178976.33, -858601.5, 42.24294, 0.021413483, 0.0005036052, -178976.33, -178976.33, 0.0, 2.500524, 2.4982743 
6.37643e+1, 8.743974e+0, -179808.9, -858995.0, 616.25726, 0.021310486, 0.0007077285, -179808.34, -179808.34, 0.0, 2.5005226, 2.4982743 
6.376428e+1, 1.1242341e+1, -137590.67, -771670.06, -1001.9576, 0.021255588, 0.0023855541, -137589.1, -137589.1, 0.0, 2.5005229, 2.4984238 
6.3764256e+1, 1.3740796e+1, -135911.88, -770486.6, -445.1718, 0.021171093, 0.0052216295, -135911.56, -135911.56, 0.0, 2.5005255, 2.4984248 
6.376423e+1, 1.623925e+1, -134452.86, -769759.25, 43.673008, 0.021088589, 0.008062918, -134452.84, -134452.84, 0.0, 2.5005279, 2.4984248 
6.376421e+1, 1.8737705e+1, -132994.36, -769032.2, 532.765, 0.021008179, 0.010909793, -132993.92, -132993.92, 0.0, 2.5005305, 2.4984248 
6.376417e+1, 2.1236221e+1, -88009.125, -676053.75, -757.9517, 0.020194517, 0.0121724615, -88008.14, -88008.14, 0.0, 2.500531, 2.498584 
6.376412e+1, 2.37348e+1, -88391.56, -675639.3, -309.68634, 0.018526847, 0.011288454, -88391.4, -88391.4, 0.0, 2.5005295, 2.4985855 
6.376407e+1, 2.6233378e+1, -89126.17, -675955.8, -3.589812, 0.016860072, 0.010410919, -89126.17, -89126.17, 0.0, 2.5005283, 2.4985855 
6.3764024e+1, 2.8731954e+1, -89861.47, -676272.6, 302.97995, 0.015194479, 0.009541176, -89861.305, -89861.305, 0.0, 2.500527, 2.4985855 
6.3763976e+1, 3.1230623e+1, -49111.164, -589697.9, -816.4472, 0.014618167, 0.010170675, -49109.934, -49109.934, 0.0, 2.500525, 2.498735 
6.376394e+1, 3.3729374e+1, -50219.883, -589510.2, -395.08167, 0.01484872, 0.0116795935, -50219.594, -50219.594, 0.0, 2.5005221, 2.4987366 
6.37639e+1, 3.6228126e+1, -51752.766, -590202.5, -155.66595, 0.015079703, 0.013195772, -51752.723, -51752.723, 0.0, 2.5005195, 2.4987369 
6.376386e+1, 3.8726878e+1, -53286.69, -590895.4, 84.257744, 0.015312196, 0.014721436, -53286.68, -53286.68, 0.0, 2.500517, 2.4987369 
6.3763803e+1, 4.122572e+1, -10021.532, -500184.97, -222.63585, 0.014193796, 0.017423889, -10021.432, -10021.432, 0.0, 2.500516, 2.498893 
6.376373e+1, 4.3724647e+1, -8868.391, -498864.47, 460.54004, 0.011441222, 0.020630622, -8867.958, -8867.958, 0.0, 2.5005171, 2.4988947 
6.376366e+1, 4.6223575e+1, -8164.478, -498476.53, 1102.8508, 0.008688143, 0.023844043, -8161.997, -8161.997, 0.0, 2.5005183, 2.4988947 
6.376359e+1, 4.87225e+1, -7461.599, -498089.06, 1745.5629, 0.0059357276, 0.027067252, -7455.3887, -7455.3887, 0.0, 2.5005195, 2.498895 
6.376352e+1, 5.1221496e+1, 40994.81, -396450.3, -232.93481, 0.004359688, 0.02840815, 40994.934, 40994.934, 0.0, 2.5005183, 2.4990697 
6.376345e+1, 5.372055e+1, 39408.73, -396218.3, -304.49576, 0.0037626307, 0.026864829, 39408.945, 39408.945, 0.0, 2.5005147, 2.499072 
6.376338e+1, 5.621961e+1, 37223.65, -397225.75, -154.7522, 0.0031666388, 0.025327396, 37223.703, 37223.703, 0.0, 2.500511, 2.499072 
6.3763314e+1, 5.8718663e+1, 35036.973, -398233.94, -4.5687118, 0.0025729393, 0.023800924, 35036.973, 35036.973, 0.0, 2.500507, 2.499072 
6.376324e+1, 6.121781e+1, 77870.195, -308885.97, 1002.8987, 0.0014387232, 0.024026578, 77872.8, 77872.8, 0.0, 2.5005066, 2.4992256 
6.376316e+1, 6.3717055e+1, 80012.79, -306927.7, 967.94165, -0.0004670854, 0.025124004, 80015.21, 80015.21, 0.0, 2.5005093, 2.4992278 
6.376308e+1, 6.6216284e+1, 81598.195, -306122.8, 1450.9655, -0.0023722416, 0.026224647, 81603.625, 81603.625, 0.0, 2.5005121, 2.499228 
6.3763e+1, 6.871553e+1, 83182.55, -305318.47, 1934.0824, -0.0042754635, 0.027334027, 83192.17, 83192.17, 0.0, 2.5005147, 2.499228 
6.376292e+1, 7.121484e+1, 127499.01, -214161.55, 525.304, -0.006025552, 0.028995862, 127499.82, 127499.82, 0.0, 2.5005157, 2.499384 
6.376282e+1, 7.371424e+1, 127081.83, -213231.44, -526.556, -0.00828257, 0.030094303, 127082.65, 127082.65, 0.0, 2.5005138, 2.4993865 
6.376272e+1, 7.621364e+1, 125968.29, -213738.73, -677.50555, -0.010540262, 0.031187998, 125969.64, 125969.64, 0.0, 2.500512, 2.4993865 
6.376262e+1, 7.8713036e+1, 124853.45, -214246.67, -828.50134, -0.01279421, 0.032284487, 124855.48, 124855.48, 0.0, 2.5005097, 2.4993865 
6.3762534e+1, 8.121251e+1, 167985.67, -125859.305, 2836.9517, -0.015389169, 0.033736274, 168013.05, 168013.05, 0.0, 2.5005112, 2.4995377 
6.376245e+1, 8.3712053e+1, 170794.97, -123083.0, 1914.2623, -0.017225305, 0.034194794, 170807.44, 170807.44, 0.0, 2.5005145, 2.499541 
6.376237e+1, 8.621159e+1, 172720.3, -122130.74, 2227.1624, -0.019051094, 0.03464564, 172737.13, 172737.13, 0.0, 2.5005178, 2.499541 
6.376229e+1, 8.871114e+1, 174643.55, -121179.484, 2539.799, -0.020874608, 0.03509848, 174665.36, 174665.36, 0.0, 2.500521, 2.499541 
6.376221e+1, 9.121075e+1, 212843.16, -45544.207, 669.3272, -0.022211567, 0.0366008, 212844.89, 212844.89, 0.0, 2.500525, 2.499669 
6.3762057e+1, 9.3710434e+1, 215612.8, -42627.69, -627.33325, -0.0286724, 0.037576985, 215614.31, 215614.31, 0.0, 2.500528, 2.4996727 
6.376191e+1, 9.6210104e+1, 217405.67, -41721.156, -104.73464, -0.035148636, 0.038526475, 217405.72, 217405.72, 0.0, 2.5005312, 2.4996727 
6.376175e+1, 9.8709786e+1, 219193.86, -40816.883, 417.4784, -0.04159797, 0.039461758, 219194.53, 219194.53, 0.0, 2.500534, 2.4996727 
6.626487e+1, 1.2491415e+0, -176118.84, -855334.1, -1360.6593, 0.022705037, 0.0001413372, -176116.11, -176116.11, 0.0, 2.500527, 2.4982786 
6.6264844e+1, 3.7474242e+0, -177095.38, -856028.06, -749.02484, 0.021873726, 0.00042520202, -177094.55, -177094.55, 0.0, 2.5005255, 2.4982781 
6.626483e+1, 6.245707e+0, -177927.42, -856420.8, -174.18483, 0.021042045, 0.0007106547, -177927.38, -177927.38, 0.0, 2.500524, 2.4982781 
6.626481e+1, 8.74399e+0, -178760.08, -856813.8, 400.80106, 0.020209996, 0.000997695, -178759.84, -178759.84, 0.0, 2.5005226, 2.4982781 
6.6264796e+1, 1.1242362e+1, -136705.1, -769821.56, -657.5362, 0.019893758, 0.0028212843, -136704.4, -136704.4, 0.0, 2.5005229, 2.4984272 
6.626477e+1, 1.3740821e+1, -135026.63, -768637.6, -71.3233, 0.020003367, 0.0058586807, -135026.61, -135026.61, 0.0, 2.5005255, 2.4984279 
6.6264755e+1, 1.6239282e+1, -133567.66, -767909.2, 418.37595, 0.02011325, 0.008901257, -133567.38, -133567.38, 0.0, 2.5005279, 2.4984279 
6.626473e+1, 1.8737741e+1, -132109.22, -767181.06, 908.3224, 0.020223528, 0.011949399, -132107.9, -132107.9, 0.0, 2.5005305, 2.498428 
6.62647e+1, 2.1236263e+1, -87465.98, -674902.25, -987.4673, 0.019715667, 0.013308396, -87464.32, -87464.32, 0.0, 2.500531, 2.498586 
6.626465e+1, 2.3734842e+1, -87857.555, -674503.7, -506.77087, 0.018418146, 0.012432276, -87857.12, -87857.12, 0.0, 2.5005295, 2.4985874 
6.6264606e+1, 2.6233423e+1, -88593.36, -674819.7, -199.731, 0.01711934, 0.011563224, -88593.29, -88593.29, 0.0, 2.5005283, 2.4985874 
6.626456e+1, 2.8732002e+1, -89329.836, -675136.0, 107.78212, 0.015819665, 0.010702513, -89329.82, -89329.82, 0.0, 2.500527, 2.4985876 
6.6264504e+1, 3.123067e+1, -48708.12, -588826.4, -1261.882, 0.015009213, 0.0113975275, -48705.176, -48705.176, 0.0, 2.500525, 2.4987366 
6.6264457e+1, 3.3729428e+1, -49818.777, -588640.3, -802.3471, 0.0144386655, 0.013044956, -49817.586, -49817.586, 0.0, 2.5005221, 2.498738 
6.62644e+1, 3.622818e+1, -51352.105, -589331.25, -561.63696, 0.013865609, 0.01470003, -51351.52, -51351.52, 0.0, 2.5005195, 2.4987383 
6.626436e+1, 3.8726938e+1, -52886.477, -590022.6, -320.41876, 0.013290971, 0.016364919, -52886.285, -52886.285, 0.0, 2.500517, 2.4987383 
6.626431e+1, 4.1225785e+1, -8925.881, -497851.5, -104.254944, 0.012375442, 0.019433621, -8925.858, -8925.858, 0.0, 2.500516, 2.4988968 
6.626424e+1, 4.372472e+1, -7736.2173, -496453.9, 631.3739, 0.010753734, 0.023157509, -7735.402, -7735.402, 0.0, 2.5005171, 2.4988987 
6.626418e+1, 4.6223655e+1, -7031.377, -496062.97, 1275.2815, 0.0091274865, 0.026887678, -7028.0513, -7028.0513, 0.0, 2.5005183, 2.498899 
6.626412e+1, 4.8722595e+1, -6327.57, -495672.53, 1919.5902, 0.0074983225, 0.030627584, -6320.04, -6320.04, 0.0, 2.5005195, 2.498899 
6.626405e+1, 5.122159e+1, 41225.246, -395906.47, -805.4975, 0.0060308324, 0.03197248, 41226.73, 41226.73, 0.0, 2.5005183, 2.4990706 
6.626397e+1, 5.372064e+1, 39621.344, -395712.63, -883.05035, 0.0045316042, 0.029956033, 39623.137, 39623.137, 0.0, 2.5005145, 2.4990728 
6.6263884e+1, 5.6219697e+1, 37439.117, -396715.25, -731.06775, 0.0030286405, 0.027944801, 37440.348, 37440.348, 0.0, 2.5005107, 2.499073 
6.6263807e+1, 5.8718747e+1, 35255.297, -397718.63, -578.64514, 0.0015229908, 0.025943622, 35256.07, 35256.07, 0.0, 2.5005069, 2.499073 
6.6263735e+1, 6.12179e+1, 78644.96, -307201.78, 1386.766, -0.00006233032, 0.026050985, 78649.945, 78649.945, 0.0, 2.5005066, 2.4992287 
6.626366e+1, 6.371714e+1, 80835.83, -305143.97, 1362.4528, -0.0020295249, 0.027299907, 80840.63, 80840.63, 0.0, 2.5005093, 2.4992309 
6.6263574e+1, 6.6216385e+1, 82422.83, -304336.7, 1847.3137, -0.0040003685, 0.028551044, 82431.65, 82431.65, 0.0, 2.500512, 2.499231 
6.6263497e+1, 6.871563e+1, 84008.766, -303529.9, 2332.2678, -0.005973097, 0.029810498, 84022.8, 84022.8, 0.0, 2.5005145, 2.499231 
6.626342e+1, 7.121495e+1, 127167.02, -214791.08, 271.57767, -0.0071566007, 0.03177987, 127167.24, 127167.24, 0.0, 2.5005157, 2.499383 
6.626333e+1, 7.3714346e+1, 126744.336, -213872.83, -830.4161, -0.008271417, 0.033294313, 126746.36, 126746.36, 0.0, 2.5005136, 2.4993854 
6.6263235e+1, 7.621375e+1, 125631.49, -214378.9, -979.6813, -0.009391631, 0.034803458, 125634.31, 125634.31, 0.0, 2.5005116, 2.4993856 
6.626315e+1, 7.871315e+1, 124517.35, -214885.63, -1128.9927, -0.010512352, 0.03631523, 124521.11, 124521.11, 0.0, 2.5005097, 2.4993856 
6.626306e+1, 8.1212616e+1, 168505.97, -124742.5, 3373.92, -0.013360883, 0.037587818, 168544.78, 168544.78, 0.0, 2.5005112, 2.4995396 
6.626297e+1, 8.371216e+1, 171337.75, -121921.05, 2395.3733, -0.016740616, 0.037185602, 171357.31, 171357.31, 0.0, 2.5005145, 2.499543 
6.6262877e+1, 8.6211693e+1, 173263.31, -120969.5, 2710.1328, -0.02011391, 0.036774352, 173288.28, 173288.28, 0.0, 2.5005176, 2.499543 
6.626278e+1, 8.871124e+1, 175186.8, -120018.945, 3024.629, -0.023489807, 0.036364228, 175217.8, 175217.8, 0.0, 2.500521, 2.4995432 
6.626271e+1, 9.1210854e+1, 213803.81, -43547.418, 1178.986, -0.0246009, 0.03804476, 213809.22, 213809.22, 0.0, 2.500525, 2.4996724 
6.6262573e+1, 9.371054e+1, 216608.08, -40564.59, -177.10423, -0.029590152, 0.04008463, 216608.2, 216608.2, 0.0, 2.500528, 2.499676 
6.626244e+1, 9.6210235e+1, 218403.22, -39658.445, 349.32086, -0.03460796, 0.042094152, 218403.69, 218403.69, 0.0, 2.5005312, 2.4996762 
6.6262305e+1, 9.8709923e+1, 220193.66, -38754.566, 875.36035, -0.039607804, 0.044087246, 220196.61, 220196.61, 0.0, 2.500534, 2.4996762 
6.87654e+1, 1.2491437e+0, -176746.38, -853955.9, -1597.0454, 0.02378472, 0.00018184143, -176742.61, -176742.61, 0.0, 2.500524, 2.4982822 
6.876538e+1, 3.7474313e+0, -177681.94, -854639.8, -994.04443, 0.022229742, 0.00054675766, -177680.47, -177680.47, 0.0, 2.5005226, 2.4982817 
6.876535e+1, 6.2457186e+0, -178489.33, -855020.2, -436.39597, 0.020671556, 0.00091331895, -178489.05, -178489.05, 0.0, 2.5005212, 2.4982817 
6.876532e+1, 8.744006e+0, -179319.63, -855411.6, 121.58818, 0.019110162, 0.0012815252, -179319.6, -179319.6, 0.0, 2.5005198, 2.4982817 
6.8765295e+1, 1.1242383e+1, -137442.23, -768766.0, -398.41913, 0.01853371, 0.0032531011, -137441.98, -137441.98, 0.0, 2.5005202, 2.4984303 
6.876528e+1, 1.3740848e+1, -135773.92, -767579.1, 194.95258, 0.018836852, 0.0064892727, -135773.86, -135773.86, 0.0, 2.5005226, 2.498431 
6.8765265e+1, 1.6239314e+1, -134342.42, -766862.9, 661.3784, 0.019138573, 0.009730577, -134341.73, -134341.73, 0.0, 2.500525, 2.4984312 
6.876525e+1, 1.8737778e+1, -132922.25, -766152.06, 1127.1449, 0.019439017, 0.0129774185, -132920.25, -132920.25, 0.0, 2.5005274, 2.4984312 
6.8765223e+1, 2.1236303e+1, -88639.625, -674591.9, -1400.1523, 0.019238664, 0.0144352475, -88636.28, -88636.28, 0.0, 2.5005279, 2.498588 
6.876518e+1, 2.3734884e+1, -89021.58, -674189.8, -909.56616, 0.018311115, 0.01356468, -89020.164, -89020.164, 0.0, 2.5005267, 2.4985893 
6.876514e+1, 2.6233467e+1, -89759.625, -674505.8, -626.5168, 0.017380122, 0.012701739, -89758.95, -89758.95, 0.0, 2.5005252, 2.4985893 
6.876509e+1, 2.873205e+1, -90509.71, -674827.6, -343.1007, 0.01644625, 0.01184768, -90509.516, -90509.516, 0.0, 2.500524, 2.4985895 
6.876504e+1, 3.123072e+1, -50008.418, -588793.44, -1995.0776, 0.01540113, 0.0126130665, -50001.027, -50001.027, 0.0, 2.500522, 2.498738 
6.876498e+1, 3.3729476e+1, -51075.117, -588572.25, -1542.9492, 0.014028541, 0.014396825, -51070.688, -51070.688, 0.0, 2.5005193, 2.4987397 
6.8764913e+1, 3.6228237e+1, -52592.742, -589254.0, -1349.1602, 0.012650559, 0.016188558, -52589.35, -52589.35, 0.0, 2.5005167, 2.4987397 
6.8764853e+1, 3.8726997e+1, -54131.477, -589945.9, -1157.709, 0.01126795, 0.017990423, -54128.977, -54128.977, 0.0, 2.500514, 2.49874 
6.87648e+1, 4.122585e+1, -9475.912, -496333.97, -473.1297, 0.010560247, 0.021431627, -9475.452, -9475.452, 0.0, 2.500513, 2.498901 
6.876476e+1, 4.3724796e+1, -8216.498, -494823.3, 263.6936, 0.010067191, 0.025669998, -8216.355, -8216.355, 0.0, 2.5005143, 2.498903 
6.8764704e+1, 4.622374e+1, -7520.6304, -494434.22, 852.8474, 0.009565595, 0.029914165, -7519.136, -7519.136, 0.0, 2.5005155, 2.498903 
6.8764657e+1, 4.8722687e+1, -6861.9385, -494063.0, 1436.595, 0.009057586, 0.03416802, -6857.702, -6857.702, 0.0, 2.5005164, 2.4989033 
6.8764585e+1, 5.1221687e+1, 39805.477, -396186.1, -2095.4324, 0.007707215, 0.035526887, 39815.547, 39815.547, 0.0, 2.5005155, 2.4990716 
6.876449e+1, 5.3720737e+1, 38312.6, -395942.56, -2232.6873, 0.005302521, 0.033034366, 38324.082, 38324.082, 0.0, 2.500512, 2.4990737 
6.8764395e+1, 5.6219786e+1, 36196.656, -396909.9, -2138.512, 0.0028892998, 0.030546263, 36207.215, 36207.215, 0.0, 2.5005083, 2.499074 
6.8764305e+1, 5.8718836e+1, 34032.508, -397900.47, -2048.9006, 0.00046851963, 0.028067302, 34042.227, 34042.227, 0.0, 2.5005045, 2.499074 
6.876422e+1, 6.121798e+1, 78008.92, -306233.44, 824.62286, -0.0015607332, 0.028067246, 78010.69, 78010.69, 0.0, 2.500504, 2.4992316 
6.8764144e+1, 6.3717234e+1, 80371.69, -303982.63, 786.099, -0.0035913514, 0.029465038, 80373.3, 80373.3, 0.0, 2.5005069, 2.499234 
6.8764067e+1, 6.6216475e+1, 82017.44, -303145.47, 1240.1555, -0.0056299097, 0.030863885, 82021.43, 82021.43, 0.0, 2.5005097, 2.4992342 
6.8763995e+1, 6.871572e+1, 83619.445, -302329.4, 1693.5612, -0.0076740603, 0.03227063, 83626.875, 83626.875, 0.0, 2.5005124, 2.4992342 
6.8763924e+1, 7.121505e+1, 125733.51, -215981.44, -1030.1959, -0.008290703, 0.034560222, 125736.61, 125736.61, 0.0, 2.5005138, 2.4993818 
6.876384e+1, 7.3714453e+1, 125562.94, -214922.34, -2180.5356, -0.008264022, 0.03648891, 125576.91, 125576.91, 0.0, 2.5005121, 2.4993844 
6.876376e+1, 7.621386e+1, 124624.19, -215343.73, -2328.2476, -0.008247315, 0.03841158, 124640.13, 124640.13, 0.0, 2.5005105, 2.4993844 
6.876368e+1, 7.8713256e+1, 123610.67, -215801.13, -2480.0254, -0.008235204, 0.040336702, 123628.79, 123628.79, 0.0, 2.5005088, 2.4993844 
6.876359e+1, 8.121273e+1, 168595.52, -123865.26, 2864.1973, -0.011334551, 0.04143599, 168623.56, 168623.56, 0.0, 2.5005105, 2.4995415 
6.876348e+1, 8.371227e+1, 171692.73, -120850.75, 1822.2723, -0.016256904, 0.040171087, 171704.1, 171704.1, 0.0, 2.500514, 2.4995449 
6.876338e+1, 8.6211795e+1, 173765.66, -119829.06, 2131.8325, -0.02117658, 0.038895704, 173781.14, 173781.14, 0.0, 2.5005176, 2.499545 
6.8763274e+1, 8.871133e+1, 175761.52, -118844.484, 2435.1323, -0.026103538, 0.037620608, 175781.66, 175781.66, 0.0, 2.500521, 2.499545 
6.876321e+1, 9.1210943e+1, 214881.52, -41532.55, 654.31165, -0.027014477, 0.039507598, 214883.19, 214883.19, 0.0, 2.5005252, 2.4996758 
6.876309e+1, 9.3710655e+1, 217842.53, -38387.574, -679.6008, -0.0305309, 0.04260784, 217844.33, 217844.33, 0.0, 2.5005286, 2.4996796 
6.876297e+1, 9.621036e+1, 219568.64, -37516.137, -53.892883, -0.034088336, 0.04567364, 219568.64, 219568.64, 0.0, 2.5005314, 2.4996798 
6.8762857e+1, 9.871006e+1, 221129.4, -36724.324, 574.89526, -0.037636433, 0.048720784, 221130.69, 221130.69, 0.0, 2.500534, 2.4996798 
7.126591e+1, 1.2491475e+0, -182609.17, -855175.2, -1466.0443, 0.023189252, 0.00038127284, -182605.97, -182605.97, 0.0, 2.5005121, 2.4982858 
7.1265894e+1, 3.7474427e+0, -180942.45, -854614.6, -848.94293, 0.021711854, 0.001145155, -180941.39, -180941.39, 0.0, 2.5005152, 2.4982853 
7.1265864e+1, 6.2457377e+0, -179118.66, -853726.44, -284.44696, 0.020241011, 0.0019108199, -179118.55, -179118.55, 0.0, 2.5005183, 2.4982853 
7.126584e+1, 8.744033e+0, -177295.63, -852838.6, 280.05127, 0.01877672, 0.0026782672, -177295.52, -177295.52, 0.0, 2.5005214, 2.4982853 
7.1265817e+1, 1.12424135e+1, -135590.14, -766495.94, -367.87933, 0.018176837, 0.004649106, -135589.92, -135589.92, 0.0, 2.500522, 2.4984334 
7.12658e+1, 1.3740878e+1, -136774.89, -766687.7, 291.16077, 0.018325416, 0.0074751275, -136774.77, -136774.77, 0.0, 2.5005195, 2.498434 
7.1265787e+1, 1.6239342e+1, -138182.69, -767343.56, 802.38715, 0.018477423, 0.0103052445, -138181.67, -138181.67, 0.0, 2.500517, 2.498434 
7.1265763e+1, 1.8737806e+1, -139591.4, -767999.8, 1313.5768, 0.018633012, 0.013139874, -139588.66, -139588.66, 0.0, 2.5005145, 2.4984343 
7.126574e+1, 2.1236333e+1, -96003.27, -676865.3, -1032.2152, 0.018486036, 0.01462164, -96001.445, -96001.445, 0.0, 2.5005138, 2.498591 
7.126569e+1, 2.3734924e+1, -94758.12, -675676.2, -138.16043, 0.017768737, 0.014218882, -94758.086, -94758.086, 0.0, 2.5005155, 2.4985921 
7.126565e+1, 2.6233512e+1, -93861.05, -675208.75, 509.62625, 0.017054314, 0.013821544, -93860.6, -93860.6, 0.0, 2.500517, 2.4985921 
7.126561e+1, 2.8732103e+1, -92967.18, -674742.8, 1156.9955, 0.016343433, 0.013430875, -92964.875, -92964.875, 0.0, 2.5005183, 2.4985924 
7.1265554e+1, 3.123078e+1, -50891.953, -588315.5, -354.32153, 0.01530558, 0.014505381, -50891.72, -50891.72, 0.0, 2.5005195, 2.49874 
7.126549e+1, 3.372954e+1, -50014.848, -587159.25, 431.62283, 0.013718228, 0.016434161, -50014.5, -50014.5, 0.0, 2.5005202, 2.4987416 
7.126543e+1, 3.6228302e+1, -49572.64, -586905.94, 927.38257, 0.012134069, 0.01836824, -49571.04, -49571.04, 0.0, 2.500521, 2.4987419 
7.126536e+1, 3.8727066e+1, -49131.645, -586653.2, 1423.2776, 0.010553879, 0.0203098, -49127.875, -49127.875, 0.0, 2.5005217, 2.4987419 
7.1265304e+1, 4.1225922e+1, -4989.0313, -493165.44, 1952.6018, 0.0098257875, 0.023738602, -4981.221, -4981.221, 0.0, 2.5005198, 2.4989033 
7.1265256e+1, 4.3724868e+1, -7143.9224, -493266.8, 2367.1125, 0.009462777, 0.02777348, -7132.3965, -7132.3965, 0.0, 2.500515, 2.4989052 
7.12652e+1, 4.6223813e+1, -9860.463, -494532.5, 2599.8335, 0.009104897, 0.031812765, -9846.518, -9846.518, 0.0, 2.5005102, 2.4989054 
7.126516e+1, 4.872276e+1, -12572.536, -495796.03, 2833.9763, 0.008754421, 0.03586051, -12555.917, -12555.917, 0.0, 2.5005057, 2.4989054 
7.126509e+1, 5.1221764e+1, 34421.297, -398489.06, -403.17593, 0.0074883387, 0.037350312, 34421.676, 34421.676, 0.0, 2.500506, 2.4990723 
7.1265e+1, 5.372082e+1, 38272.793, -395650.7, -389.63977, 0.0050573945, 0.035303198, 38273.145, 38273.145, 0.0, 2.5005114, 2.4990745 
7.12649e+1, 5.621987e+1, 41534.477, -394041.1, -157.7621, 0.0026361067, 0.033258867, 41534.53, 41534.53, 0.0, 2.5005171, 2.4990745 
7.126481e+1, 5.8718926e+1, 44795.547, -392431.78, 73.09958, 0.000225638, 0.031222207, 44795.56, 44795.56, 0.0, 2.5005226, 2.4990747 
7.126473e+1, 6.1218077e+1, 88819.89, -300700.53, 2359.1563, -0.0018327472, 0.03133339, 88834.18, 88834.18, 0.0, 2.5005224, 2.4992323 
7.126465e+1, 6.3717324e+1, 85457.4, -301160.38, 1781.2905, -0.0039129285, 0.032445602, 85465.6, 85465.6, 0.0, 2.5005152, 2.499235 
7.126457e+1, 6.621657e+1, 81379.8, -303094.1, 1713.2439, -0.005982105, 0.03355738, 81387.43, 81387.43, 0.0, 2.5005083, 2.499235 
7.1264493e+1, 6.871581e+1, 77293.89, -305031.8, 1637.5002, -0.008038051, 0.034675915, 77300.91, 77300.91, 0.0, 2.5005012, 2.499235 
7.126443e+1, 7.121514e+1, 119579.87, -219179.33, -131.92047, -0.008602662, 0.036937088, 119579.92, 119579.92, 0.0, 2.5005033, 2.4993813 
7.126435e+1, 7.371455e+1, 126753.89, -214537.44, -1025.2493, -0.008485095, 0.039025895, 126756.98, 126756.98, 0.0, 2.5005145, 2.499384 
7.126427e+1, 7.621395e+1, 133194.66, -211410.31, -880.85065, -0.00834978, 0.04110963, 133196.9, 133196.9, 0.0, 2.5005255, 2.499384 
7.1264195e+1, 7.871336e+1, 139639.81, -208281.08, -735.00366, -0.008191163, 0.0431973, 139641.36, 139641.36, 0.0, 2.5005364, 2.4993842 
7.126411e+1, 8.1212825e+1, 184885.4, -116414.516, 3428.8933, -0.011174469, 0.044416346, 184924.42, 184924.42, 0.0, 2.5005388, 2.4995408 
7.1264005e+1, 8.371236e+1, 181008.44, -116702.38, 1532.684, -0.01592467, 0.04316414, 181016.33, 181016.33, 0.0, 2.5005305, 2.4995441 
7.1263903e+1, 8.6211884e+1, 176146.13, -119023.55, 1085.8151, -0.020640135, 0.04190541, 176150.11, 176150.11, 0.0, 2.5005221, 2.4995444 
7.12638e+1, 8.8711417e+1, 171280.88, -121346.125, 641.175, -0.025331384, 0.04065139, 171282.28, 171282.28, 0.0, 2.5005138, 2.4995444 
7.126374e+1, 9.121104e+1, 209919.39, -43406.977, -196.53874, -0.025965268, 0.042488836, 209919.55, 209919.55, 0.0, 2.5005162, 2.499677 
7.1263623e+1, 9.3710744e+1, 218295.58, -37545.316, -2296.073, -0.029431108, 0.04513003, 218316.17, 218316.17, 0.0, 2.5005286, 2.499681 
7.126352e+1, 9.621045e+1, 225533.52, -34017.203, -2394.8806, -0.032897368, 0.047735017, 225555.61, 225555.61, 0.0, 2.500541, 2.4996812 
7.1263415e+1, 9.871015e+1, 232747.97, -30500.404, -2493.264, -0.036311854, 0.050322104, 232771.58, 232771.58, 0.0, 2.5005534, 2.4996812 
7.37664e+1, 1.2491529e+0, -181329.38, -852891.25, -998.91907, 0.020172505, 0.0007256941, -181327.89, -181327.89, 0.0, 2.5005126, 2.4982896 
7.3766387e+1, 3.7474588e+0, -179669.61, -852344.2, -370.32874, 0.019600153, 0.0021783095, -179669.4, -179669.4, 0.0, 2.5005157, 2.498289 
7.3766375e+1, 6.2457645e+0, -177846.42, -851456.44, 200.07202, 0.019031135, 0.0036325618, -177846.36, -177846.36, 0.0, 2.5005188, 2.498289 
7.3766357e+1, 8.74407e+0, -176023.95, -850569.0, 770.38684, 0.018465454, 0.005088451, -176023.08, -176023.08, 0.0, 2.500522, 2.498289 
7.376633e+1, 1.1242452e+1, -134426.77, -764442.8, -732.1944, 0.01808256, 0.006895183, -134425.9, -134425.9, 0.0, 2.5005221, 2.4984367 
7.376631e+1, 1.374091e+1, -135615.97, -764641.5, -57.26169, 0.017772283, 0.00870247, -135615.97, -135615.97, 0.0, 2.5005198, 2.4984374 
7.376629e+1, 1.6239369e+1, -137025.81, -765297.8, 456.88388, 0.017463835, 0.010514054, -137025.48, -137025.48, 0.0, 2.5005174, 2.4984374 
7.376627e+1, 1.8737826e+1, -138436.16, -765954.4, 971.2076, 0.01715736, 0.01233035, -138434.66, -138434.66, 0.0, 2.500515, 2.4984376 
7.376624e+1, 2.1236357e+1, -94605.445, -674311.6, -822.3061, 0.016842607, 0.013753716, -94604.27, -94604.27, 0.0, 2.5005143, 2.498595 
7.376619e+1, 2.3734958e+1, -93354.086, -673103.0, 119.65593, 0.016224774, 0.014261828, -93354.06, -93354.06, 0.0, 2.5005157, 2.4985964 
7.3766154e+1, 2.6233563e+1, -92460.305, -672636.9, 772.1874, 0.015607969, 0.014775511, -92459.27, -92459.27, 0.0, 2.5005174, 2.4985964 
7.376611e+1, 2.8732166e+1, -91567.15, -672171.1, 1424.8743, 0.014992939, 0.015296017, -91563.65, -91563.65, 0.0, 2.5005188, 2.4985964 
7.376606e+1, 3.1230852e+1, -49784.023, -586347.5, -237.71024, 0.01423091, 0.016907468, -49783.918, -49783.918, 0.0, 2.5005198, 2.4987433 
7.3766e+1, 3.372962e+1, -48899.965, -585182.4, 587.71814, 0.013055586, 0.018977642, -48899.32, -48899.32, 0.0, 2.5005205, 2.498745 
7.3765945e+1, 3.6228386e+1, -48453.62, -584926.06, 1087.3083, 0.011881418, 0.021053407, -48451.418, -48451.418, 0.0, 2.5005212, 2.498745 
7.3765886e+1, 3.872715e+1, -48007.87, -584670.0, 1587.2018, 0.010709352, 0.02313701, -48003.18, -48003.18, 0.0, 2.500522, 2.498745 
7.3765826e+1, 4.1226006e+1, -4370.0513, -492219.78, 1277.176, 0.009773968, 0.02618292, -4366.708, -4366.708, 0.0, 2.50052, 2.4989047 
7.376576e+1, 4.3724945e+1, -6516.3784, -492303.5, 1711.654, 0.008617841, 0.029321404, -6510.3477, -6510.3477, 0.0, 2.5005155, 2.4989069 
7.37657e+1, 4.6223885e+1, -9231.64, -493566.75, 1950.1138, 0.00746308, 0.032464497, -9223.787, -9223.787, 0.0, 2.5005107, 2.4989069 
7.376564e+1, 4.872282e+1, -11948.2295, -494830.66, 2188.8123, 0.0063117607, 0.03561616, -11938.309, -11938.309, 0.0, 2.500506, 2.4989069 
7.376557e+1, 5.122183e+1, 34986.938, -397630.97, 457.03125, 0.0051133344, 0.03736332, 34987.42, 34987.42, 0.0, 2.5005062, 2.4990735 
7.376549e+1, 5.37209e+1, 38874.8, -394705.88, 512.2651, 0.0035700018, 0.036680788, 38875.406, 38875.406, 0.0, 2.500512, 2.499076 
7.376541e+1, 5.6219965e+1, 42127.652, -393098.28, 749.4014, 0.0020311922, 0.03600109, 42128.945, 42128.945, 0.0, 2.5005174, 2.4990761 
7.376534e+1, 5.871904e+1, 45379.227, -391491.3, 986.7479, 0.000498457, 0.035329517, 45381.457, 45381.457, 0.0, 2.5005229, 2.4990761 
7.376526e+1, 6.121819e+1, 88822.26, -300920.6, 1407.5585, -0.0011716257, 0.03580581, 88827.34, 88827.34, 0.0, 2.5005226, 2.4992318 
7.3765165e+1, 6.371743e+1, 85455.78, -301361.25, 799.56366, -0.003249675, 0.03625511, 85457.44, 85457.44, 0.0, 2.5005155, 2.4992344 
7.376508e+1, 6.6216666e+1, 81366.52, -303296.2, 746.3631, -0.0053232713, 0.03670357, 81367.98, 81367.98, 0.0, 2.5005085, 2.4992344 
7.3765e+1, 6.8715906e+1, 77275.04, -305232.2, 693.06506, -0.007390871, 0.03715841, 77276.3, 77276.3, 0.0, 2.5005014, 2.4992344 
7.376493e+1, 7.121523e+1, 119896.82, -218661.14, 1655.9299, -0.008424573, 0.039100677, 119904.92, 119904.92, 0.0, 2.5005035, 2.499382 
7.3764855e+1, 7.371464e+1, 127103.9, -213922.53, 785.2388, -0.009242773, 0.041153476, 127105.7, 127105.7, 0.0, 2.5005145, 2.4993849 
7.3764783e+1, 7.6214045e+1, 133527.06, -210803.7, 949.6813, -0.010053296, 0.043200746, 133529.67, 133529.67, 0.0, 2.5005255, 2.499385 
7.376471e+1, 7.8713447e+1, 139946.89, -207686.47, 1114.226, -0.010850665, 0.045252007, 139950.45, 139950.45, 0.0, 2.5005364, 2.499385 
7.376463e+1, 8.121292e+1, 184018.94, -118206.1, 2461.6375, -0.013417497, 0.046943326, 184038.98, 184038.98, 0.0, 2.5005388, 2.4995377 
7.376453e+1, 8.371246e+1, 180123.72, -118453.96, 459.4342, -0.01630416, 0.04663896, 180124.42, 180124.42, 0.0, 2.5005302, 2.4995413 
7.376444e+1, 8.6212e+1, 175211.38, -120797.19, 23.402029, -0.019168139, 0.04632592, 175211.38, 175211.38, 0.0, 2.500522, 2.4995413 
7.376434e+1, 8.871153e+1, 170294.75, -123142.48, -413.19202, -0.022020154, 0.04601579, 170295.33, 170295.33, 0.0, 2.5005133, 2.4995413 
7.376429e+1, 9.121115e+1, 209472.84, -43987.387, 1892.5844, -0.022454549, 0.04761233, 209486.97, 209486.97, 0.0, 2.5005157, 2.4996762 
7.3764175e+1, 9.371084e+1, 217851.06, -38013.887, -235.43031, -0.027451256, 0.048387576, 217851.27, 217851.27, 0.0, 2.500528, 2.4996805 
7.376406e+1, 9.6210515e+1, 225022.94, -34522.0, -332.8215, -0.032469835, 0.04912393, 225023.36, 225023.36, 0.0, 2.5005405, 2.4996805 
7.376395e+1, 9.8710203e+1, 232185.34, -31034.674, -430.49466, -0.037458092, 0.049842734, 232186.05, 232186.05, 0.0, 2.5005527, 2.4996805 
7.6266885e+1, 1.2491582e+0, -180285.0, -850721.75, -533.7162, 0.017155642, 0.0010692823, -180284.58, -180284.58, 0.0, 2.5005126, 2.4982934 
7.626688e+1, 3.7474746e+0, -178632.23, -850189.8, 100.98009, 0.017488247, 0.003208965, -178632.22, -178632.22, 0.0, 2.5005157, 2.4982927 
7.626688e+1, 6.245791e+0, -176808.72, -849302.06, 672.4839, 0.017820965, 0.0053501395, -176808.05, -176808.05, 0.0, 2.5005188, 2.4982927 
7.626688e+1, 8.7441075e+0, -174985.94, -848414.6, 1243.9017, 0.0181538, 0.007492806, -174983.64, -174983.64, 0.0, 2.500522, 2.4982927 
7.626686e+1, 1.1242492e+1, -133501.33, -762515.56, -1117.8291, 0.017988212, 0.009138278, -133499.34, -133499.34, 0.0, 2.5005221, 2.49844 
7.626683e+1, 1.3740943e+1, -134688.86, -762709.56, -427.62366, 0.017219106, 0.009924358, -134688.56, -134688.56, 0.0, 2.5005198, 2.4984407 
7.62668e+1, 1.6239393e+1, -136099.13, -763365.56, 87.41097, 0.016450226, 0.010714927, -136099.11, -136099.11, 0.0, 2.5005174, 2.4984407 
7.626677e+1, 1.8737845e+1, -137509.89, -764021.9, 602.6237, 0.015681714, 0.011510405, -137509.31, -137509.31, 0.0, 2.500515, 2.498441 
7.626673e+1, 2.1236378e+1, -93440.12, -671881.5, -641.4299, 0.015199153, 0.012878907, -93439.41, -93439.41, 0.0, 2.5005143, 2.4985993 
7.6266694e+1, 2.3734994e+1, -92173.49, -670639.75, 344.52676, 0.014680977, 0.014295547, -92173.28, -92173.28, 0.0, 2.5005157, 2.4986007 
7.626665e+1, 2.6233613e+1, -91280.445, -670173.8, 997.9738, 0.0141619835, 0.015717885, -91278.73, -91278.73, 0.0, 2.5005174, 2.4986007 
7.6266617e+1, 2.8732228e+1, -90388.04, -669708.2, 1651.5763, 0.013642995, 0.0171472, -90383.33, -90383.33, 0.0, 2.5005188, 2.4986007 
7.626657e+1, 3.1230924e+1, -48911.887, -584510.5, -168.65056, 0.013154122, 0.019300472, -48911.832, -48911.832, 0.0, 2.5005198, 2.4987464 
7.6266515e+1, 3.3729693e+1, -48016.145, -583318.75, 693.7694, 0.0123903975, 0.021510322, -48015.246, -48015.246, 0.0, 2.5005205, 2.498748 
7.626646e+1, 3.6228466e+1, -47570.574, -583061.75, 1194.1595, 0.011625813, 0.023726013, -47567.91, -47567.91, 0.0, 2.5005212, 2.4987483 
7.626641e+1, 3.872724e+1, -47125.6, -582805.0, 1694.8528, 0.010861464, 0.0259499, -47120.242, -47120.242, 0.0, 2.500522, 2.4987483 
7.626634e+1, 4.122609e+1, -4008.1726, -491419.6, 540.62317, 0.009725522, 0.028619783, -4007.573, -4007.573, 0.0, 2.50052, 2.4989061 
7.626627e+1, 4.3725023e+1, -6133.671, -491459.66, 995.5626, 0.0077743116, 0.030859876, -6131.629, -6131.629, 0.0, 2.5005152, 2.4989083 
7.62662e+1, 4.6223953e+1, -8847.948, -492720.66, 1235.6537, 0.0058206376, 0.033104703, -8844.793, -8844.793, 0.0, 2.5005107, 2.4989083 
7.626612e+1, 4.8722884e+1, -11563.555, -493982.25, 1475.9834, 0.003866445, 0.03535821, -11559.039, -11559.039, 0.0, 2.500506, 2.4989085 
7.626605e+1, 5.1221895e+1, 35310.97, -396907.66, 1249.0498, 0.002735749, 0.037367348, 35314.58, 35314.58, 0.0, 2.5005062, 2.499075 
7.626599e+1, 5.3720975e+1, 39253.254, -393870.1, 1342.7715, 0.002076363, 0.038046766, 39257.418, 39257.418, 0.0, 2.5005116, 2.4990773 
7.6265925e+1, 5.622006e+1, 42507.906, -392259.38, 1581.9213, 0.0014163681, 0.03872901, 42513.66, 42513.66, 0.0, 2.5005174, 2.4990776 
7.626586e+1, 5.8719146e+1, 45761.273, -390649.25, 1821.2813, 0.0007577024, 0.039419826, 45768.875, 45768.875, 0.0, 2.5005229, 2.4990776 
7.626579e+1, 6.121831e+1, 88621.87, -301277.5, 368.67084, -0.00050215574, 0.040277865, 88622.22, 88622.22, 0.0, 2.5005226, 2.499231 
7.626569e+1, 6.371754e+1, 85294.5, -301640.4, -275.02536, -0.0025838253, 0.04006097, 85294.695, 85294.695, 0.0, 2.5005155, 2.499234 
7.62656e+1, 6.621677e+1, 81210.28, -303568.5, -325.00046, -0.0046678823, 0.03984261, 81210.555, 81210.555, 0.0, 2.5005083, 2.499234 
7.62655e+1, 6.8716e+1, 77123.84, -305497.66, -375.07303, -0.0067531792, 0.03963024, 77124.21, 77124.21, 0.0, 2.5005014, 2.4992342 
7.6265436e+1, 7.1215326e+1, 120076.8, -218237.23, 3299.119, -0.00825144, 0.04126208, 120108.96, 120108.96, 0.0, 2.5005035, 2.499383 
7.626536e+1, 7.371473e+1, 127353.55, -213356.7, 2432.4128, -0.010008031, 0.043277204, 127370.914, 127370.914, 0.0, 2.5005145, 2.4993858 
7.626529e+1, 7.6214135e+1, 133778.63, -210236.77, 2600.4534, -0.011767105, 0.045286223, 133798.28, 133798.28, 0.0, 2.5005255, 2.499386 
7.6265216e+1, 7.8713536e+1, 140200.38, -207118.42, 2768.596, -0.013523175, 0.047299277, 140222.44, 140222.44, 0.0, 2.5005364, 2.499386 
7.6265144e+1, 8.121302e+1, 183123.9, -120037.484, 1291.0825, -0.015667796, 0.04947, 183129.4, 183129.4, 0.0, 2.5005388, 2.4995346 
7.6265055e+1, 8.371256e+1, 179278.1, -120187.39, -829.55963, -0.016692396, 0.05011198, 179280.4, 179280.4, 0.0, 2.5005302, 2.4995382 
7.626497e+1, 8.6212105e+1, 174369.8, -122526.65, -1261.6675, -0.017706484, 0.050743017, 174375.16, 174375.16, 0.0, 2.500522, 2.4995384 
7.626488e+1, 8.871165e+1, 169457.23, -124867.96, -1694.3373, -0.018720862, 0.051375177, 169466.98, 169466.98, 0.0, 2.5005133, 2.4995384 
7.626484e+1, 9.1211265e+1, 209229.11, -44498.035, 3764.3955, -0.018975733, 0.052751627, 209284.94, 209284.94, 0.0, 2.500516, 2.4996753 
7.6264715e+1, 9.371093e+1, 217693.17, -38345.62, 1612.7635, -0.025499841, 0.05165759, 217703.34, 217703.34, 0.0, 2.500528, 2.4996798 
7.62646e+1, 9.6210593e+1, 224861.81, -34859.695, 1523.7886, -0.032067034, 0.05052166, 224870.75, 224870.75, 0.0, 2.5005405, 2.49968 
7.626449e+1, 9.8710257e+1, 232020.98, -31378.328, 1434.5315, -0.038625386, 0.04936852, 232028.8, 232028.8, 0.0, 2.5005527, 2.49968 
7.8767365e+1, 1.2491635e+0, -180581.23, -849200.25, -81.96246, 0.014140558, 0.0014120556, -180581.22, -180581.22, 0.0, 2.5005102, 2.498297 
7.876737e+1, 3.7474906e+0, -178943.28, -848688.9, 529.22095, 0.015377911, 0.0042371755, -178942.86, -178942.86, 0.0, 2.5005133, 2.4982965 
7.876739e+1, 6.2458175e+0, -177151.11, -847816.4, 1071.5624, 0.016612215, 0.0070636417, -177149.4, -177149.4, 0.0, 2.5005164, 2.4982965 
7.8767395e+1, 8.7441456e+0, -175384.56, -846956.2, 1612.574, 0.017843472, 0.009891453, -175380.69, -175380.69, 0.0, 2.5005195, 2.4982965 
7.876738e+1, 1.1242532e+1, -134026.97, -761299.7, -1638.1969, 0.017895479, 0.011378575, -134022.69, -134022.69, 0.0, 2.5005198, 2.4984431 
7.876734e+1, 1.3740975e+1, -135160.33, -761455.1, -958.3227, 0.016667487, 0.01114107, -135158.86, -135158.86, 0.0, 2.5005174, 2.498444 
7.8767306e+1, 1.623942e+1, -136536.98, -762094.5, -471.74954, 0.015438157, 0.010908234, -136536.64, -136536.64, 0.0, 2.500515, 2.498444 
7.8767264e+1, 1.8737863e+1, -137927.69, -762740.7, 12.27562, 0.014207618, 0.010680504, -137927.69, -137927.69, 0.0, 2.5005126, 2.498444 
7.876723e+1, 2.12364e+1, -93619.53, -670112.2, -723.78033, 0.013557163, 0.011997712, -93618.625, -93618.625, 0.0, 2.500512, 2.4986033 
7.87672e+1, 2.3735031e+1, -92339.63, -668829.06, 254.44833, 0.013138735, 0.014320516, -92339.52, -92339.52, 0.0, 2.5005136, 2.4986048 
7.8767157e+1, 2.623366e+1, -91465.086, -668371.9, 854.705, 0.012717676, 0.016649112, -91463.82, -91463.82, 0.0, 2.500515, 2.498605 
7.876712e+1, 2.873229e+1, -90602.78, -667920.56, 1451.7772, 0.012294885, 0.018984841, -90599.13, -90599.13, 0.0, 2.5005164, 2.498605 
7.8767085e+1, 3.1230995e+1, -49448.754, -583371.0, -585.0324, 0.012076423, 0.021684773, -49448.113, -49448.113, 0.0, 2.5005174, 2.4987495 
7.876703e+1, 3.372977e+1, -48511.61, -582122.9, 257.25632, 0.011723743, 0.02403255, -48511.484, -48511.484, 0.0, 2.500518, 2.4987514 
7.8766984e+1, 3.6228547e+1, -48059.266, -581861.7, 697.0201, 0.011368247, 0.026386358, -48058.355, -48058.355, 0.0, 2.5005188, 2.4987514 
7.876693e+1, 3.8727322e+1, -47621.555, -581607.5, 1132.6819, 0.011011155, 0.028748712, -47619.152, -47619.152, 0.0, 2.5005195, 2.4987514 
7.876686e+1, 4.1226172e+1, -5017.246, -491303.16, -937.84393, 0.009681327, 0.031049408, -5015.4375, -5015.4375, 0.0, 2.5005176, 2.4989073 
7.8766775e+1, 4.3725097e+1, -7073.1772, -491256.13, -534.9883, 0.006933006, 0.032389097, -7072.5864, -7072.5864, 0.0, 2.500513, 2.4989097 
7.8766686e+1, 4.6224022e+1, -9775.894, -492509.84, -373.60236, 0.0041783927, 0.033733554, -9775.6045, -9775.6045, 0.0, 2.5005083, 2.4989097 
7.87666e+1, 4.8722947e+1, -12503.037, -493775.3, -216.29944, 0.0014193635, 0.03508679, -12502.939, -12502.939, 0.0, 2.5005035, 2.49891 
7.876653e+1, 5.122196e+1, 34292.918, -396851.1, 986.4844, 0.0003564483, 0.037362423, 34295.176, 34295.176, 0.0, 2.5005038, 2.4990761 
7.876649e+1, 5.372106e+1, 38300.973, -393678.7, 1049.227, 0.0005772328, 0.039400995, 38303.523, 38303.523, 0.0, 2.5005095, 2.4990788 
7.8766435e+1, 5.6220156e+1, 41530.85, -392077.72, 1216.4336, 0.0007923518, 0.04144229, 41534.266, 41534.266, 0.0, 2.500515, 2.499079 
7.876638e+1, 5.871926e+1, 44732.492, -390490.34, 1377.8745, 0.0010041283, 0.043492593, 44736.855, 44736.855, 0.0, 2.5005205, 2.499079 
7.876631e+1, 6.121843e+1, 87018.85, -302351.1, -2021.811, 0.00017641926, 0.04474885, 87029.35, 87029.35, 0.0, 2.50052, 2.4992304 
7.8766215e+1, 6.3717645e+1, 83860.734, -302535.94, -2757.338, -0.0019146014, 0.04386239, 83880.41, 83880.41, 0.0, 2.5005133, 2.4992335 
7.8766114e+1, 6.6216874e+1, 79837.19, -304430.5, -2869.815, -0.004014987, 0.042973593, 79858.625, 79858.625, 0.0, 2.5005062, 2.4992335 
7.876601e+1, 6.8716097e+1, 75773.73, -306344.28, -2981.7695, -0.006123698, 0.042090394, 75796.99, 75796.99, 0.0, 2.5004992, 2.4992337 
7.876594e+1, 7.1215415e+1, 119148.766, -218377.02, 3367.3455, -0.008081892, 0.04342011, 119182.36, 119182.36, 0.0, 2.5005016, 2.4993834 
7.876587e+1, 7.371482e+1, 126674.42, -213240.8, 2495.1147, -0.010779625, 0.045395665, 126692.74, 126692.74, 0.0, 2.5005128, 2.499387 
7.876579e+1, 7.6214224e+1, 133179.64, -210082.14, 2653.936, -0.013489892, 0.04736438, 133200.16, 133200.16, 0.0, 2.500524, 2.499387 
7.8765726e+1, 7.871363e+1, 139598.23, -206965.23, 2807.4756, -0.0162071, 0.049337175, 139620.98, 139620.98, 0.0, 2.500535, 2.499387 
7.8765655e+1, 8.1213117e+1, 181503.64, -122245.414, -1495.4124, -0.017923625, 0.051994137, 181511.0, 181511.0, 0.0, 2.5005374, 2.4995313 
7.876558e+1, 8.371267e+1, 178022.31, -122120.234, -3725.2073, -0.017087594, 0.053580683, 178068.53, 178068.53, 0.0, 2.5005295, 2.4995353 
7.8765506e+1, 8.621222e+1, 173310.75, -124362.734, -4140.9595, -0.016253067, 0.055153903, 173368.34, 173368.34, 0.0, 2.5005214, 2.4995353 
7.8765434e+1, 8.871177e+1, 168487.69, -126658.94, -4558.213, -0.015430824, 0.056726467, 168558.06, 168558.06, 0.0, 2.500513, 2.4995356 
7.876538e+1, 9.121138e+1, 208972.08, -45043.523, 4113.454, -0.015525892, 0.057903416, 209038.67, 209038.67, 0.0, 2.500516, 2.4996743 
7.876527e+1, 9.371102e+1, 217615.2, -38640.59, 2032.3044, -0.023573766, 0.05493663, 217631.33, 217631.33, 0.0, 2.5005283, 2.4996793 
7.876514e+1, 9.621067e+1, 224596.17, -35249.438, 2046.1279, -0.03168499, 0.051924653, 224612.28, 224612.28, 0.0, 2.5005403, 2.4996793 
7.876503e+1, 9.871031e+1, 231308.36, -31987.713, 2058.9336, -0.039808176, 0.048895847, 231324.45, 231324.45, 0.0, 2.5005517, 2.4996796 
8.126786e+1, 1.2491653e+0, -181752.33, -848112.6, -25.548788, 0.013139137, 0.0013943377, -181752.33, -181752.33, 0.0, 2.5005064, 2.4983008 
8.1267875e+1, 3.747496e+0, -183551.0, -849274.0, 663.0845, 0.01449794, 0.0041836174, -183550.34, -183550.34, 0.0, 2.5005038, 2.4983 
8.126788e+1, 6.2458265e+0, -185162.61, -850045.9, 1282.3157, 0.015863301, 0.0069737034, -185160.13, -185160.13, 0.0, 2.500501, 2.4983 
8.12679e+1, 8.744157e+0, -186774.66, -850817.94, 1901.6255, 0.01723522, 0.009764596, -186769.22, -186769.22, 0.0, 2.500498, 2.4983 
8.126788e+1, 1.1242549e+1, -145090.45, -764873.4, -1055.6758, 0.017293554, 0.011449838, -145088.66, -145088.66, 0.0, 2.5004988, 2.4984472 
8.1267846e+1, 1.3741001e+1, -142340.61, -763159.2, -84.19052, 0.015921773, 0.011648643, -142340.6, -142340.6, 0.0, 2.500503, 2.498448 
8.126781e+1, 1.6239454e+1, -139825.73, -761930.7, 678.6084, 0.014554101, 0.01185142, -139824.98, -139824.98, 0.0, 2.5005074, 2.4984481 
8.126777e+1, 1.8737906e+1, -137311.97, -760702.7, 1441.4027, 0.013190684, 0.012058604, -137308.63, -137308.63, 0.0, 2.5005116, 2.4984481 
8.126773e+1, 2.1236448e+1, -92270.875, -668274.0, 498.38644, 0.012539606, 0.013555849, -92270.445, -92270.445, 0.0, 2.500513, 2.498606 
8.126769e+1, 2.373508e+1, -92920.26, -667923.56, 1201.5414, 0.0122583015, 0.015795466, -92917.74, -92917.74, 0.0, 2.5005112, 2.4986074 
8.126766e+1, 2.6233712e+1, -93972.586, -668406.06, 1499.3436, 0.011979911, 0.018039722, -93968.67, -93968.67, 0.0, 2.5005093, 2.4986076 
8.1267625e+1, 2.8732345e+1, -95026.086, -668889.1, 1797.2891, 0.011705322, 0.020289976, -95020.45, -95020.45, 0.0, 2.5005076, 2.4986076 
8.1267583e+1, 3.1231052e+1, -54436.688, -584548.6, -150.26872, 0.01148562, 0.022966677, -54436.645, -54436.645, 0.0, 2.5005076, 2.4987524 
8.126753e+1, 3.372983e+1, -52786.32, -582922.0, 820.1317, 0.01093204, 0.025319897, -52785.055, -52785.055, 0.0, 2.5005095, 2.498754 
8.126749e+1, 3.6228606e+1, -51637.55, -582337.5, 1355.4576, 0.01038104, 0.027677134, -51634.09, -51634.09, 0.0, 2.5005114, 2.4987543 
8.1267434e+1, 3.8727388e+1, -50486.816, -581752.0, 1891.9441, 0.009834012, 0.03004103, -50480.08, -50480.08, 0.0, 2.5005133, 2.4987543 
8.126736e+1, 4.122624e+1, -6838.279, -492074.63, -716.23914, 0.008525284, 0.03249179, -6837.221, -6837.221, 0.0, 2.5005145, 2.4989076 
8.126728e+1, 4.372517e+1, -6043.5244, -490624.63, -370.27136, 0.0060354737, 0.034117933, -6043.2417, -6043.2417, 0.0, 2.5005145, 2.49891 
8.126719e+1, 4.62241e+1, -5894.901, -490520.72, -284.11655, 0.0035487148, 0.035744965, -5894.734, -5894.734, 0.0, 2.5005147, 2.49891 
8.1267107e+1, 4.872302e+1, -5746.761, -490417.03, -198.52835, 0.0010667791, 0.037376948, -5746.68, -5746.68, 0.0, 2.500515, 2.4989102 
8.1267035e+1, 5.122204e+1, 40832.14, -393358.6, 1700.1451, 0.00003924695, 0.039681073, 40838.797, 40838.797, 0.0, 2.5005147, 2.4990768 
8.1266993e+1, 5.3721136e+1, 41156.07, -391884.03, 1909.7106, 0.000020263953, 0.041425522, 41164.492, 41164.492, 0.0, 2.5005138, 2.4990797 
8.126694e+1, 5.6220233e+1, 40672.887, -392087.34, 2205.1301, 0.000006422472, 0.043167066, 40684.12, 40684.12, 0.0, 2.500513, 2.49908 
8.1266886e+1, 5.871933e+1, 40190.125, -392290.44, 2500.8906, 0.00000018560942, 0.044912346, 40204.586, 40204.586, 0.0, 2.5005121, 2.49908 
8.1266814e+1, 6.12185e+1, 83492.52, -304766.66, -1213.9053, -0.0007640613, 0.046190567, 83496.32, 83496.32, 0.0, 2.5005147, 2.499229 
8.1266725e+1, 6.371772e+1, 87892.25, -301235.8, -1989.1876, -0.0024818396, 0.045610078, 87902.414, 87902.414, 0.0, 2.5005207, 2.499232 
8.1266624e+1, 6.621695e+1, 91425.64, -299506.25, -2122.738, -0.0041861916, 0.045023065, 91437.17, 91437.17, 0.0, 2.500527, 2.499232 
8.126652e+1, 6.871618e+1, 94947.58, -297782.22, -2263.5752, -0.0058761863, 0.044437803, 94960.625, 94960.625, 0.0, 2.5005329, 2.499232 
8.1266457e+1, 7.12155e+1, 137636.6, -210101.8, 4440.117, -0.007801563, 0.045899026, 137693.27, 137693.27, 0.0, 2.500534, 2.4993823 
8.1266385e+1, 7.37149e+1, 135930.63, -209302.33, 3058.334, -0.010807707, 0.0477185, 135957.72, 135957.72, 0.0, 2.5005293, 2.4993858 
8.1266314e+1, 7.62143e+1, 133215.3, -210597.4, 2737.466, -0.013793452, 0.049527377, 133237.1, 133237.1, 0.0, 2.5005245, 2.4993858 
8.126624e+1, 7.871371e+1, 130500.984, -211891.98, 2416.1824, -0.016753556, 0.051337354, 130518.03, 130518.03, 0.0, 2.50052, 2.4993858 
8.126618e+1, 8.121319e+1, 172636.16, -127731.445, -2102.0059, -0.01845546, 0.053932384, 172650.86, 172650.86, 0.0, 2.5005236, 2.4995286 
8.1266105e+1, 8.371274e+1, 180721.7, -121925.84, -4182.038, -0.017311778, 0.05550888, 180779.48, 180779.48, 0.0, 2.5005355, 2.499533 
8.126604e+1, 8.621228e+1, 187628.05, -118572.4, -4384.1455, -0.016129123, 0.057073344, 187690.81, 187690.81, 0.0, 2.5005472, 2.499533 
8.126597e+1, 8.871183e+1, 194538.06, -115217.19, -4585.2656, -0.014918446, 0.058638833, 194605.94, 194605.94, 0.0, 2.500559, 2.499533 
8.126593e+1, 9.121144e+1, 235819.72, -34380.82, 4078.4136, -0.0147589855, 0.059906576, 235881.27, 235881.27, 0.0, 2.5005643, 2.4996693 
8.1265825e+1, 9.3711084e+1, 235137.94, -32351.549, 550.74976, -0.02246383, 0.056725465, 235139.06, 235139.06, 0.0, 2.5005608, 2.4996746 
8.126571e+1, 9.621072e+1, 232973.06, -33366.43, -778.77094, -0.030127304, 0.05350496, 232975.34, 232975.34, 0.0, 2.500557, 2.4996746 
8.1265604e+1, 9.871036e+1, 230792.2, -34389.0, -2109.4482, -0.037699476, 0.05027647, 230808.98, 230808.98, 0.0, 2.5005531, 2.4996746 
8.3768374e+1, 1.2491635e+0, -180473.23, -845673.94, -443.38263, 0.013482702, 0.0010118408, -180472.95, -180472.95, 0.0, 2.5005066, 2.4983048 
8.3768374e+1, 3.7474906e+0, -182277.64, -846849.8, 249.2357, 0.0142349405, 0.0030362965, -182277.55, -182277.55, 0.0, 2.500504, 2.4983041 
8.376838e+1, 6.2458175e+0, -183887.58, -847620.6, 873.1484, 0.0149906855, 0.0050617857, -183886.42, -183886.42, 0.0, 2.5005012, 2.4983041 
8.376838e+1, 8.7441444e+0, -185498.14, -848391.75, 1497.1969, 0.015749937, 0.0070883073, -185494.77, -185494.77, 0.0, 2.5004983, 2.4983041 
8.376836e+1, 1.1242547e+1, -143540.78, -761883.5, -408.9594, 0.015616724, 0.009298549, -143540.5, -143540.5, 0.0, 2.500499, 2.4984522 
8.376833e+1, 1.3741022e+1, -140791.67, -760170.06, 587.9296, 0.014445236, 0.0113370605, -140791.11, -140791.11, 0.0, 2.5005033, 2.498453 
8.37683e+1, 1.6239499e+1, -138275.81, -758940.3, 1357.927, 0.013275673, 0.013379072, -138272.84, -138272.84, 0.0, 2.5005076, 2.4984531 
8.376827e+1, 1.8737975e+1, -135760.64, -757710.9, 2127.7954, 0.012108222, 0.015424998, -135753.36, -135753.36, 0.0, 2.5005121, 2.4984531 
8.3768237e+1, 2.1236524e+1, -91594.4, -667085.6, 238.86414, 0.01164686, 0.017318098, -91594.305, -91594.305, 0.0, 2.5005133, 2.4986079 
8.37682e+1, 2.3735148e+1, -92239.62, -666737.4, 966.29016, 0.011576655, 0.01849611, -92237.99, -92237.99, 0.0, 2.5005114, 2.4986093 
8.3768165e+1, 2.623377e+1, -93282.62, -667214.8, 1270.008, 0.011507612, 0.019678764, -93279.805, -93279.805, 0.0, 2.5005095, 2.4986095 
8.3768135e+1, 2.8732392e+1, -94326.16, -667692.56, 1573.8453, 0.011440546, 0.020867424, -94321.836, -94321.836, 0.0, 2.5005078, 2.4986095 
8.376809e+1, 3.12311e+1, -53320.8, -582500.2, 166.01454, 0.010977261, 0.022962, -53320.75, -53320.75, 0.0, 2.5005078, 2.4987557 
8.376803e+1, 3.3729878e+1, -51629.465, -580797.56, 1176.982, 0.009665113, 0.02519473, -51626.848, -51626.848, 0.0, 2.5005097, 2.4987576 
8.3767974e+1, 3.622866e+1, -50474.957, -580209.7, 1720.8711, 0.008353742, 0.027431434, -50469.367, -50469.367, 0.0, 2.5005116, 2.4987576 
8.376792e+1, 3.8727444e+1, -49321.03, -579622.1, 2264.816, 0.007044752, 0.02967485, -49311.36, -49311.36, 0.0, 2.5005136, 2.4987578 
8.3767855e+1, 4.1226307e+1, -6548.7314, -491749.88, -628.5076, 0.005989186, 0.032794468, -6547.9175, -6547.9175, 0.0, 2.5005147, 2.498908 
8.3767784e+1, 4.3725246e+1, -5727.8853, -490246.75, -249.58449, 0.0048231347, 0.035881195, -5727.757, -5727.757, 0.0, 2.500515, 2.4989104 
8.3767706e+1, 4.622419e+1, -5581.0537, -490142.9, -156.41464, 0.0036581794, 0.038968865, -5581.0034, -5581.0034, 0.0, 2.5005152, 2.4989107 
8.376763e+1, 4.8723134e+1, -5435.01, -490039.47, -63.1647, 0.0024959177, 0.042061616, -5435.0015, -5435.0015, 0.0, 2.5005152, 2.4989107 
8.376757e+1, 5.122215e+1, 41467.08, -392288.7, 1654.8208, 0.0014830066, 0.044198435, 41473.39, 41473.39, 0.0, 2.500515, 2.4990785 
8.3767503e+1, 5.372123e+1, 41828.832, -390703.34, 1888.312, 0.00016052164, 0.044069946, 41837.074, 41837.074, 0.0, 2.500514, 2.4990816 
8.376744e+1, 5.622031e+1, 41324.62, -390915.28, 2194.4038, -0.0011594315, 0.043938324, 41335.76, 41335.76, 0.0, 2.5005133, 2.4990819 
8.376737e+1, 5.871939e+1, 40819.246, -391127.78, 2500.4563, -0.002474456, 0.04381044, 40833.72, 40833.72, 0.0, 2.5005124, 2.4990819 
8.37673e+1, 6.1218554e+1, 83258.22, -305365.56, -173.95583, -0.0035560257, 0.04478775, 83258.3, 83258.3, 0.0, 2.500515, 2.4992278 
8.376722e+1, 6.3717794e+1, 87691.62, -301742.5, -929.771, -0.0045233425, 0.04550885, 87693.836, 87693.836, 0.0, 2.500521, 2.499231 
8.3767134e+1, 6.6217023e+1, 91207.836, -300021.22, -1049.7534, -0.0054805637, 0.046224363, 91210.66, 91210.66, 0.0, 2.500527, 2.499231 
8.376705e+1, 6.871627e+1, 94722.33, -298300.78, -1169.744, -0.0064270697, 0.046942648, 94725.81, 94725.81, 0.0, 2.5005329, 2.4992313 
8.376699e+1, 7.1215594e+1, 137035.78, -211415.06, 3996.1484, -0.007853145, 0.049030796, 137081.61, 137081.61, 0.0, 2.500534, 2.4993799 
8.3766913e+1, 7.371499e+1, 135406.78, -210468.19, 2579.1553, -0.010490113, 0.050658878, 135426.02, 135426.02, 0.0, 2.5005293, 2.4993837 
8.376685e+1, 7.621439e+1, 132696.67, -211758.1, 2285.5813, -0.01311251, 0.05227638, 132711.83, 132711.83, 0.0, 2.5005248, 2.4993837 
8.376677e+1, 7.871379e+1, 129983.516, -213049.44, 1991.8405, -0.015715865, 0.05389582, 129995.08, 129995.08, 0.0, 2.50052, 2.4993837 
8.376671e+1, 8.1213266e+1, 172275.53, -128568.266, -18.769712, -0.017860468, 0.055983666, 172275.55, 172275.55, 0.0, 2.5005236, 2.4995272 
8.376664e+1, 8.37128e+1, 180420.03, -122626.39, -2072.5188, -0.017941369, 0.056699216, 180434.2, 180434.2, 0.0, 2.5005355, 2.4995315 
8.376656e+1, 8.621234e+1, 187306.8, -119286.73, -2247.899, -0.017991936, 0.057402562, 187323.27, 187323.27, 0.0, 2.5005474, 2.4995317 
8.3766496e+1, 8.8711876e+1, 194188.36, -115949.555, -2423.7993, -0.018023465, 0.058106948, 194207.31, 194207.31, 0.0, 2.500559, 2.4995317 
8.3766466e+1, 9.1211486e+1, 233266.75, -39575.785, 4035.3416, -0.017617142, 0.05982475, 233326.42, 233326.42, 0.0, 2.5005643, 2.4996605 
8.376637e+1, 9.371114e+1, 232515.28, -37520.086, 348.7979, -0.023192842, 0.05812901, 232515.72, 232515.72, 0.0, 2.5005603, 2.4996657 
8.376628e+1, 9.621078e+1, 230245.11, -38587.367, -982.5625, -0.028743591, 0.056391057, 230248.7, 230248.7, 0.0, 2.5005565, 2.4996657 
8.376619e+1, 9.8710424e+1, 227964.66, -39659.598, -2314.6438, -0.03422218, 0.05464466, 227984.67, 227984.67, 0.0, 2.5005524, 2.499666 
8.6268884e+1, 1.2491617e+0, -179331.86, -843302.44, -862.4982, 0.013826083, 0.00062862947, -179330.73, -179330.73, 0.0, 2.5005066, 2.498309 
8.626888e+1, 3.7474853e+0, -181144.67, -844495.44, -170.015, 0.013971488, 0.001886833, -181144.63, -181144.63, 0.0, 2.500504, 2.4983082 
8.6268866e+1, 6.2458086e+0, -182754.67, -845266.06, 454.9556, 0.014117349, 0.0031462968, -182754.36, -182754.36, 0.0, 2.5005012, 2.4983082 
8.6268866e+1, 8.744132e+0, -184365.33, -846037.0, 1080.062, 0.014263665, 0.0044070208, -184363.58, -184363.58, 0.0, 2.5004983, 2.4983082 
8.6268854e+1, 1.1242544e+1, -142139.4, -758974.94, 221.17686, 0.013940038, 0.007145884, -142139.33, -142139.33, 0.0, 2.500499, 2.4984572 
8.6268824e+1, 1.3741045e+1, -139384.98, -757252.0, 1237.0876, 0.01296774, 0.01102032, -139382.5, -139382.5, 0.0, 2.5005033, 2.498458 
8.62688e+1, 1.6239542e+1, -136867.69, -756020.75, 2008.6292, 0.011995178, 0.014897771, -136861.17, -136861.17, 0.0, 2.5005078, 2.4984581 
8.626877e+1, 1.8738043e+1, -134351.08, -754789.8, 2780.0415, 0.011022586, 0.018778643, -134338.63, -134338.63, 0.0, 2.5005121, 2.4984581 
8.6268735e+1, 2.1236601e+1, -91078.04, -666002.06, -63.473248, 0.010756483, 0.021078745, -91078.03, -91078.03, 0.0, 2.5005133, 2.4986098 
8.6268705e+1, 2.3735215e+1, -91709.99, -665625.75, 687.8817, 0.010896944, 0.021192413, -91709.164, -91709.164, 0.0, 2.5005114, 2.4986112 
8.626867e+1, 2.6233828e+1, -92752.9, -666102.6, 992.696, 0.011036784, 0.021310665, -92751.18, -92751.18, 0.0, 2.5005095, 2.4986115 
8.626864e+1, 2.8732443e+1, -93796.35, -666579.75, 1297.6295, 0.011176783, 0.02143493, -93793.414, -93793.414, 0.0, 2.5005078, 2.4986115 
8.6268586e+1, 3.1231144e+1, -52389.28, -580553.1, 424.7664, 0.010465877, 0.02295214, -52388.94, -52388.94, 0.0, 2.5005078, 2.498759 
8.6268526e+1, 3.3729926e+1, -50656.227, -578763.0, 1467.7231, 0.008394757, 0.025062392, -50652.15, -50652.15, 0.0, 2.5005097, 2.4987612 
8.626846e+1, 3.622871e+1, -49501.87, -578174.6, 2012.5271, 0.006322636, 0.02717653, -49494.21, -49494.21, 0.0, 2.5005116, 2.4987612 
8.62684e+1, 3.8727498e+1, -48348.098, -577586.5, 2557.387, 0.004251305, 0.029297432, -48335.74, -48335.74, 0.0, 2.5005136, 2.4987612 
8.626834e+1, 4.122637e+1, -6467.305, -491546.06, -630.46564, 0.0034510673, 0.03309211, -6466.486, -6466.486, 0.0, 2.5005147, 2.4989083 
8.626828e+1, 4.3725327e+1, -5609.34, -489964.8, -222.34738, 0.0036079413, 0.037637904, -5609.238, -5609.238, 0.0, 2.500515, 2.498911 
8.626823e+1, 4.622428e+1, -5462.52, -489860.2, -128.26808, 0.0037639348, 0.04218463, -5462.4863, -5462.4863, 0.0, 2.500515, 2.4989111 
8.626816e+1, 4.872324e+1, -5316.488, -489755.97, -34.108704, 0.0039204913, 0.04673656, -5316.4854, -5316.4854, 0.0, 2.5005152, 2.4989111 
8.62681e+1, 5.122225e+1, 41904.92, -391341.63, 1495.7384, 0.0029263431, 0.04871659, 41910.086, 41910.086, 0.0, 2.500515, 2.4990802 
8.626802e+1, 5.3721315e+1, 42341.96, -389600.78, 1743.4233, 0.0002981243, 0.04671241, 42349.0, 42349.0, 0.0, 2.500514, 2.4990835 
8.6267936e+1, 5.622038e+1, 41839.25, -389810.47, 2051.0366, -0.0023302245, 0.04470474, 41848.996, 41848.996, 0.0, 2.500513, 2.4990838 
8.626786e+1, 5.871945e+1, 41335.375, -390020.75, 2358.6108, -0.0049563227, 0.042700797, 41348.273, 41348.273, 0.0, 2.5005124, 2.4990838 
8.6267793e+1, 6.121861e+1, 82917.94, -306036.7, 716.50525, -0.00635461, 0.043384317, 82919.26, 82919.26, 0.0, 2.500515, 2.4992266 
8.626772e+1, 6.371786e+1, 87412.44, -302288.06, -32.679672, -0.0065738587, 0.045404587, 87412.44, 87412.44, 0.0, 2.500521, 2.4992301 
8.6267644e+1, 6.621711e+1, 90929.53, -300566.38, -151.07098, -0.006786357, 0.047420096, 90929.586, 90929.586, 0.0, 2.500527, 2.4992301 
8.626758e+1, 6.871636e+1, 94444.89, -298845.53, -269.47052, -0.006991783, 0.0494394, 94445.08, 94445.08, 0.0, 2.5005329, 2.4992304 
8.626752e+1, 7.121569e+1, 136356.39, -212795.88, 3336.8376, -0.007908142, 0.0521658, 136388.28, 136388.28, 0.0, 2.500534, 2.4993775 
8.626745e+1, 7.371508e+1, 134815.06, -211667.89, 1861.4528, -0.01017943, 0.05359993, 134825.06, 134825.06, 0.0, 2.5005293, 2.4993818 
8.626737e+1, 7.621448e+1, 132107.25, -212953.98, 1570.4215, -0.012442127, 0.055023324, 132114.4, 132114.4, 0.0, 2.5005248, 2.4993818 
8.6267304e+1, 7.8713876e+1, 129396.41, -214241.53, 1279.2236, -0.014692379, 0.056449484, 129401.17, 129401.17, 0.0, 2.50052, 2.4993818 
8.626723e+1, 8.1213343e+1, 171840.22, -129460.74, 1755.9429, -0.017271386, 0.05803504, 171850.45, 171850.45, 0.0, 2.5005236, 2.4995255 
8.626717e+1, 8.371287e+1, 180067.34, -123352.18, -300.684, -0.018575622, 0.057888344, 180067.64, 180067.64, 0.0, 2.5005355, 2.4995303 
8.6267096e+1, 8.6212397e+1, 186954.4, -120016.68, -473.29752, -0.019858317, 0.057729185, 186955.14, 186955.14, 0.0, 2.5005474, 2.4995303 
8.626702e+1, 8.871193e+1, 193836.3, -116683.67, -646.431, -0.021130966, 0.057571087, 193837.64, 193837.64, 0.0, 2.500559, 2.4995306 
8.6267e+1, 9.1211534e+1, 230770.78, -44763.316, 3605.2896, -0.020522865, 0.059753828, 230817.95, 230817.95, 0.0, 2.5005643, 2.4996514 
8.626692e+1, 9.371119e+1, 230071.56, -42603.207, -239.0761, -0.023969566, 0.05954084, 230071.77, 230071.77, 0.0, 2.5005603, 2.4996572 
8.6266845e+1, 9.621084e+1, 227802.98, -43671.42, -1563.3024, -0.027407082, 0.059282593, 227811.98, 227811.98, 0.0, 2.5005565, 2.4996572 
8.626677e+1, 9.871049e+1, 225524.11, -44744.582, -2888.2498, -0.030791601, 0.059015445, 225554.98, 225554.98, 0.0, 2.5005527, 2.4996572 
8.8769394e+1, 1.24916e+0, -179222.5, -841430.2, -1299.0518, 0.0141707985, 0.0002447643, -179219.95, -179219.95, 0.0, 2.500505, 2.498313 
8.8769376e+1, 3.74748e+0, -180976.52, -842609.25, -644.83105, 0.013709, 0.0007354058, -180975.89, -180975.89, 0.0, 2.5005023, 2.4983122 
8.8769364e+1, 6.2458e+0, -182541.05, -843357.75, -57.35296, 0.013244669, 0.0012275319, -182541.05, -182541.05, 0.0, 2.5004995, 2.4983122 
8.8769346e+1, 8.7441194e+0, -184128.66, -844117.44, 529.02875, 0.012777805, 0.0017211426, -184128.23, -184128.23, 0.0, 2.5004969, 2.4983122 
8.8769335e+1, 1.12425424e+1, -141640.47, -756512.44, 674.8103, 0.012264889, 0.0049922876, -141639.72, -141639.72, 0.0, 2.5004976, 2.4984622 
8.876931e+1, 1.3741066e+1, -138898.2, -754781.0, 1659.5391, 0.011490626, 0.010698836, -138893.73, -138893.73, 0.0, 2.5005019, 2.498463 
8.876929e+1, 1.6239588e+1, -136419.16, -753567.44, 2378.5764, 0.010713959, 0.016407907, -136409.98, -136409.98, 0.0, 2.5005062, 2.4984632 
8.876927e+1, 1.8738109e+1, -133958.6, -752362.8, 3092.8264, 0.009935172, 0.022119911, -133943.13, -133943.13, 0.0, 2.5005102, 2.4984632 
8.876924e+1, 2.1236676e+1, -91589.234, -665442.56, -759.8618, 0.009869805, 0.02483817, -91588.234, -91588.234, 0.0, 2.5005114, 2.4986117 
8.876921e+1, 2.373528e+1, -92125.61, -664972.8, -23.338135, 0.010220318, 0.023884796, -92125.61, -92125.61, 0.0, 2.5005097, 2.498613 
8.876918e+1, 2.6233888e+1, -93122.06, -665426.9, 235.60133, 0.010568454, 0.022935873, -93121.96, -93121.96, 0.0, 2.500508, 2.4986134 
8.8769144e+1, 2.8732494e+1, -94138.65, -665890.6, 490.2566, 0.0109149795, 0.021992965, -94138.23, -94138.23, 0.0, 2.5005062, 2.4986134 
8.876909e+1, 3.1231192e+1, -52335.805, -579043.5, 89.576706, 0.00995239, 0.022937575, -52335.79, -52335.79, 0.0, 2.5005062, 2.4987624 
8.876903e+1, 3.3729976e+1, -50579.637, -577163.8, 1086.8204, 0.0071219136, 0.024923349, -50577.395, -50577.395, 0.0, 2.500508, 2.4987645 
8.876896e+1, 3.6228764e+1, -49471.574, -576597.25, 1551.7646, 0.004288738, 0.026912864, -49467.004, -49467.004, 0.0, 2.50051, 2.4987648 
8.876889e+1, 3.8727552e+1, -48384.805, -576041.0, 2013.1232, 0.0014548152, 0.02890919, -48377.125, -48377.125, 0.0, 2.500512, 2.4987648 
8.876883e+1, 4.122643e+1, -7414.9043, -491860.97, -1549.8976, 0.00091201474, 0.033385005, -7409.946, -7409.946, 0.0, 2.5005128, 2.4989088 
8.8768786e+1, 4.3725404e+1, -6463.249, -490154.8, -1182.1699, 0.0023907558, 0.039388124, -6460.36, -6460.36, 0.0, 2.500513, 2.4989114 
8.876874e+1, 4.6224377e+1, -6306.573, -490044.78, -1164.8193, 0.003866718, 0.045392092, -6303.7686, -6303.7686, 0.0, 2.5005133, 2.4989116 
8.876869e+1, 4.8723346e+1, -6180.531, -489949.47, -1152.2869, 0.005341209, 0.051401395, -6177.786, -6177.786, 0.0, 2.5005136, 2.4989116 
8.8768625e+1, 5.122236e+1, 41319.24, -390918.22, 101.23958, 0.004369983, 0.053234994, 41319.26, 41319.26, 0.0, 2.5005133, 2.4990819 
8.876853e+1, 5.372141e+1, 41831.223, -388995.44, 267.5676, 0.0004338401, 0.049352296, 41831.39, 41831.39, 0.0, 2.5005124, 2.4990854 
8.876844e+1, 5.6220454e+1, 41293.668, -389220.5, 476.7047, -0.0035050758, 0.04546561, 41294.195, 41294.195, 0.0, 2.5005114, 2.4990857 
8.876835e+1, 5.8719504e+1, 40738.277, -389454.2, 680.64496, -0.0074443496, 0.041582666, 40739.35, 40739.35, 0.0, 2.5005102, 2.4990857 
8.8768274e+1, 6.121866e+1, 81429.59, -307284.6, -24.055475, -0.009158671, 0.04197935, 81429.6, 81429.6, 0.0, 2.5005128, 2.4992254 
8.876822e+1, 6.3717926e+1, 86013.32, -303376.88, -851.67773, -0.008632286, 0.04529605, 86015.18, 86015.18, 0.0, 2.500519, 2.4992292 
8.8768166e+1, 6.6217184e+1, 89533.234, -301653.9, -1054.2886, -0.008102447, 0.04860871, 89536.07, 89536.07, 0.0, 2.500525, 2.4992294 
8.8768107e+1, 6.871645e+1, 93037.84, -299938.3, -1257.9293, -0.007569116, 0.05192616, 93041.87, 93041.87, 0.0, 2.500531, 2.4992294 
8.8768053e+1, 7.1215785e+1, 134577.86, -214738.05, 728.8468, -0.0079652555, 0.055301875, 134579.38, 134579.38, 0.0, 2.5005322, 2.499375 
8.8767976e+1, 7.3715174e+1, 133240.6, -213344.4, -841.883, -0.0098742535, 0.056539305, 133242.64, 133242.64, 0.0, 2.5005276, 2.4993796 
8.8767904e+1, 7.621457e+1, 130607.4, -214591.94, -1161.7489, -0.0117807, 0.057765637, 130611.305, 130611.305, 0.0, 2.500523, 2.4993796 
8.876783e+1, 7.871396e+1, 127948.26, -215851.95, -1478.3792, -0.0136812, 0.058995545, 127954.62, 127954.62, 0.0, 2.5005186, 2.4993796 
8.876776e+1, 8.1213415e+1, 170606.42, -130759.02, 1475.2931, -0.016686147, 0.060083475, 170613.66, 170613.66, 0.0, 2.5005224, 2.499524 
8.8767695e+1, 8.3712935e+1, 179024.98, -124412.414, -588.611, -0.019212421, 0.05907305, 179026.13, 179026.13, 0.0, 2.5005343, 2.4995291 
8.8767624e+1, 8.6212456e+1, 185973.6, -121051.625, -754.6903, -0.021725988, 0.05804979, 185975.44, 185975.44, 0.0, 2.5005462, 2.4995291 
8.8767546e+1, 8.8711977e+1, 192883.44, -117709.51, -918.2096, -0.024238389, 0.0570276, 192886.14, 192886.14, 0.0, 2.5005581, 2.4995291 
8.8767534e+1, 9.121158e+1, 227733.38, -50231.934, 1200.7028, -0.023473363, 0.05968991, 227738.56, 227738.56, 0.0, 2.5005634, 2.4996426 
8.876747e+1, 9.3711245e+1, 227169.22, -47908.254, -2671.6946, -0.024791006, 0.060956832, 227195.17, 227195.17, 0.0, 2.5005596, 2.4996483 
8.8767415e+1, 9.6210897e+1, 224874.13, -48990.93, -3859.96, -0.026114414, 0.06217517, 224928.52, 224928.52, 0.0, 2.5005558, 2.4996483 
8.8767356e+1, 9.8710555e+1, 222467.11, -50127.496, -5056.243, -0.027403852, 0.06338413, 222560.86, 222560.86, 0.0, 2.5005515, 2.4996483 
9.126989e+1, 1.2491623e+0, -186406.1, -843633.06, -1456.2817, 0.0138886785, 0.0003292631, -186402.86, -186402.86, 0.0, 2.5004911, 2.4983158 
9.126987e+1, 3.7474868e+0, -185292.5, -843445.8, -1077.991, 0.013009927, 0.0009885542, -185290.73, -185290.73, 0.0, 2.5004935, 2.4983149 
9.126985e+1, 6.2458116e+0, -183959.86, -842801.56, -761.43756, 0.012137154, 0.0016488659, -183958.98, -183958.98, 0.0, 2.500496, 2.4983149 
9.1269827e+1, 8.744136e+0, -182628.58, -842158.0, -444.93036, 0.011270361, 0.002310198, -182628.28, -182628.28, 0.0, 2.500498, 2.4983149 
9.1269815e+1, 1.12425625e+1, -140223.3, -754419.06, -413.23712, 0.0107486155, 0.005652915, -140223.02, -140223.02, 0.0, 2.5004985, 2.4984653 
9.12698e+1, 1.3741088e+1, -140828.44, -754308.2, 167.97653, 0.010338896, 0.011333346, -140828.39, -140828.39, 0.0, 2.500497, 2.498466 
9.1269785e+1, 1.6239613e+1, -141682.73, -754714.2, 475.46014, 0.009933956, 0.017016804, -141682.38, -141682.38, 0.0, 2.5004954, 2.4984663 
9.126977e+1, 1.8738139e+1, -142537.47, -755120.44, 782.5909, 0.009534106, 0.022703702, -142536.47, -142536.47, 0.0, 2.500494, 2.4984663 
9.1269743e+1, 2.1236707e+1, -100070.14, -668371.44, -3079.973, 0.009498525, 0.025445592, -100053.45, -100053.45, 0.0, 2.5004957, 2.498614 
9.126971e+1, 2.3735318e+1, -96932.586, -666106.0, -1947.8711, 0.009519534, 0.024535144, -96925.92, -96925.92, 0.0, 2.5005002, 2.4986157 
9.1269666e+1, 2.6233923e+1, -94262.02, -664808.3, -1306.4043, 0.009545627, 0.023628425, -94259.03, -94259.03, 0.0, 2.5005047, 2.498616 
9.1269636e+1, 2.8732535e+1, -91593.8, -663511.8, -665.717, 0.009577592, 0.022727072, -91593.02, -91593.02, 0.0, 2.5005095, 2.498616 
9.126958e+1, 3.1231236e+1, -49592.58, -577184.5, -1352.123, 0.008562368, 0.023772648, -49589.113, -49589.113, 0.0, 2.5005105, 2.4987636 
9.126952e+1, 3.3730027e+1, -50397.953, -576508.06, -735.0858, 0.00595951, 0.02590465, -50396.926, -50396.926, 0.0, 2.5005078, 2.498766 
9.126946e+1, 3.6228812e+1, -51858.836, -577196.7, -668.98224, 0.0033609685, 0.028038196, -51857.984, -51857.984, 0.0, 2.5005054, 2.498766 
9.1269386e+1, 3.8727605e+1, -53317.64, -577884.4, -604.3812, 0.00076864427, 0.030176401, -53316.94, -53316.94, 0.0, 2.5005028, 2.498766 
9.126933e+1, 4.1226485e+1, -11950.397, -493595.47, -3606.2783, 0.0002765163, 0.034701712, -11923.397, -11923.397, 0.0, 2.5005045, 2.4989097 
9.1269284e+1, 4.372546e+1, -7557.419, -490149.88, -2705.214, 0.0016079925, 0.040606506, -7542.2554, -7542.2554, 0.0, 2.5005107, 2.4989126 
9.126924e+1, 4.622443e+1, -3983.6663, -488410.72, -2174.0737, 0.0029492727, 0.046511315, -3973.9094, -3973.9094, 0.0, 2.500517, 2.4989128 
9.1269195e+1, 4.8723403e+1, -411.49084, -486672.34, -1643.469, 0.0043016896, 0.05242088, -405.9363, -405.9363, 0.0, 2.5005229, 2.4989128 
9.1269135e+1, 5.122242e+1, 47234.945, -388718.8, -1254.4102, 0.0033989137, 0.054292794, 47238.555, 47238.555, 0.0, 2.500524, 2.4990804 
9.126904e+1, 5.3721464e+1, 46056.543, -387512.3, -1656.0248, -0.00024188047, 0.05054426, 46062.87, 46062.87, 0.0, 2.5005202, 2.4990842 
9.126895e+1, 5.6220514e+1, 43777.11, -388592.9, -2018.671, -0.0038775208, 0.046791244, 43786.53, 43786.53, 0.0, 2.5005162, 2.4990842 
9.126885e+1, 5.8719563e+1, 41494.742, -389674.88, -2381.2974, -0.0075057996, 0.04304172, 41507.89, 41507.89, 0.0, 2.5005124, 2.4990845 
9.1268784e+1, 6.121872e+1, 81404.11, -307960.9, -1923.2141, -0.009230995, 0.043479823, 81413.61, 81413.61, 0.0, 2.5005136, 2.499224 
9.126873e+1, 6.371798e+1, 86487.4, -303691.84, -2477.8535, -0.009027379, 0.046672087, 86503.13, 86503.13, 0.0, 2.5005202, 2.499228 
9.1268677e+1, 6.621724e+1, 90431.32, -301776.9, -2420.3076, -0.008813694, 0.049855754, 90446.26, 90446.26, 0.0, 2.5005271, 2.499228 
9.126862e+1, 6.87165e+1, 94367.42, -299865.75, -2364.8384, -0.008590057, 0.053040057, 94381.6, 94381.6, 0.0, 2.5005338, 2.499228 
9.1268575e+1, 7.121584e+1, 136722.61, -214705.3, -1424.7744, -0.008860473, 0.056416493, 136728.39, 136728.39, 0.0, 2.500537, 2.499373 
9.126851e+1, 7.371523e+1, 137572.8, -212122.36, -2756.8057, -0.010096297, 0.057687674, 137594.53, 137594.53, 0.0, 2.500536, 2.4993777 
9.126843e+1, 7.621462e+1, 137066.78, -212350.0, -2808.78, -0.011318919, 0.058942083, 137089.36, 137089.36, 0.0, 2.500535, 2.4993777 
9.1268367e+1, 7.871401e+1, 136553.75, -212581.0, -2864.829, -0.012525617, 0.060195092, 136577.27, 136577.27, 0.0, 2.5005343, 2.4993777 
9.12683e+1, 8.121346e+1, 179049.0, -127368.19, 2173.1294, -0.015491297, 0.061205637, 179064.42, 179064.42, 0.0, 2.5005376, 2.4995224 
9.1268235e+1, 8.371298e+1, 184904.4, -122120.0, 221.37892, -0.018679045, 0.05996461, 184904.56, 184904.56, 0.0, 2.500545, 2.499528 
9.1268164e+1, 8.621249e+1, 189248.72, -120013.84, 169.59135, -0.021842288, 0.058708422, 189248.81, 189248.81, 0.0, 2.5005524, 2.499528 
9.1268104e+1, 8.8712007e+1, 193593.31, -117907.55, 115.47014, -0.024992395, 0.057451334, 193593.36, 193593.36, 0.0, 2.5005598, 2.499528 
9.126808e+1, 9.1211617e+1, 227542.84, -50899.973, 1704.3127, -0.024300558, 0.060262784, 227553.28, 227553.28, 0.0, 2.5005636, 2.4996412 
9.126804e+1, 9.371128e+1, 228852.05, -47584.438, -148.00005, -0.0244445, 0.061780173, 228852.13, 228852.13, 0.0, 2.5005631, 2.4996471 
9.126799e+1, 9.621094e+1, 228474.33, -47747.67, 804.601, -0.02457739, 0.0632485, 228476.67, 228476.67, 0.0, 2.5005624, 2.4996474 
9.1267943e+1, 9.87106e+1, 228084.66, -47916.67, 1763.3396, -0.024664445, 0.06470918, 228095.92, 228095.92, 0.0, 2.5005617, 2.4996474 
9.377037e+1, 1.2491687e+0, -185767.58, -842397.4, -1105.4387, 0.012554942, 0.00085443776, -185765.72, -185765.72, 0.0, 2.5004914, 2.4983177 
9.377035e+1, 3.7475058e+0, -184657.8, -842221.5, -728.7945, 0.011483913, 0.0025640388, -184656.98, -184656.98, 0.0, 2.5004935, 2.498317 
9.377033e+1, 6.245843e+0, -183322.28, -841575.56, -408.1049, 0.010416024, 0.004274608, -183322.03, -183322.03, 0.0, 2.500496, 2.498317 
9.377031e+1, 8.744181e+0, -181987.42, -840930.0, -87.42322, 0.009351273, 0.005986145, -181987.42, -181987.42, 0.0, 2.5004983, 2.498317 
9.3770295e+1, 1.1242604e+1, -139596.6, -753224.7, -632.90906, 0.009001857, 0.008928496, -139595.94, -139595.94, 0.0, 2.5004985, 2.4984672 
9.377029e+1, 1.3741113e+1, -140197.0, -753111.1, -38.42727, 0.009136919, 0.012751969, -140197.0, -140197.0, 0.0, 2.500497, 2.4984682 
9.377027e+1, 1.6239622e+1, -141046.5, -753514.44, 273.64914, 0.00927497, 0.016578455, -141046.38, -141046.38, 0.0, 2.5004957, 2.4984682 
9.3770266e+1, 1.8738131e+1, -141896.47, -753917.94, 585.7378, 0.009416321, 0.020408368, -141895.92, -141895.92, 0.0, 2.5004942, 2.4984682 
9.377024e+1, 2.12367e+1, -98815.164, -665897.7, -2368.0642, 0.009258654, 0.022772873, -98805.27, -98805.27, 0.0, 2.500496, 2.4986184 
9.3770194e+1, 2.3735325e+1, -95658.58, -663597.3, -1223.4666, 0.008479053, 0.022987077, -95655.945, -95655.945, 0.0, 2.5005004, 2.49862 
9.377016e+1, 2.623395e+1, -92983.96, -662296.5, -573.17804, 0.0077016195, 0.023204554, -92983.39, -92983.39, 0.0, 2.500505, 2.49862 
9.3770117e+1, 2.8732574e+1, -90310.3, -660996.1, 77.10447, 0.006927169, 0.023426933, -90310.29, -90310.29, 0.0, 2.5005095, 2.49862 
9.3770075e+1, 3.1231284e+1, -49398.06, -576924.3, -1696.2208, 0.0060723755, 0.025233664, -49392.605, -49392.605, 0.0, 2.5005105, 2.4987638 
9.377001e+1, 3.373008e+1, -50180.574, -576209.94, -1050.9773, 0.0046665547, 0.027781403, -50178.477, -50178.477, 0.0, 2.500508, 2.4987664 
9.3769956e+1, 3.622887e+1, -51637.645, -576896.0, -972.9096, 0.0032625103, 0.030330392, -51635.844, -51635.844, 0.0, 2.5005054, 2.4987664 
9.376991e+1, 3.8727665e+1, -53095.574, -577582.44, -894.8139, 0.0018619333, 0.032883663, -53094.047, -53094.047, 0.0, 2.500503, 2.4987664 
9.3769854e+1, 4.1226542e+1, -10934.082, -491643.3, -2602.193, 0.0012285063, 0.03687334, -10919.996, -10919.996, 0.0, 2.5005047, 2.498913 
9.376979e+1, 4.3725505e+1, -6473.9233, -488053.47, -1669.971, 0.0010302637, 0.04121123, -6468.1323, -6468.1323, 0.0, 2.500511, 2.4989161 
9.3769735e+1, 4.622447e+1, -2907.3308, -486317.13, -1123.5333, 0.000837018, 0.045548145, -2904.7195, -2904.7195, 0.0, 2.500517, 2.4989161 
9.376968e+1, 4.8723426e+1, 657.51025, -484581.6, -577.17346, 0.00065024005, 0.049889117, 658.1968, 658.1968, 0.0, 2.500523, 2.4989164 
9.376962e+1, 5.1222444e+1, 46563.78, -390207.84, -1708.3113, -0.0001464233, 0.052025188, 46570.465, 46570.465, 0.0, 2.5005243, 2.4990778 
9.3769544e+1, 5.372151e+1, 45423.54, -388905.2, -2088.314, -0.0019182249, 0.050421655, 45433.582, 45433.582, 0.0, 2.5005202, 2.4990819 
9.376946e+1, 5.622058e+1, 43132.69, -389991.06, -2437.2107, -0.0036883065, 0.048812713, 43146.406, 43146.406, 0.0, 2.5005162, 2.4990819 
9.3769383e+1, 5.8719647e+1, 40840.258, -391077.72, -2786.387, -0.0054549095, 0.047206275, 40858.23, 40858.23, 0.0, 2.5005124, 2.4990819 
9.3769324e+1, 6.1218804e+1, 81421.48, -307952.9, -731.211, -0.006917296, 0.04806199, 81422.85, 81422.85, 0.0, 2.5005136, 2.499224 
9.3769264e+1, 6.371805e+1, 86588.32, -303497.7, -1255.9061, -0.008079311, 0.049818948, 86592.37, 86592.37, 0.0, 2.5005202, 2.4992285 
9.3769205e+1, 6.6217303e+1, 90530.38, -301584.03, -1187.9196, -0.009235052, 0.051566545, 90533.984, 90533.984, 0.0, 2.5005271, 2.4992285 
9.3769145e+1, 6.8716544e+1, 94470.18, -299671.5, -1120.1, -0.010384707, 0.05331455, 94473.36, 94473.36, 0.0, 2.5005338, 2.4992285 
9.376909e+1, 7.1215874e+1, 136605.98, -214986.72, -1295.4961, -0.010953949, 0.056131266, 136610.75, 136610.75, 0.0, 2.500537, 2.4993722 
9.3769026e+1, 7.3715264e+1, 137536.22, -212263.77, -2623.075, -0.011233414, 0.057720743, 137555.89, 137555.89, 0.0, 2.500536, 2.4993775 
9.3768966e+1, 7.621466e+1, 137045.88, -212485.9, -2646.296, -0.011503419, 0.059293326, 137065.92, 137065.92, 0.0, 2.5005352, 2.4993775 
9.3768907e+1, 7.871405e+1, 136552.19, -212709.64, -2670.0728, -0.011762256, 0.060864553, 136572.6, 136572.6, 0.0, 2.5005343, 2.4993775 
9.376885e+1, 8.121351e+1, 179002.25, -127607.69, 3655.222, -0.014289514, 0.0622846, 179045.83, 179045.83, 0.0, 2.5005376, 2.499522 
9.3768793e+1, 8.371303e+1, 184921.89, -122217.86, 1725.2615, -0.01760083, 0.06150144, 184931.58, 184931.58, 0.0, 2.500545, 2.4995277 
9.376873e+1, 8.621256e+1, 189252.3, -120120.42, 1706.4165, -0.02089232, 0.06070355, 189261.7, 189261.7, 0.0, 2.5005527, 2.4995277 
9.376867e+1, 8.871207e+1, 193577.6, -118025.44, 1686.9926, -0.02417511, 0.05990548, 193586.72, 193586.72, 0.0, 2.50056, 2.4995277 
9.3768656e+1, 9.121168e+1, 229332.81, -47238.996, 2132.1497, -0.0238381, 0.06261621, 229349.25, 229349.25, 0.0, 2.5005636, 2.4996474 
9.376861e+1, 9.371134e+1, 230654.2, -43842.434, 245.55902, -0.02382379, 0.0632511, 230654.42, 230654.42, 0.0, 2.5005631, 2.4996536 
9.376856e+1, 9.6211e+1, 230241.75, -44026.37, 1209.672, -0.023806976, 0.063837335, 230247.08, 230247.08, 0.0, 2.5005624, 2.4996536 
9.376851e+1, 9.8710656e+1, 229818.44, -44215.535, 2173.155, -0.023758417, 0.06441788, 229835.67, 229835.67, 0.0, 2.5005615, 2.4996538 
9.627084e+1, 1.2491749e+0, -185186.19, -841189.56, -755.5204, 0.011220963, 0.0013790607, -185185.33, -185185.33, 0.0, 2.5004914, 2.4983199 
9.627083e+1, 3.7475246e+0, -184082.78, -841027.2, -384.29672, 0.0099572195, 0.004137868, -184082.56, -184082.56, 0.0, 2.5004935, 2.4983191 
9.627081e+1, 6.245874e+0, -182746.95, -840380.8, -62.591583, 0.008693773, 0.0068975915, -182746.94, -182746.94, 0.0, 2.500496, 2.4983191 
9.627079e+1, 8.7442243e+0, -181411.77, -839734.8, 259.10562, 0.0074306233, 0.0096582305, -181411.67, -181411.67, 0.0, 2.5004983, 2.4983191 
9.6270776e+1, 1.1242646e+1, -139045.1, -752077.4, -867.1007, 0.007256102, 0.012204837, -139043.88, -139043.88, 0.0, 2.5004985, 2.498469 
9.6270776e+1, 1.374114e+1, -139639.02, -751950.75, -261.8721, 0.007935244, 0.014168979, -139638.9, -139638.9, 0.0, 2.500497, 2.49847 
9.627077e+1, 1.6239631e+1, -140488.05, -752353.44, 51.30958, 0.008615575, 0.016136108, -140488.05, -140488.05, 0.0, 2.5004957, 2.49847 
9.627076e+1, 1.8738125e+1, -141337.53, -752756.3, 364.50354, 0.009297417, 0.018106649, -141337.31, -141337.31, 0.0, 2.5004942, 2.49847 
9.627073e+1, 2.1236692e+1, -97653.09, -663481.56, -1686.14, 0.009018323, 0.020099955, -97648.07, -97648.07, 0.0, 2.500496, 2.4986224 
9.627069e+1, 2.3735332e+1, -94472.63, -661132.2, -535.7842, 0.0074369153, 0.021436438, -94472.125, -94472.125, 0.0, 2.5005004, 2.4986243 
9.6270645e+1, 2.623397e+1, -91796.85, -659829.56, 115.99887, 0.005854754, 0.022775698, -91796.82, -91796.82, 0.0, 2.500505, 2.4986243 
9.627061e+1, 2.8732613e+1, -89122.016, -658527.44, 767.77594, 0.0042726863, 0.0241194, -89120.98, -89120.98, 0.0, 2.5005095, 2.4986243 
9.6270555e+1, 3.1231332e+1, -49316.2, -576737.6, -2104.5984, 0.003584282, 0.026693752, -49307.8, -49307.8, 0.0, 2.5005105, 2.4987643 
9.627051e+1, 3.3730134e+1, -50070.168, -575964.1, -1437.421, 0.0033747733, 0.029655652, -50066.24, -50066.24, 0.0, 2.500508, 2.4987667 
9.627046e+1, 3.622893e+1, -51526.547, -576649.06, -1358.1667, 0.0031644518, 0.032618452, -51523.035, -51523.035, 0.0, 2.5005054, 2.498767 
9.627042e+1, 3.8727725e+1, -52983.785, -577334.44, -1278.8845, 0.0029548495, 0.03558516, -52980.664, -52980.664, 0.0, 2.500503, 2.498767 
9.6270365e+1, 4.1226605e+1, -10033.096, -489757.56, -1703.8029, 0.0021758932, 0.039044034, -10027.045, -10027.045, 0.0, 2.5005047, 2.4989161 
9.62703e+1, 4.372555e+1, -5495.861, -486008.44, -755.0742, 0.0004473505, 0.041813545, -5494.6743, -5494.6743, 0.0, 2.500511, 2.4989197 
9.6270233e+1, 4.6224502e+1, -1928.3391, -484271.0, -206.84691, -0.0012809716, 0.044581044, -1928.2505, -1928.2505, 0.0, 2.500517, 2.4989197 
9.6270174e+1, 4.872345e+1, 1637.4308, -482534.38, 341.30258, -0.0030074948, 0.047351908, 1637.6714, 1637.6714, 0.0, 2.500523, 2.4989197 
9.627011e+1, 5.122247e+1, 45803.348, -391757.0, -2326.774, -0.0036941788, 0.049758, 45815.723, 45815.723, 0.0, 2.500524, 2.4990752 
9.627005e+1, 5.372156e+1, 44723.21, -390331.1, -2693.852, -0.0035971801, 0.05029782, 44739.89, 44739.89, 0.0, 2.5005202, 2.4990795 
9.6269983e+1, 5.6220645e+1, 42433.62, -391416.2, -3041.27, -0.0035019445, 0.050831214, 42454.94, 42454.94, 0.0, 2.5005162, 2.4990795 
9.626992e+1, 5.8719724e+1, 40142.45, -392502.03, -3388.9678, -0.0034071133, 0.05136613, 40168.992, 40168.992, 0.0, 2.5005124, 2.4990795 
9.626986e+1, 6.1218894e+1, 81396.7, -307983.5, 256.1027, -0.0046108468, 0.052645538, 81396.875, 81396.875, 0.0, 2.5005136, 2.499224 
9.626979e+1, 6.371812e+1, 86666.32, -303315.28, -247.58844, -0.007138258, 0.052965295, 86666.48, 86666.48, 0.0, 2.5005202, 2.4992287 
9.626972e+1, 6.621735e+1, 90608.42, -301402.03, -177.97658, -0.009663142, 0.053274844, 90608.51, 90608.51, 0.0, 2.5005271, 2.4992287 
9.6269655e+1, 6.871659e+1, 94548.266, -299489.88, -108.53164, -0.0121858055, 0.053584572, 94548.3, 94548.3, 0.0, 2.5005338, 2.4992287 
9.626961e+1, 7.121591e+1, 136442.11, -215305.06, -1417.044, -0.013056801, 0.05584777, 136447.83, 136447.83, 0.0, 2.500537, 2.4993718 
9.6269554e+1, 7.37153e+1, 137445.95, -212431.6, -2762.684, -0.0123790875, 0.057754315, 137467.77, 137467.77, 0.0, 2.500536, 2.4993773 
9.62695e+1, 7.62147e+1, 136955.86, -212655.61, -2784.4243, -0.011695634, 0.05964374, 136978.03, 136978.03, 0.0, 2.5005352, 2.4993773 
9.6269447e+1, 7.8714097e+1, 136462.4, -212881.25, -2806.7202, -0.011005769, 0.06153185, 136484.95, 136484.95, 0.0, 2.5005343, 2.4993773 
9.62694e+1, 8.1213564e+1, 178852.5, -127907.26, 4779.6255, -0.013097369, 0.06336452, 178926.95, 178926.95, 0.0, 2.5005376, 2.4995215 
9.6269345e+1, 8.371309e+1, 184849.33, -122359.44, 2839.6355, -0.016531711, 0.06303792, 184875.58, 184875.58, 0.0, 2.500545, 2.4995275 
9.62693e+1, 8.621261e+1, 189180.0, -120263.84, 2821.818, -0.019950857, 0.06269695, 189205.73, 189205.73, 0.0, 2.5005527, 2.4995275 
9.626923e+1, 8.871214e+1, 193505.58, -118170.72, 2803.4219, -0.023365742, 0.06235653, 193530.78, 193530.78, 0.0, 2.50056, 2.4995275 
9.626922e+1, 9.121175e+1, 231084.88, -43612.035, 2088.4517, -0.02340042, 0.06497567, 231100.75, 231100.75, 0.0, 2.5005639, 2.4996538 
9.626917e+1, 9.37114e+1, 232463.92, -40097.676, 151.92226, -0.023227237, 0.06472456, 232464.02, 232464.02, 0.0, 2.5005631, 2.49966 
9.6269125e+1, 9.621106e+1, 232050.11, -40286.227, 1121.784, -0.023059843, 0.06442504, 232054.73, 232054.73, 0.0, 2.5005624, 2.49966 
9.6269083e+1, 9.8710716e+1, 231625.45, -40480.0, 2091.0159, -0.022874804, 0.06412176, 231641.52, 231641.52, 0.0, 2.5005615, 2.49966 
9.877132e+1, 1.24918126e+0, -185084.1, -840214.3, -425.0655, 0.009887936, 0.0019031246, -185083.81, -185083.81, 0.0, 2.5004904, 2.498322 
9.877131e+1, 3.7475437e+0, -183969.34, -840057.75, -100.022804, 0.008430972, 0.0057100193, -183969.33, -183969.33, 0.0, 2.5004928, 2.498321 
9.8771286e+1, 6.2459064e+0, -182634.63, -839411.7, 181.53986, 0.006971531, 0.009517775, -182634.58, -182634.58, 0.0, 2.5004952, 2.498321 
9.877127e+1, 8.7442684e+0, -181320.28, -838775.44, 462.27304, 0.0055096126, 0.013326392, -181319.95, -181319.95, 0.0, 2.5004973, 2.498321 
9.877126e+1, 1.1242689e+1, -138978.05, -751175.7, -1288.1781, 0.0055125393, 0.015481947, -138975.34, -138975.34, 0.0, 2.5004978, 2.498471 
9.8771256e+1, 1.3741165e+1, -139523.61, -751006.25, -715.7333, 0.0067349393, 0.015584546, -139522.78, -139522.78, 0.0, 2.5004964, 2.4984722 
9.8771256e+1, 1.6239642e+1, -140351.39, -751398.3, -446.42133, 0.007956755, 0.015690077, -140351.08, -140351.08, 0.0, 2.500495, 2.4984722 
9.877125e+1, 1.8738118e+1, -141194.8, -751797.9, -177.96245, 0.009178327, 0.015798995, -141194.75, -141194.75, 0.0, 2.5004935, 2.4984722 
9.8771226e+1, 2.1236685e+1, -96915.97, -661284.7, -1378.6157, 0.008778439, 0.01742732, -96912.6, -96912.6, 0.0, 2.5004952, 2.4986267 
9.877118e+1, 2.373534e+1, -93715.4, -658876.56, -285.7927, 0.006394049, 0.019883666, -93715.26, -93715.26, 0.0, 2.5004997, 2.4986286 
9.877113e+1, 2.6233995e+1, -91069.97, -657587.5, 299.62396, 0.004006059, 0.022342255, -91069.81, -91069.81, 0.0, 2.5005043, 2.4986286 
9.877109e+1, 2.873265e+1, -88447.234, -656309.3, 880.604, 0.0016153522, 0.02480482, -88445.87, -88445.87, 0.0, 2.5005088, 2.4986286 
9.877104e+1, 3.1231382e+1, -49754.57, -576822.75, -3157.258, 0.0010992662, 0.028153151, -49735.656, -49735.656, 0.0, 2.5005097, 2.4987645 
9.8771006e+1, 3.3730185e+1, -50412.07, -575939.2, -2519.5125, 0.0020850946, 0.03152749, -50399.992, -50399.992, 0.0, 2.500507, 2.4987671 
9.8770964e+1, 3.6228988e+1, -51840.605, -576610.06, -2499.2595, 0.0030675605, 0.034902316, -51828.703, -51828.703, 0.0, 2.5005047, 2.4987671 
9.8770934e+1, 3.872779e+1, -53300.04, -577295.9, -2484.7632, 0.004048083, 0.03828068, -53288.258, -53288.258, 0.0, 2.500502, 2.4987671 
9.8770875e+1, 4.122666e+1, -9595.408, -488108.7, -1710.1687, 0.0031193767, 0.0412135, -9589.297, -9589.297, 0.0, 2.500504, 2.4989195 
9.8770803e+1, 4.37256e+1, -5034.095, -484215.66, -849.38196, -0.00013992503, 0.042413145, -5032.59, -5032.59, 0.0, 2.50051, 2.4989233 
9.877073e+1, 4.6224537e+1, -1561.5809, -482523.47, -408.85095, -0.0034036334, 0.04360969, -1561.2334, -1561.2334, 0.0, 2.500516, 2.4989233 
9.877066e+1, 4.872347e+1, 1870.2032, -480850.9, 24.519762, -0.006670095, 0.044808906, 1870.2045, 1870.2045, 0.0, 2.500522, 2.4989233 
9.87706e+1, 5.12225e+1, 44268.723, -393699.28, -4284.389, -0.0072429315, 0.047490682, 44310.63, 44310.63, 0.0, 2.5005229, 2.4990723 
9.8770547e+1, 5.37216e+1, 43350.473, -392084.66, -4718.945, -0.005277646, 0.050171807, 43401.605, 43401.605, 0.0, 2.500519, 2.499077 
9.87705e+1, 5.6220704e+1, 41096.867, -393152.3, -5156.0103, -0.0033174607, 0.05284542, 41158.08, 41158.08, 0.0, 2.5005152, 2.499077 
9.877045e+1, 5.871981e+1, 38785.25, -394247.97, -5599.4966, -0.0013613715, 0.055519577, 38857.645, 38857.645, 0.0, 2.5005112, 2.499077 
9.877039e+1, 6.1218977e+1, 80658.38, -308379.1, -467.36096, -0.002310517, 0.057228506, 80658.945, 80658.945, 0.0, 2.5005124, 2.499224 
9.8770314e+1, 6.37182e+1, 85986.14, -303501.84, -1060.2014, -0.0062030125, 0.056109052, 85989.02, 85989.02, 0.0, 2.500519, 2.499229 
9.877025e+1, 6.6217417e+1, 89824.54, -301639.03, -1097.6436, -0.010096518, 0.05497846, 89827.62, 89827.62, 0.0, 2.5005255, 2.499229 
9.877017e+1, 6.871663e+1, 93612.92, -299800.28, -1134.934, -0.013991513, 0.05384782, 93616.195, 93616.195, 0.0, 2.5005322, 2.4992292 
9.877012e+1, 7.121595e+1, 135221.33, -216149.22, -3662.368, -0.015167088, 0.055563524, 135259.48, 135259.48, 0.0, 2.500535, 2.4993713 
9.877008e+1, 7.371535e+1, 136392.58, -213066.47, -5087.3384, -0.01353159, 0.057785645, 136466.63, 136466.63, 0.0, 2.5005343, 2.4993768 
9.8770034e+1, 7.621474e+1, 135930.39, -213279.13, -5165.5586, -0.01189387, 0.05999034, 136006.78, 136006.78, 0.0, 2.5005336, 2.4993768 
9.8769987e+1, 7.8714144e+1, 135406.84, -213521.34, -5238.324, -0.010254336, 0.06219376, 135485.47, 135485.47, 0.0, 2.5005326, 2.499377 
9.876995e+1, 8.121362e+1, 177693.81, -128704.73, 3577.8994, -0.011912933, 0.06444196, 177735.6, 177735.6, 0.0, 2.500536, 2.499521 
9.87699e+1, 8.3713144e+1, 183729.44, -123007.33, 1611.0265, -0.015469666, 0.064570405, 183737.89, 183737.89, 0.0, 2.5005434, 2.4995272 
9.876985e+1, 8.621267e+1, 187949.0, -120967.234, 1583.6366, -0.019015577, 0.06468476, 187957.13, 187957.13, 0.0, 2.5005505, 2.4995272 
9.876981e+1, 8.87122e+1, 192094.61, -118962.77, 1560.281, -0.022561463, 0.064800374, 192102.42, 192102.42, 0.0, 2.5005577, 2.4995272 
9.876979e+1, 9.1211814e+1, 231489.98, -40649.71, -275.87637, -0.022984596, 0.06733697, 231490.27, 231490.27, 0.0, 2.5005615, 2.4996598 
9.876974e+1, 9.3711466e+1, 233099.33, -36919.51, -2190.094, -0.022652132, 0.06619641, 233117.08, 233117.08, 0.0, 2.500561, 2.4996665 
9.87697e+1, 9.6211123e+1, 232717.7, -37096.49, -1132.1007, -0.02233312, 0.06500748, 232722.45, 232722.45, 0.0, 2.5005603, 2.4996665 
9.876965e+1, 9.8710775e+1, 232195.16, -37341.324, -71.31836, -0.022010177, 0.063816674, 232195.19, 232195.19, 0.0, 2.5005596, 2.4996665 
1.012718e+2, 1.2491822e+0, -185142.28, -839713.9, -231.45361, 0.007813527, 0.0019414441, -185142.2, -185142.2, 0.0, 2.50049, 2.4983232 
1.0127178e+2, 3.7475467e+0, -184676.9, -839880.94, -74.367165, 0.0066870884, 0.0058246995, -184676.89, -184676.89, 0.0, 2.5004911, 2.4983222 
1.0127176e+2, 6.245911e+0, -183967.34, -839539.6, 48.30573, 0.005566228, 0.009708445, -183967.33, -183967.33, 0.0, 2.5004923, 2.4983222 
1.01271756e+2, 8.744276e+0, -183258.42, -839198.6, 170.95668, 0.0044509466, 0.01359268, -183258.38, -183258.38, 0.0, 2.5004935, 2.4983222 
1.0127174e+2, 1.1242697e+1, -140714.81, -751693.44, -2105.72, 0.0045486973, 0.015762616, -140707.56, -140707.56, 0.0, 2.5004945, 2.4984717 
1.0127174e+2, 1.3741174e+1, -140095.72, -750958.7, -1781.1061, 0.005616467, 0.015809542, -140090.53, -140090.53, 0.0, 2.500495, 2.498473 
1.0127173e+2, 1.6239649e+1, -139750.05, -750791.7, -1763.2941, 0.006688107, 0.015857693, -139744.95, -139744.95, 0.0, 2.5004957, 2.498473 
1.0127173e+2, 1.8738127e+1, -139404.4, -750624.75, -1745.9011, 0.0077639455, 0.015907533, -139399.42, -139399.42, 0.0, 2.5004961, 2.498473 
1.01271704e+2, 2.1236694e+1, -95048.85, -659518.75, -2785.31, 0.007292729, 0.017573886, -95035.11, -95035.11, 0.0, 2.5004973, 2.4986286 
1.0127167e+2, 2.3735353e+1, -93552.72, -657925.3, -2176.2334, 0.0048944764, 0.020168738, -93544.33, -93544.33, 0.0, 2.500499, 2.4986305 
1.0127162e+2, 2.6234013e+1, -92607.33, -657473.06, -2076.1592, 0.002501946, 0.022765148, -92599.695, -92599.695, 0.0, 2.5005007, 2.4986305 
1.0127158e+2, 2.8732672e+1, -91662.17, -657020.94, -1977.1885, 0.00011607542, 0.02536485, -91655.26, -91655.26, 0.0, 2.5005023, 2.4986305 
1.0127154e+2, 3.1231403e+1, -52458.258, -577813.25, -6511.3457, -0.00029783993, 0.028735502, -52377.566, -52377.566, 0.0, 2.5005047, 2.4987652 
1.012715e+2, 3.3730206e+1, -50001.86, -575384.4, -5526.957, 0.0009250062, 0.031998046, -49943.723, -49943.723, 0.0, 2.5005076, 2.4987679 
1.01271465e+2, 3.622901e+1, -48330.32, -574581.75, -5158.248, 0.0021554725, 0.03526109, -48279.76, -48279.76, 0.0, 2.5005105, 2.4987679 
1.0127143e+2, 3.8727814e+1, -46660.305, -573779.9, -4790.24, 0.0033948452, 0.038527742, -46616.777, -46616.777, 0.0, 2.5005133, 2.4987679 
1.01271376e+2, 4.1226685e+1, -4146.2905, -485747.34, -4000.0308, 0.002506279, 0.04142223, -4113.07, -4113.07, 0.0, 2.5005136, 2.4989188 
1.0127131e+2, 4.3725622e+1, -4297.225, -484051.4, -3958.0613, -0.0009304276, 0.042640742, -4264.5728, -4264.5728, 0.0, 2.5005114, 2.4989228 
1.01271234e+2, 4.6224555e+1, -5560.848, -484660.44, -4342.9697, -0.004357283, 0.043856002, -5521.483, -5521.483, 0.0, 2.5005093, 2.4989228 
1.0127117e+2, 4.8723495e+1, -6826.3833, -485270.44, -4726.6655, -0.0077726375, 0.04507386, -6779.692, -6779.692, 0.0, 2.500507, 2.4989228 
1.012711e+2, 5.122252e+1, 36754.465, -397926.56, -8946.493, -0.008369884, 0.047852986, 36938.52, 36938.52, 0.0, 2.5005105, 2.4990711 
1.01271056e+2, 5.3721625e+1, 43491.297, -392524.38, -8615.775, -0.0062405574, 0.0506793, 43661.48, 43661.48, 0.0, 2.5005198, 2.499076 
1.0127101e+2, 5.622073e+1, 48874.2, -389930.75, -8295.989, -0.0040937215, 0.05349908, 49030.984, 49030.984, 0.0, 2.500529, 2.499076 
1.0127097e+2, 5.871983e+1, 54252.9, -387339.2, -7976.0767, -0.0019286805, 0.056320574, 54396.914, 54396.914, 0.0, 2.5005383, 2.499076 
1.0127092e+2, 6.1219e+1, 96477.836, -301287.06, -2767.3013, -0.0026705198, 0.05809719, 96497.09, 96497.09, 0.0, 2.50054, 2.4992228 
1.0127085e+2, 6.371822e+1, 94806.18, -299650.13, -3323.001, -0.006329036, 0.056921974, 94834.164, 94834.164, 0.0, 2.5005345, 2.4992282 
1.0127077e+2, 6.621744e+1, 91605.03, -301188.06, -3339.3765, -0.009970766, 0.055736363, 91633.42, 91633.42, 0.0, 2.500529, 2.4992282 
1.012707e+2, 6.871665e+1, 88400.234, -302727.75, -3357.38, -0.013596386, 0.054551683, 88429.055, 88429.055, 0.0, 2.5005236, 2.4992282 
1.0127065e+2, 7.1215963e+1, 129304.76, -220000.97, -5267.342, -0.014904747, 0.056300167, 129384.164, 129384.164, 0.0, 2.500526, 2.499369 
1.0127061e+2, 7.3715365e+1, 137430.89, -213471.67, -6912.9224, -0.013647465, 0.05859474, 137567.03, 137567.03, 0.0, 2.5005372, 2.4993749 
1.0127057e+2, 7.621476e+1, 143918.86, -210344.84, -7238.8433, -0.012369302, 0.0608729, 144066.72, 144066.72, 0.0, 2.5005484, 2.4993749 
1.01270534e+2, 7.8714156e+1, 150404.34, -207219.19, -7573.5835, -0.011071794, 0.06315113, 150564.67, 150564.67, 0.0, 2.5005593, 2.4993749 
1.0127049e+2, 8.121363e+1, 191824.8, -122153.12, 257.82047, -0.012339402, 0.06547529, 191825.02, 191825.02, 0.0, 2.5005605, 2.4995203 
1.0127045e+2, 8.3713156e+1, 188254.77, -120987.984, -1643.8607, -0.014827838, 0.065653466, 188263.5, 188263.5, 0.0, 2.5005512, 2.4995267 
1.01270415e+2, 8.621268e+1, 182876.11, -123569.97, -1594.7153, -0.017285177, 0.06581354, 182884.4, 182884.4, 0.0, 2.500542, 2.499527 
1.0127038e+2, 8.871221e+1, 177492.31, -126154.43, -1548.7172, -0.019721664, 0.06597098, 177500.2, 177500.2, 0.0, 2.5005326, 2.499527 
1.0127036e+2, 9.121183e+1, 217998.02, -45777.96, -2282.7163, -0.02043981, 0.0683484, 218017.77, 218017.77, 0.0, 2.500537, 2.4996629 
1.0127032e+2, 9.371148e+1, 230850.97, -36598.234, -5255.24, -0.020920241, 0.06666869, 230954.19, 230954.19, 0.0, 2.5005558, 2.4996696 
1.0127027e+2, 9.6211135e+1, 241826.81, -31302.227, -5295.569, -0.021372302, 0.06493329, 241929.45, 241929.45, 0.0, 2.5005746, 2.4996696 
1.01270236e+2, 9.871079e+1, 252788.1, -26013.236, -5336.7354, -0.021785444, 0.063190006, 252890.2, 252890.2, 0.0, 2.5005934, 2.4996698 
1.0377225e+2, 1.2491783e+0, -184895.03, -839232.44, -39.72123, 0.0047453595, 0.0014999014, -184895.03, -184895.03, 0.0, 2.50049, 2.498324 
1.0377225e+2, 3.7475348e+0, -184432.45, -839403.94, 110.554955, 0.0044884994, 0.00450025, -184432.44, -184432.44, 0.0, 2.5004911, 2.498323 
1.03772245e+2, 6.245891e+0, -183723.77, -839062.94, 235.752, 0.0042340355, 0.007501326, -183723.69, -183723.69, 0.0, 2.5004923, 2.498323 
1.03772245e+2, 8.7442476e+0, -183015.8, -838722.4, 361.09784, 0.003981968, 0.01050313, -183015.6, -183015.6, 0.0, 2.5004935, 2.498323 
1.0377224e+2, 1.12426735e+1, -140659.86, -751615.1, -2010.0718, 0.004092615, 0.013062781, -140653.25, -140653.25, 0.0, 2.5004945, 2.498472 
1.0377222e+2, 1.3741167e+1, -140036.39, -750876.06, -1685.0896, 0.0043539437, 0.014785495, -140031.75, -140031.75, 0.0, 2.5004952, 2.498473 
1.03772216e+2, 1.6239661e+1, -139688.3, -750708.2, -1663.1467, 0.004617549, 0.016509375, -139683.77, -139683.77, 0.0, 2.5004957, 2.498473 
1.037722e+2, 1.8738154e+1, -139340.64, -750540.56, -1641.2069, 0.0048837126, 0.018234877, -139336.23, -139336.23, 0.0, 2.5004964, 2.498473 
1.0377218e+2, 2.1236727e+1, -94827.57, -659103.8, -2528.7554, 0.0043937573, 0.020321902, -94816.234, -94816.234, 0.0, 2.5004973, 2.4986293 
1.0377214e+2, 2.3735379e+1, -93328.92, -657506.1, -1905.7686, 0.002755083, 0.022098234, -93322.484, -93322.484, 0.0, 2.500499, 2.4986312 
1.0377211e+2, 2.623403e+1, -92381.58, -657052.6, -1795.4741, 0.0011198208, 0.023876036, -92375.87, -92375.87, 0.0, 2.5005007, 2.4986312 
1.03772074e+2, 2.873268e+1, -91434.945, -656599.5, -1685.1514, -0.0005110388, 0.025656966, -91429.92, -91429.92, 0.0, 2.5005023, 2.4986312 
1.0377204e+2, 3.1231406e+1, -51768.676, -576427.5, -6004.92, -0.00088363845, 0.028336292, -51699.957, -51699.957, 0.0, 2.5005047, 2.4987676 
1.0377199e+2, 3.3730206e+1, -49273.73, -573916.4, -5025.964, -0.00030028995, 0.031014109, -49225.586, -49225.586, 0.0, 2.5005076, 2.4987705 
1.03771955e+2, 3.6229008e+1, -47602.316, -573113.0, -4641.225, 0.00028751531, 0.033691958, -47561.33, -47561.33, 0.0, 2.5005105, 2.4987705 
1.0377192e+2, 3.8727805e+1, -45932.184, -572310.25, -4256.4395, 0.0008809109, 0.03637305, -45897.766, -45897.766, 0.0, 2.5005133, 2.4987705 
1.03771865e+2, 4.1226685e+1, -4860.3145, -487265.56, -4228.924, 0.00021477402, 0.039734684, -4823.245, -4823.245, 0.0, 2.5005136, 2.4989161 
1.03771806e+2, 4.372563e+1, -4981.039, -485501.06, -4155.5215, -0.0020921691, 0.042544045, -4945.105, -4945.105, 0.0, 2.5005114, 2.4989202 
1.03771746e+2, 4.6224582e+1, -6244.9956, -486110.06, -4522.8745, -0.0043934644, 0.045350354, -6202.37, -6202.37, 0.0, 2.5005093, 2.4989202 
1.0377167e+2, 4.8723534e+1, -7510.422, -486719.78, -4890.233, -0.0066875643, 0.048159223, -7460.5234, -7460.5234, 0.0, 2.500507, 2.4989202 
1.0377162e+2, 5.1222557e+1, 37288.0, -396838.7, -7397.9146, -0.0074435086, 0.05091647, 37414.03, 37414.03, 0.0, 2.5005105, 2.4990728 
1.03771575e+2, 5.372164e+1, 44098.176, -391281.16, -7034.8735, -0.0067426274, 0.052028842, 44211.816, 44211.816, 0.0, 2.5005198, 2.499078 
1.0377152e+2, 5.622074e+1, 49479.58, -388687.78, -6701.176, -0.0060313717, 0.05313456, 49582.04, 49582.04, 0.0, 2.500529, 2.499078 
1.0377148e+2, 5.8719826e+1, 54858.066, -386095.8, -6367.587, -0.005309275, 0.05424213, 54950.0, 54950.0, 0.0, 2.5005383, 2.499078 
1.03771426e+2, 6.121899e+1, 96387.42, -301492.2, -3395.7927, -0.005920316, 0.055800114, 96416.41, 96416.41, 0.0, 2.50054, 2.4992223 
1.0377136e+2, 6.3718224e+1, 94783.24, -299726.97, -3929.975, -0.007786379, 0.055967715, 94822.39, 94822.39, 0.0, 2.5005345, 2.499228 
1.0377131e+2, 6.621745e+1, 91588.37, -301263.6, -3936.3838, -0.009642528, 0.05612488, 91627.805, 91627.805, 0.0, 2.500529, 2.499228 
1.0377125e+2, 6.871668e+1, 88390.44, -302801.72, -3943.1067, -0.011489723, 0.056282748, 88430.18, 88430.18, 0.0, 2.5005236, 2.499228 
1.037712e+2, 7.1216005e+1, 128700.41, -221313.5, -3395.618, -0.012788343, 0.05868943, 128733.34, 128733.34, 0.0, 2.500526, 2.4993668 
1.0377115e+2, 7.37154e+1, 136879.25, -214684.64, -4966.5825, -0.01317244, 0.06089491, 136949.4, 136949.4, 0.0, 2.5005372, 2.4993727 
1.03771105e+2, 7.621479e+1, 143371.22, -211556.75, -5269.6836, -0.013543508, 0.06308348, 143449.44, 143449.44, 0.0, 2.5005484, 2.4993727 
1.0377106e+2, 7.8714186e+1, 149858.6, -208431.08, -5573.2817, -0.013904261, 0.0652719, 149945.27, 149945.27, 0.0, 2.5005596, 2.4993727 
1.0377102e+2, 8.1213653e+1, 191971.63, -121941.84, -777.5187, -0.014855681, 0.06739985, 191973.55, 191973.55, 0.0, 2.5005605, 2.4995208 
1.03771e+2, 8.371318e+1, 188442.33, -120709.45, -2672.273, -0.015128385, 0.06728805, 188465.44, 188465.44, 0.0, 2.5005515, 2.4995272 
1.0377097e+2, 8.6212707e+1, 183071.86, -123290.81, -2593.6438, -0.015382548, 0.06715945, 183093.81, 183093.81, 0.0, 2.5005422, 2.4995272 
1.0377095e+2, 8.8712233e+1, 177693.8, -125875.82, -2515.659, -0.015627455, 0.067029394, 177714.64, 177714.64, 0.0, 2.5005329, 2.4995272 
1.03770934e+2, 9.1211843e+1, 218097.69, -45732.42, 901.19586, -0.016574258, 0.06920484, 218100.77, 218100.77, 0.0, 2.500537, 2.4996629 
1.037709e+2, 9.3711495e+1, 230935.22, -36613.684, -1928.4109, -0.018778665, 0.06731912, 230949.11, 230949.11, 0.0, 2.500556, 2.4996696 
1.0377085e+2, 9.621114e+1, 241930.31, -31311.988, -1948.06, -0.02096573, 0.06537968, 241944.2, 241944.2, 0.0, 2.5005748, 2.4996696 
1.03770815e+2, 9.8710793e+1, 252913.55, -26016.004, -1968.3055, -0.023132456, 0.063435, 252927.44, 252927.44, 0.0, 2.5005937, 2.4996696 
1.0627271e+2, 1.24917425e+0, -184668.45, -838761.06, 151.39532, 0.0016773881, 0.0010578888, -184668.42, -184668.42, 0.0, 2.50049, 2.4983246 
1.0627272e+2, 3.7475225e+0, -184209.05, -838937.94, 293.5797, 0.0022905197, 0.00317439, -184208.9, -184208.9, 0.0, 2.5004911, 2.498324 
1.0627273e+2, 6.245871e+0, -183501.08, -838597.3, 419.90686, 0.0029028647, 0.005291857, -183500.81, -183500.81, 0.0, 2.5004923, 2.498324 
1.06272735e+2, 8.7442195e+0, -182793.81, -838256.94, 546.38275, 0.0035144235, 0.0074102897, -182793.36, -182793.36, 0.0, 2.5004935, 2.498324 
1.0627273e+2, 1.124265e+1, -140633.14, -751560.7, -1919.8545, 0.0036358621, 0.010364798, -140627.11, -140627.11, 0.0, 2.5004945, 2.498472 
1.06272705e+2, 1.374116e+1, -140002.86, -750806.8, -1598.4551, 0.0030913444, 0.013761007, -139998.67, -139998.67, 0.0, 2.5004952, 2.4984732 
1.0627269e+2, 1.623967e+1, -139655.36, -750639.56, -1575.4414, 0.0025475153, 0.017158305, -139651.3, -139651.3, 0.0, 2.5004957, 2.4984732 
1.0627267e+2, 1.873818e+1, -139308.31, -750472.5, -1552.4308, 0.0020046043, 0.020557161, -139304.38, -139304.38, 0.0, 2.5004964, 2.4984732 
1.06272645e+2, 2.123676e+1, -94647.06, -658722.06, -2294.0579, 0.0014924002, 0.023071142, -94637.734, -94637.734, 0.0, 2.5004973, 2.4986298 
1.0627262e+2, 2.3735403e+1, -93138.79, -657103.94, -1664.4081, 0.0006133375, 0.024026943, -93133.88, -93133.88, 0.0, 2.500499, 2.498632 
1.062726e+2, 2.6234046e+1, -92191.49, -656650.1, -1552.9647, -0.00026460434, 0.02498409, -92187.22, -92187.22, 0.0, 2.5005007, 2.498632 
1.0627257e+2, 2.873269e+1, -91244.9, -656196.7, -1441.493, -0.0011404012, 0.025944203, -91241.22, -91241.22, 0.0, 2.5005023, 2.498632 
1.0627253e+2, 3.1231412e+1, -51123.125, -575075.4, -5560.465, -0.0014654108, 0.027937654, -51064.12, -51064.12, 0.0, 2.5005047, 2.4987698 
1.0627249e+2, 3.373021e+1, -48580.6, -572465.7, -4599.2383, -0.0015222857, 0.030029401, -48540.227, -48540.227, 0.0, 2.5005076, 2.4987729 
1.0627245e+2, 3.6229002e+1, -46908.51, -571661.2, -4213.144, -0.0015779135, 0.032120667, -46874.688, -46874.688, 0.0, 2.5005105, 2.4987729 
1.0627241e+2, 3.87278e+1, -45237.703, -570857.3, -3827.0034, -0.0016312676, 0.034214806, -45209.84, -45209.84, 0.0, 2.5005133, 2.4987729 
1.0627236e+2, 4.1226682e+1, -5610.789, -488810.06, -4578.576, -0.0020811376, 0.038048457, -5567.408, -5567.408, 0.0, 2.5005136, 2.4989135 
1.0627231e+2, 4.3725643e+1, -5692.1978, -486964.34, -4489.8345, -0.003258838, 0.042447194, -5650.3154, -5650.3154, 0.0, 2.5005114, 2.4989178 
1.0627226e+2, 4.622461e+1, -6955.695, -487572.88, -4855.6113, -0.004435035, 0.046843037, -6906.6445, -6906.6445, 0.0, 2.5005093, 2.4989178 
1.0627219e+2, 4.8723572e+1, -8220.661, -488182.13, -5221.394, -0.005608342, 0.051241394, -8163.8657, -8163.8657, 0.0, 2.500507, 2.4989178 
1.0627214e+2, 5.122259e+1, 37788.82, -395777.88, -6032.4946, -0.006512849, 0.05398224, 37872.74, 37872.74, 0.0, 2.5005105, 2.4990747 
1.0627209e+2, 5.3721666e+1, 44680.98, -390050.06, -5647.3086, -0.0072407527, 0.05337875, 44754.33, 44754.33, 0.0, 2.5005198, 2.4990802 
1.06272034e+2, 5.6220746e+1, 50062.77, -387456.0, -5310.84, -0.00796553, 0.052768424, 50127.227, 50127.227, 0.0, 2.500529, 2.4990802 
1.0627198e+2, 5.871982e+1, 55441.65, -384863.38, -4974.48, -0.008686831, 0.052160088, 55497.84, 55497.84, 0.0, 2.5005383, 2.4990802 
1.0627194e+2, 6.121898e+1, 96262.984, -301727.9, -4246.947, -0.0091766985, 0.05350644, 96308.3, 96308.3, 0.0, 2.50054, 2.4992218 
1.0627188e+2, 6.371823e+1, 94728.52, -299819.75, -4766.9023, -0.00924962, 0.05501496, 94786.1, 94786.1, 0.0, 2.5005345, 2.4992278 
1.0627183e+2, 6.621747e+1, 91533.766, -301358.03, -4770.7515, -0.009319384, 0.05651289, 91591.69, 91591.69, 0.0, 2.500529, 2.4992278 
1.0627179e+2, 6.871671e+1, 88335.97, -302897.8, -4774.914, -0.009387347, 0.05801129, 88394.234, 88394.234, 0.0, 2.5005236, 2.4992278 
1.06271744e+2, 7.121604e+1, 128039.44, -222664.6, -1779.7402, -0.010674927, 0.061081447, 128048.47, 128048.47, 0.0, 2.500526, 2.4993644 
1.0627169e+2, 7.371543e+1, 136272.95, -215924.55, -3289.511, -0.012699977, 0.06319627, 136303.67, 136303.67, 0.0, 2.5005372, 2.4993706 
1.0627165e+2, 7.621482e+1, 142765.92, -212797.03, -3589.6213, -0.014719865, 0.06529361, 142802.16, 142802.16, 0.0, 2.5005484, 2.4993706 
1.06271595e+2, 7.8714216e+1, 149254.31, -209671.72, -3890.2288, -0.016738467, 0.06739058, 149296.48, 149296.48, 0.0, 2.5005596, 2.4993706 
1.0627156e+2, 8.1213677e+1, 192049.34, -121775.13, -2154.4265, -0.01737581, 0.06932563, 192064.13, 192064.13, 0.0, 2.5005605, 2.499521 
1.0627155e+2, 8.3713204e+1, 188558.84, -120465.77, -4068.5703, -0.015432296, 0.06892219, 188612.4, 188612.4, 0.0, 2.5005515, 2.4995277 
1.06271535e+2, 8.6212724e+1, 183188.5, -123050.34, -3986.433, -0.013482755, 0.068503186, 183240.39, 183240.39, 0.0, 2.5005422, 2.4995277 
1.0627152e+2, 8.871225e+1, 177810.56, -125638.58, -3904.9397, -0.01153556, 0.0680839, 177860.81, 177860.81, 0.0, 2.5005329, 2.4995277 
1.0627151e+2, 9.121186e+1, 218096.81, -45749.85, 3645.0657, -0.012716292, 0.07006607, 218147.16, 218147.16, 0.0, 2.500537, 2.4996629 
1.0627147e+2, 9.371151e+1, 230910.53, -36682.19, 943.2772, -0.01664464, 0.0679722, 230913.86, 230913.86, 0.0, 2.500556, 2.4996693 
1.0627143e+2, 9.621116e+1, 241904.4, -31384.656, 930.26074, -0.02056659, 0.06582639, 241907.56, 241907.56, 0.0, 2.5005748, 2.4996693 
1.0627139e+2, 9.87108e+1, 252886.4, -26092.836, 916.64777, -0.024486784, 0.06367801, 252889.42, 252889.42, 0.0, 2.5005937, 2.4996693 
1.0877318e+2, 1.24917015e+0, -184565.45, -838350.56, 324.18634, -0.0013888105, 0.0006154458, -184565.28, -184565.28, 0.0, 2.5004897, 2.4983256 
1.08773194e+2, 3.7475106e+0, -184067.13, -838513.25, 420.8655, 0.00009441536, 0.0018472417, -184066.86, -184066.86, 0.0, 2.500491, 2.4983246 
1.0877321e+2, 6.245851e+0, -183355.55, -838170.8, 510.4956, 0.0015738035, 0.0030802442, -183355.14, -183355.14, 0.0, 2.500492, 2.4983246 
1.08773224e+2, 8.744191e+0, -182682.95, -837847.1, 599.7572, 0.003049354, 0.0043144533, -182682.4, -182682.4, 0.0, 2.5004933, 2.4983246 
1.0877322e+2, 1.1242626e+1, -140730.48, -751577.44, -1995.1934, 0.0031794843, 0.007668925, -140723.97, -140723.97, 0.0, 2.5004942, 2.4984722 
1.08773194e+2, 1.3741153e+1, -140050.44, -750778.75, -1711.3766, 0.0018297145, 0.012736173, -140045.64, -140045.64, 0.0, 2.500495, 2.4984732 
1.08773164e+2, 1.6239679e+1, -139682.39, -750601.94, -1721.2114, 0.00047910484, 0.017804425, -139677.55, -139677.55, 0.0, 2.5004957, 2.4984732 
1.0877314e+2, 1.8738207e+1, -139331.13, -750433.2, -1732.24, -0.00087217207, 0.022874169, -139326.2, -139326.2, 0.0, 2.5004961, 2.4984732 
1.0877312e+2, 2.1236789e+1, -94527.85, -658384.9, -2371.3018, -0.0014101381, 0.02582131, -94517.88, -94517.88, 0.0, 2.5004973, 2.4986305 
1.08773105e+2, 2.3735426e+1, -93006.73, -656732.1, -1785.764, -0.0015296635, 0.025954582, -93001.07, -93001.07, 0.0, 2.500499, 2.4986327 
1.0877308e+2, 2.6234064e+1, -92084.99, -656290.4, -1726.722, -0.001650277, 0.026089039, -92079.7, -92079.7, 0.0, 2.5005004, 2.4986327 
1.0877306e+2, 2.87327e+1, -91184.28, -655858.75, -1670.1652, -0.0017709385, 0.026226306, -91179.336, -91179.336, 0.0, 2.500502, 2.4986327 
1.0877303e+2, 3.1231415e+1, -50625.957, -573809.25, -5653.6226, -0.002042075, 0.027539324, -50564.87, -50564.87, 0.0, 2.5005045, 2.4987721 
1.08772986e+2, 3.373021e+1, -48004.223, -571073.9, -4783.5874, -0.002739897, 0.029043607, -47960.477, -47960.477, 0.0, 2.5005074, 2.4987755 
1.0877294e+2, 3.6229e+1, -46328.348, -570266.94, -4476.0215, -0.0034396523, 0.030546844, -46290.113, -46290.113, 0.0, 2.5005102, 2.4987755 
1.08772896e+2, 3.8727796e+1, -44674.758, -569470.7, -4173.3286, -0.004140375, 0.032052577, -44641.57, -44641.57, 0.0, 2.500513, 2.4987755 
1.0877285e+2, 4.1226682e+1, -6490.564, -490428.1, -5783.877, -0.0043801544, 0.036362946, -6421.447, -6421.447, 0.0, 2.5005133, 2.498911 
1.0877281e+2, 4.3725657e+1, -6503.0034, -488478.7, -5754.7993, -0.0044293017, 0.042349324, -6434.301, -6434.301, 0.0, 2.5005112, 2.4989152 
1.0877276e+2, 4.6224633e+1, -7772.475, -489090.03, -6199.7207, -0.0044809314, 0.048332877, -7692.6313, -7692.6313, 0.0, 2.500509, 2.4989152 
1.0877271e+2, 4.872361e+1, -9074.303, -489716.94, -6650.17, -0.0045338767, 0.054318883, -8982.309, -8982.309, 0.0, 2.5005069, 2.4989152 
1.0877266e+2, 5.1222634e+1, 38089.027, -394828.03, -5867.7524, -0.0055767535, 0.057048626, 38168.543, 38168.543, 0.0, 2.5005102, 2.4990766 
1.08772606e+2, 5.372169e+1, 44997.875, -388950.78, -5572.3804, -0.007733659, 0.054727368, 45069.418, 45069.418, 0.0, 2.5005193, 2.499082 
1.08772546e+2, 5.622075e+1, 50261.62, -386413.22, -5350.1143, -0.009894653, 0.05239895, 50327.16, 50327.16, 0.0, 2.5005283, 2.499082 
1.0877249e+2, 5.8719814e+1, 55476.047, -383899.44, -5130.76, -0.012059386, 0.050072614, 55535.953, 55535.953, 0.0, 2.5005374, 2.4990823 
1.0877244e+2, 6.1218977e+1, 95525.76, -302276.0, -6752.7754, -0.012437659, 0.05121416, 95640.35, 95640.35, 0.0, 2.500539, 2.4992216 
1.08772404e+2, 6.371823e+1, 94121.305, -300182.3, -7353.7695, -0.010717078, 0.054061417, 94258.41, 94258.41, 0.0, 2.5005336, 2.4992278 
1.0877237e+2, 6.6217494e+1, 90919.055, -301726.03, -7451.973, -0.008999794, 0.056897804, 91060.43, 91060.43, 0.0, 2.500528, 2.4992278 
1.0877234e+2, 6.871674e+1, 87654.414, -303299.8, -7553.6836, -0.0072876792, 0.059734397, 87800.305, 87800.305, 0.0, 2.5005226, 2.4992278 
1.0877229e+2, 7.121607e+1, 126650.25, -224380.0, -2201.4443, -0.008562866, 0.063473076, 126664.055, 126664.055, 0.0, 2.5005248, 2.499362 
1.0877223e+2, 7.371546e+1, 134817.56, -217576.31, -3724.0337, -0.012228347, 0.065495595, 134856.92, 134856.92, 0.0, 2.5005357, 2.4993684 
1.0877218e+2, 7.621485e+1, 141111.73, -214545.44, -4090.2463, -0.015896328, 0.06749993, 141158.77, 141158.77, 0.0, 2.5005465, 2.4993684 
1.08772114e+2, 7.871424e+1, 147334.31, -211549.06, -4451.6274, -0.019571818, 0.06950366, 147389.52, 147389.52, 0.0, 2.5005572, 2.4993684 
1.0877209e+2, 8.12137e+1, 190707.5, -122304.664, -5820.518, -0.019897152, 0.07124903, 190815.69, 190815.69, 0.0, 2.5005581, 2.4995213 
1.0877209e+2, 8.371323e+1, 187326.17, -120873.8, -7787.6396, -0.015737407, 0.07055225, 187522.83, 187522.83, 0.0, 2.500549, 2.4995282 
1.0877209e+2, 8.621275e+1, 181920.17, -123478.86, -7733.387, -0.011583846, 0.06984106, 182115.88, 182115.88, 0.0, 2.5005398, 2.4995282 
1.0877209e+2, 8.8712263e+1, 176407.42, -126135.34, -7680.7783, -0.0074439673, 0.06913073, 176602.3, 176602.3, 0.0, 2.5005302, 2.4995282 
1.08772084e+2, 9.1211873e+1, 216430.28, -46583.297, 4006.0115, -0.008863885, 0.0709284, 216491.3, 216491.3, 0.0, 2.500534, 2.4996629 
1.0877205e+2, 9.3711525e+1, 229067.27, -37626.465, 1464.7726, -0.01451611, 0.06862442, 229075.31, 229075.31, 0.0, 2.500553, 2.4996693 
1.0877201e+2, 9.6211165e+1, 239760.53, -32477.33, 1490.1014, -0.020172415, 0.06627013, 239768.69, 239768.69, 0.0, 2.5005713, 2.4996693 
1.0877197e+2, 9.871082e+1, 250303.33, -27400.66, 1511.2595, -0.025845189, 0.063915886, 250311.56, 250311.56, 0.0, 2.5005894, 2.4996693 
1.1127366e+2, 1.24916986e+0, -178668.95, -836110.5, -84.60236, -0.0026507124, 0.0006381357, -178668.95, -178668.95, 0.0, 2.5005004, 2.4983242 
1.11273676e+2, 3.747509e+0, -180769.4, -837527.56, -549.09344, -0.0010814985, 0.0019155794, -180768.94, -180768.94, 0.0, 2.5004973, 2.4983232 
1.1127369e+2, 6.245849e+0, -182619.19, -838421.4, -1010.72614, 0.00049873354, 0.003194587, -182617.64, -182617.64, 0.0, 2.500494, 2.4983232 
1.1127371e+2, 8.7441885e+0, -184470.56, -839315.94, -1472.9465, 0.0020899838, 0.0044751586, -184467.25, -184467.25, 0.0, 2.500491, 2.4983232 
1.11273706e+2, 1.12426236e+1, -142202.58, -751973.4, -3676.3525, 0.0021519093, 0.007841171, -142180.42, -142180.42, 0.0, 2.5004914, 2.498473 
1.11273676e+2, 1.374115e+1, -139511.27, -750203.56, -3123.0718, 0.0005385655, 0.012881943, -139495.3, -139495.3, 0.0, 2.5004954, 2.498474 
1.11273654e+2, 1.6239677e+1, -137122.94, -749061.0, -2857.0464, -0.0010698603, 0.01792337, -137109.6, -137109.6, 0.0, 2.5004997, 2.498474 
1.11273624e+2, 1.8738204e+1, -134735.72, -747919.0, -2591.18, -0.0026731899, 0.022965945, -134724.77, -134724.77, 0.0, 2.5005038, 2.498474 
1.11273594e+2, 2.1236788e+1, -90697.32, -656974.6, -3728.656, -0.0030946995, 0.025895925, -90672.766, -90672.766, 0.0, 2.5005043, 2.4986296 
1.1127359e+2, 2.3735423e+1, -91983.46, -656668.6, -3480.2056, -0.0026939397, 0.02603342, -91962.01, -91962.01, 0.0, 2.5005012, 2.4986317 
1.1127357e+2, 2.6234058e+1, -93860.15, -657587.06, -3751.538, -0.0022867187, 0.026172265, -93835.18, -93835.18, 0.0, 2.500498, 2.4986315 
1.11273564e+2, 2.8732693e+1, -95738.39, -658506.2, -4023.352, -0.0018720756, 0.02631406, -95709.625, -95709.625, 0.0, 2.5004947, 2.4986315 
1.11273535e+2, 3.1231412e+1, -55287.684, -575947.56, -7526.0854, -0.0021865664, 0.02760924, -55178.918, -55178.918, 0.0, 2.5004964, 2.4987724 
1.1127348e+2, 3.3730203e+1, -50700.62, -572230.4, -7071.7476, -0.0035381473, 0.029063437, -50604.75, -50604.75, 0.0, 2.5005026, 2.4987757 
1.1127344e+2, 3.6228997e+1, -47071.805, -570501.1, -7164.064, -0.00488387, 0.030515207, -46973.77, -46973.77, 0.0, 2.5005088, 2.4987757 
1.1127339e+2, 3.8727787e+1, -43444.348, -568772.56, -7256.951, -0.0062226863, 0.031968128, -43344.12, -43344.12, 0.0, 2.500515, 2.4987757 
1.1127335e+2, 4.1226673e+1, -3778.1792, -489452.3, -9480.662, -0.0064481446, 0.036298238, -3593.1812, -3593.1812, 0.0, 2.5005183, 2.4989102 
1.1127331e+2, 4.3725652e+1, -2478.2607, -486817.0, -8603.076, -0.0057439273, 0.042385284, -2325.4966, -2325.4966, 0.0, 2.5005186, 2.4989147 
1.1127327e+2, 4.622463e+1, -2452.2334, -486823.28, -8188.171, -0.005031211, 0.048466682, -2313.854, -2313.854, 0.0, 2.5005186, 2.4989147 
1.1127323e+2, 4.8723605e+1, -2428.6165, -486830.75, -7773.211, -0.004309155, 0.05454767, -2303.9119, -2303.9119, 0.0, 2.5005186, 2.4989145 
1.1127318e+2, 5.122263e+1, 43271.313, -392867.7, -5816.4614, -0.0052961856, 0.057271365, 43348.87, 43348.87, 0.0, 2.5005198, 2.4990754 
1.1127312e+2, 5.3721684e+1, 46325.008, -388772.25, -6059.3525, -0.008128495, 0.054847922, 46409.375, 46409.375, 0.0, 2.5005221, 2.4990811 
1.1127306e+2, 5.6220746e+1, 47724.457, -388110.97, -6402.3755, -0.010948563, 0.05241181, 47818.49, 47818.49, 0.0, 2.5005245, 2.4990811 
1.11273e+2, 5.87198e+1, 49121.125, -387451.0, -6745.7744, -0.0137560405, 0.049972218, 49225.332, 49225.332, 0.0, 2.500527, 2.4990811 
1.1127295e+2, 6.1218965e+1, 89885.48, -305732.56, -9593.488, -0.0141676115, 0.051133238, 90117.98, 90117.98, 0.0, 2.50053, 2.49922 
1.1127292e+2, 6.371822e+1, 94341.36, -300733.97, -10216.203, -0.011759806, 0.05412921, 94605.36, 94605.36, 0.0, 2.5005348, 2.499226 
1.11272894e+2, 6.6217476e+1, 96999.41, -299467.6, -10362.471, -0.0093345735, 0.057111233, 97270.06, 97270.06, 0.0, 2.5005393, 2.499226 
1.1127287e+2, 6.8716735e+1, 99653.73, -298203.03, -10509.222, -0.0068943347, 0.060090426, 99931.13, 99931.13, 0.0, 2.5005438, 2.499226 
1.11272834e+2, 7.1216065e+1, 138329.1, -219092.55, -4064.8018, -0.008056405, 0.063882105, 138375.31, 138375.31, 0.0, 2.5005453, 2.4993613 
1.11272775e+2, 7.3715454e+1, 139509.7, -215581.6, -4799.144, -0.012095287, 0.06585531, 139574.55, 139574.55, 0.0, 2.500544, 2.499368 
1.1127272e+2, 7.621484e+1, 138845.52, -215907.4, -4451.9185, -0.0161112, 0.06780799, 138901.38, 138901.38, 0.0, 2.5005429, 2.499368 
1.1127266e+2, 7.871423e+1, 138174.78, -216236.36, -4110.3086, -0.020110121, 0.06975778, 138222.44, 138222.44, 0.0, 2.5005417, 2.499368 
1.1127264e+2, 8.121368e+1, 182421.23, -127309.86, -6169.9673, -0.0202438, 0.071527116, 182544.1, 182544.1, 0.0, 2.500545, 2.4995189 
1.1127265e+2, 8.3713204e+1, 189653.89, -120773.836, -8774.345, -0.015470522, 0.07095075, 189901.7, 189901.7, 0.0, 2.500554, 2.4995258 
1.1127266e+2, 8.6212724e+1, 194969.19, -118219.68, -9409.053, -0.010675699, 0.07035647, 195251.6, 195251.6, 0.0, 2.5005634, 2.4995258 
1.1127266e+2, 8.871225e+1, 200276.97, -115669.14, -10044.643, -0.0058660056, 0.06975945, 200595.98, 200595.98, 0.0, 2.5005724, 2.4995258 
1.1127265e+2, 9.1211855e+1, 238859.13, -37090.836, 1776.357, -0.007408025, 0.07176731, 238870.56, 238870.56, 0.0, 2.500574, 2.49966 
1.1127262e+2, 9.37115e+1, 237666.4, -34864.203, -1658.9532, -0.012981272, 0.06977188, 237676.5, 237676.5, 0.0, 2.500569, 2.4996662 
1.1127259e+2, 9.621114e+1, 234698.13, -36301.492, -2619.06, -0.018519413, 0.067721225, 234723.44, 234723.44, 0.0, 2.5005639, 2.4996662 
1.11272566e+2, 9.8710793e+1, 231710.77, -37747.977, -3579.6973, -0.024042515, 0.06566575, 231758.31, 231758.31, 0.0, 2.5005589, 2.4996662 
1.13774166e+2, 1.2491729e+0, -179505.69, -837869.06, -558.28204, -0.0024483958, 0.0011081144, -179505.22, -179505.22, 0.0, 2.5005004, 2.4983213 
1.1377417e+2, 3.7475187e+0, -181602.88, -839279.44, -1030.682, -0.00148184, 0.0033247184, -181601.27, -181601.27, 0.0, 2.5004973, 2.4983203 
1.1377418e+2, 6.2458646e+0, -183451.78, -840171.94, -1489.5059, -0.00051021593, 0.0055418243, -183448.4, -183448.4, 0.0, 2.5004942, 2.4983203 
1.1377419e+2, 8.74421e+0, -185302.02, -841065.0, -1948.7057, 0.0004664765, 0.0077594314, -185296.22, -185296.22, 0.0, 2.500491, 2.4983203 
1.1377418e+2, 1.1242641e+1, -141692.69, -750915.56, -3056.203, 0.0003857829, 0.010760413, -141677.34, -141677.34, 0.0, 2.5004914, 2.4984746 
1.1377416e+2, 1.3741153e+1, -139005.25, -749148.1, -2498.9646, -0.00095504493, 0.014141585, -138995.02, -138995.02, 0.0, 2.5004954, 2.4984758 
1.1377413e+2, 1.6239665e+1, -136620.02, -748007.1, -2227.5361, -0.0022943374, 0.017523222, -136611.9, -136611.9, 0.0, 2.5004997, 2.4984758 
1.1377411e+2, 1.8738179e+1, -134235.61, -746866.5, -1955.8586, -0.0036318353, 0.0209058, -134229.38, -134229.38, 0.0, 2.5005038, 2.4984756 
1.1377409e+2, 2.1236758e+1, -91192.36, -657995.2, -4180.797, -0.003799438, 0.023393614, -91161.52, -91161.52, 0.0, 2.5005043, 2.498628 
1.1377408e+2, 2.37354e+1, -92478.695, -657681.44, -3942.432, -0.00308634, 0.024345757, -92451.2, -92451.2, 0.0, 2.5005012, 2.4986298 
1.1377407e+2, 2.6234043e+1, -94359.96, -658601.6, -4204.21, -0.0023694634, 0.025298512, -94328.63, -94328.63, 0.0, 2.5004978, 2.4986298 
1.1377406e+2, 2.8732684e+1, -96242.08, -659522.2, -4465.9873, -0.0016480329, 0.026253419, -96206.67, -96206.67, 0.0, 2.5004947, 2.4986298 
1.1377403e+2, 3.1231403e+1, -55488.535, -576314.4, -6529.9463, -0.0021119323, 0.028188111, -55406.676, -55406.676, 0.0, 2.5004964, 2.498772 
1.1377399e+2, 3.3730203e+1, -50887.402, -572566.8, -6067.7485, -0.0041267253, 0.030134384, -50816.836, -50816.836, 0.0, 2.5005026, 2.4987752 
1.13773935e+2, 3.6228997e+1, -47258.508, -570837.1, -6148.1455, -0.006137796, 0.032078113, -47186.32, -47186.32, 0.0, 2.5005088, 2.4987752 
1.1377389e+2, 3.8727796e+1, -43630.48, -569107.9, -6228.402, -0.00814391, 0.034022767, -43556.668, -43556.668, 0.0, 2.500515, 2.4987752 
1.13773845e+2, 4.1226676e+1, -3071.2656, -487934.53, -9351.69, -0.008535989, 0.03796164, -2890.964, -2890.964, 0.0, 2.5005183, 2.4989128 
1.1377381e+2, 4.3725643e+1, -1720.9884, -485199.28, -8484.898, -0.0074078985, 0.042755134, -1572.1268, -1572.1268, 0.0, 2.5005183, 2.4989173 
1.1377377e+2, 4.6224612e+1, -1690.5642, -485202.88, -8056.4946, -0.0062736734, 0.04754343, -1556.3606, -1556.3606, 0.0, 2.5005186, 2.4989173 
1.1377374e+2, 4.8723578e+1, -1661.4515, -485207.1, -7627.9194, -0.0051328233, 0.0523318, -1541.1512, -1541.1512, 0.0, 2.5005186, 2.4989173 
1.13773696e+2, 5.12226e+1, 42603.7, -394236.3, -5340.483, -0.0059028096, 0.05509924, 42668.977, 42668.977, 0.0, 2.5005198, 2.499073 
1.1377364e+2, 5.372167e+1, 45688.594, -390089.47, -5538.488, -0.008694009, 0.054168258, 45758.973, 45758.973, 0.0, 2.5005221, 2.499079 
1.1377358e+2, 5.622074e+1, 47096.84, -389424.94, -5870.344, -0.011476453, 0.05322679, 47175.77, 47175.77, 0.0, 2.5005245, 2.499079 
1.13773525e+2, 5.8719814e+1, 48503.332, -388761.28, -6202.052, -0.014249948, 0.05228358, 48591.285, 48591.285, 0.0, 2.500527, 2.4990788 
1.1377347e+2, 6.1218977e+1, 89602.28, -306364.28, -8762.896, -0.014834931, 0.053734146, 89796.12, 89796.12, 0.0, 2.5005302, 2.4992187 
1.1377345e+2, 6.371822e+1, 94107.34, -301276.4, -9329.332, -0.0127474675, 0.05577406, 94327.35, 94327.35, 0.0, 2.5005348, 2.4992251 
1.1377342e+2, 6.621747e+1, 96774.945, -300004.9, -9462.726, -0.010647148, 0.057801668, 97000.49, 97000.49, 0.0, 2.5005393, 2.4992251 
1.137734e+2, 6.871671e+1, 99439.77, -298734.72, -9596.135, -0.008536799, 0.05982815, 99670.91, 99670.91, 0.0, 2.500544, 2.4992251 
1.1377336e+2, 7.121604e+1, 139010.63, -217788.02, -4074.6855, -0.009509638, 0.06312886, 139057.16, 139057.16, 0.0, 2.5005453, 2.4993634 
1.13773316e+2, 7.371543e+1, 140228.72, -214205.03, -4736.942, -0.01269587, 0.06512893, 140292.02, 140292.02, 0.0, 2.500544, 2.49937 
1.13773264e+2, 7.621482e+1, 139563.1, -214534.66, -4374.989, -0.015864944, 0.067110136, 139617.13, 139617.13, 0.0, 2.500543, 2.49937 
1.1377322e+2, 7.871421e+1, 138893.48, -214866.19, -4013.3403, -0.01902369, 0.06908981, 138939.02, 138939.02, 0.0, 2.500542, 2.49937 
1.13773204e+2, 8.121367e+1, 181397.81, -129570.08, -4629.3438, -0.019094467, 0.07112124, 181466.72, 181466.72, 0.0, 2.5005453, 2.499515 
1.1377321e+2, 8.37132e+1, 188588.36, -123134.42, -7090.6367, -0.01516365, 0.0710847, 188749.56, 188749.56, 0.0, 2.5005543, 2.4995217 
1.1377322e+2, 8.621271e+1, 193912.38, -120576.7, -7704.5728, -0.011220315, 0.07103157, 194101.02, 194101.02, 0.0, 2.5005634, 2.4995217 
1.1377323e+2, 8.8712233e+1, 199230.31, -118021.91, -8318.8955, -0.0072703473, 0.07097672, 199448.3, 199448.3, 0.0, 2.5005727, 2.4995217 
1.1377322e+2, 9.1211843e+1, 237324.98, -40514.36, 1321.1912, -0.008815808, 0.07357573, 237331.27, 237331.27, 0.0, 2.5005744, 2.4996538 
1.13773204e+2, 9.3711495e+1, 236098.67, -38415.68, -2027.0021, -0.012539912, 0.07234819, 236113.64, 236113.64, 0.0, 2.5005693, 2.49966 
1.13773175e+2, 9.621114e+1, 233174.13, -39832.645, -2970.15, -0.016239123, 0.07106457, 233206.44, 233206.44, 0.0, 2.5005643, 2.49966 
1.1377316e+2, 9.871079e+1, 230237.52, -41255.414, -3914.2231, -0.019940889, 0.069774315, 230293.94, 230293.94, 0.0, 2.5005593, 2.4996598 
1.1627466e+2, 1.2491761e+0, -180354.63, -839633.8, -1032.165, -0.0022464597, 0.0015775085, -180353.02, -180353.02, 0.0, 2.5005004, 2.4983182 
1.1627466e+2, 3.7475282e+0, -182448.03, -841038.3, -1512.8801, -0.0018833223, 0.004732104, -182444.56, -182444.56, 0.0, 2.5004973, 2.4983172 
1.16274655e+2, 6.245881e+0, -184295.13, -841928.94, -1969.6597, -0.0015210663, 0.007886139, -184289.22, -184289.22, 0.0, 2.5004942, 2.4983172 
1.16274655e+2, 8.744233e+0, -186143.53, -842820.2, -2426.8154, -0.0011596918, 0.011039613, -186134.56, -186134.56, 0.0, 2.500491, 2.4983172 
1.1627465e+2, 1.1242659e+1, -141197.25, -749876.06, -2444.6274, -0.0013783249, 0.013680611, -141187.42, -141187.42, 0.0, 2.5004914, 2.4984765 
1.1627463e+2, 1.3741156e+1, -138504.55, -748096.5, -1883.1268, -0.0024460093, 0.015399803, -138498.72, -138498.72, 0.0, 2.5004954, 2.4984775 
1.1627462e+2, 1.6239655e+1, -136120.0, -746955.9, -1610.0896, -0.0035155541, 0.017119255, -136115.77, -136115.77, 0.0, 2.5004997, 2.4984775 
1.1627461e+2, 1.8738152e+1, -133736.3, -745815.56, -1336.8036, -0.0045866063, 0.018839445, -133733.38, -133733.38, 0.0, 2.5005038, 2.4984775 
1.16274595e+2, 2.1236725e+1, -91691.23, -659030.1, -4651.8457, -0.004506833, 0.020890653, -91653.086, -91653.086, 0.0, 2.5005043, 2.498626 
1.1627458e+2, 2.3735374e+1, -92965.234, -658690.94, -4433.508, -0.0034810822, 0.022655325, -92930.49, -92930.49, 0.0, 2.5005012, 2.4986281 
1.1627457e+2, 2.6234022e+1, -94846.125, -659610.5, -4693.9624, -0.0024542012, 0.024419835, -94807.12, -94807.12, 0.0, 2.5004978, 2.4986281 
1.1627456e+2, 2.8732672e+1, -96727.88, -660530.5, -4954.416, -0.0014256339, 0.0261857, -96684.34, -96684.34, 0.0, 2.5004947, 2.4986281 
1.1627453e+2, 3.1231397e+1, -55677.047, -576688.6, -5592.624, -0.0020396644, 0.028768288, -55617.023, -55617.023, 0.0, 2.5004961, 2.4987712 
1.1627448e+2, 3.3730197e+1, -51053.594, -572893.8, -5129.959, -0.0047173332, 0.031205524, -51003.168, -51003.168, 0.0, 2.5005026, 2.4987748 
1.1627443e+2, 3.6229e+1, -47424.883, -571163.8, -5209.5483, -0.00739341, 0.033640027, -47373.07, -47373.07, 0.0, 2.5005088, 2.4987745 
1.1627439e+2, 3.8727802e+1, -43797.047, -569434.2, -5288.9976, -0.010066479, 0.03607523, -43743.832, -43743.832, 0.0, 2.500515, 2.4987745 
1.1627434e+2, 4.1226682e+1, -2351.6213, -486418.75, -9325.3125, -0.010617993, 0.039624214, -2172.0405, -2172.0405, 0.0, 2.5005183, 2.4989154 
1.1627431e+2, 4.372564e+1, -949.84656, -483575.28, -8480.439, -0.009066331, 0.043122947, -800.8787, -800.8787, 0.0, 2.5005183, 2.4989202 
1.1627428e+2, 4.6224594e+1, -919.8339, -483578.47, -8050.9775, -0.0075109606, 0.046616912, -785.57715, -785.57715, 0.0, 2.5005186, 2.4989202 
1.1627425e+2, 4.8723552e+1, -891.1328, -483582.3, -7621.3447, -0.0059516793, 0.05011144, -770.8273, -770.8273, 0.0, 2.5005186, 2.4989202 
1.1627421e+2, 5.1222575e+1, 41927.63, -395616.4, -5012.303, -0.006513648, 0.052931797, 41985.04, 41985.04, 0.0, 2.5005195, 2.4990706 
1.16274156e+2, 5.3721654e+1, 45038.734, -391413.9, -5175.8877, -0.009263996, 0.053491354, 45100.105, 45100.105, 0.0, 2.5005221, 2.4990766 
1.16274096e+2, 5.622074e+1, 46445.582, -390751.03, -5506.2393, -0.012008973, 0.054042503, 46514.918, 46514.918, 0.0, 2.5005245, 2.4990766 
1.16274044e+2, 5.8719826e+1, 47850.676, -390089.03, -5836.442, -0.014748644, 0.05459365, 47928.445, 47928.445, 0.0, 2.500527, 2.4990766 
1.16274e+2, 6.121899e+1, 89265.42, -307036.66, -8121.2153, -0.015493933, 0.056338627, 89431.77, 89431.77, 0.0, 2.5005302, 2.4992175 
1.1627398e+2, 6.3718224e+1, 93819.9, -301845.5, -8640.338, -0.013727943, 0.057420135, 94008.49, 94008.49, 0.0, 2.5005348, 2.4992242 
1.1627395e+2, 6.621746e+1, 96487.445, -300573.47, -8771.743, -0.011953825, 0.058490906, 96681.13, 96681.13, 0.0, 2.5005393, 2.4992242 
1.16273925e+2, 6.87167e+1, 99152.22, -299302.75, -8903.166, -0.010174653, 0.059562255, 99351.055, 99351.055, 0.0, 2.5005438, 2.4992242 
1.16273895e+2, 7.1216017e+1, 139603.89, -216538.16, -4309.8574, -0.010962899, 0.062379785, 139656.03, 139656.03, 0.0, 2.5005453, 2.4993656 
1.1627385e+2, 7.3715407e+1, 140864.22, -212869.61, -4909.3613, -0.01329612, 0.06440486, 140932.34, 140932.34, 0.0, 2.500544, 2.4993725 
1.1627381e+2, 7.621481e+1, 140197.89, -213202.67, -4545.074, -0.015617933, 0.066412605, 140256.34, 140256.34, 0.0, 2.500543, 2.4993725 
1.1627377e+2, 7.87142e+1, 139527.61, -213537.64, -4181.0913, -0.017936086, 0.068420164, 139577.11, 139577.11, 0.0, 2.500542, 2.4993725 
1.1627376e+2, 8.1213653e+1, 180278.31, -131887.14, -3370.8643, -0.017941436, 0.07071622, 180314.7, 180314.7, 0.0, 2.5005453, 2.499511 
1.1627377e+2, 8.371318e+1, 187426.69, -125542.0, -5705.347, -0.014854268, 0.07121791, 187530.66, 187530.66, 0.0, 2.5005543, 2.4995174 
1.16273776e+2, 8.62127e+1, 192752.14, -122984.21, -6316.9346, -0.011763631, 0.07170428, 192878.47, 192878.47, 0.0, 2.5005634, 2.4995174 
1.1627378e+2, 8.871223e+1, 198071.5, -120429.35, -6928.9087, -0.008674597, 0.07218997, 198222.17, 198222.17, 0.0, 2.5005727, 2.4995174 
1.16273776e+2, 9.121184e+1, 235654.06, -44016.016, 518.0861, -0.010208748, 0.075388975, 235655.02, 235655.02, 0.0, 2.5005744, 2.4996479 
1.16273776e+2, 9.371149e+1, 234370.97, -42045.023, -2756.4204, -0.012085489, 0.07492659, 234398.45, 234398.45, 0.0, 2.5005693, 2.4996536 
1.16273776e+2, 9.6211135e+1, 231451.78, -43460.137, -3692.7756, -0.013947796, 0.07440711, 231501.38, 231501.38, 0.0, 2.5005643, 2.4996536 
1.1627377e+2, 9.871079e+1, 228520.53, -44881.055, -4630.056, -0.015830254, 0.07387917, 228598.9, 228598.9, 0.0, 2.5005593, 2.4996536 
1.1877517e+2, 1.24917924e+0, -181186.89, -841391.5, -1513.2357, -0.0020435252, 0.002046262, -181183.42, -181183.42, 0.0, 2.5005004, 2.498315 
1.1877515e+2, 3.7475377e+0, -183198.69, -842753.6, -2019.0256, -0.00228463, 0.006137574, -183192.5, -183192.5, 0.0, 2.5004976, 2.4983141 
1.18775144e+2, 6.245896e+0, -185017.64, -843629.8, -2492.9958, -0.002532377, 0.01022727, -185008.22, -185008.22, 0.0, 2.5004942, 2.4983141 
1.1877514e+2, 8.7442553e+0, -186890.11, -844531.75, -2969.7854, -0.0027867656, 0.014315352, -186876.7, -186876.7, 0.0, 2.5004911, 2.4983141 
1.1877512e+2, 1.12426765e+1, -140614.95, -748807.1, -1930.9266, -0.0031386213, 0.016601395, -140608.81, -140608.81, 0.0, 2.5004916, 2.4984782 
1.18775114e+2, 1.374116e+1, -137879.88, -746987.6, -1399.1213, -0.0039327987, 0.016656289, -137876.66, -137876.66, 0.0, 2.5004957, 2.4984794 
1.1877511e+2, 1.6239643e+1, -135506.81, -745852.56, -1165.8059, -0.0047320877, 0.016711242, -135504.58, -135504.58, 0.0, 2.5004997, 2.4984794 
1.1877511e+2, 1.8738125e+1, -133175.56, -744737.7, -935.9901, -0.005536029, 0.016766746, -133174.14, -133174.14, 0.0, 2.5005038, 2.4984794 
1.1877509e+2, 2.1236694e+1, -92123.336, -660046.56, -5378.518, -0.0052154264, 0.018386872, -92072.41, -92072.41, 0.0, 2.5005045, 2.4986243 
1.1877508e+2, 2.373535e+1, -93288.36, -659623.94, -5219.366, -0.003876854, 0.020961778, -93240.266, -93240.266, 0.0, 2.5005014, 2.4986265 
1.1877507e+2, 2.6234004e+1, -95104.63, -660512.06, -5520.066, -0.0025396799, 0.02353573, -95050.74, -95050.74, 0.0, 2.5004983, 2.4986265 
1.18775055e+2, 2.8732657e+1, -96947.03, -661412.75, -5825.439, -0.0012036017, 0.026110252, -96886.914, -96886.914, 0.0, 2.5004952, 2.4986265 
1.18775025e+2, 3.123139e+1, -55605.0, -576952.44, -5092.0337, -0.0019684513, 0.029348947, -55555.27, -55555.27, 0.0, 2.5004966, 2.4987705 
1.1877498e+2, 3.3730194e+1, -50986.234, -573110.7, -4681.271, -0.005308621, 0.032275848, -50944.266, -50944.266, 0.0, 2.5005028, 2.498774 
1.1877493e+2, 3.6229e+1, -47416.324, -571408.7, -4820.004, -0.008649252, 0.035199776, -47371.99, -47371.99, 0.0, 2.500509, 2.498774 
1.18774876e+2, 3.8727805e+1, -43870.668, -569718.3, -4962.9326, -0.011988753, 0.0381242, -43823.832, -43823.832, 0.0, 2.5005152, 2.498774 
1.1877484e+2, 4.1226685e+1, -1560.2478, -484878.88, -9985.801, -0.012692466, 0.041284546, -1354.0201, -1354.0201, 0.0, 2.5005186, 2.498918 
1.1877481e+2, 4.372563e+1, -48.85881, -481891.56, -9242.496, -0.010717625, 0.04348723, 128.36151, 128.36151, 0.0, 2.5005186, 2.498923 
1.1877479e+2, 4.622458e+1, 11.3160305, -481879.78, -8896.668, -0.008741493, 0.045685556, 175.51027, 175.51027, 0.0, 2.5005188, 2.498923 
1.18774764e+2, 4.8723525e+1, 47.82542, -481879.38, -8554.218, -0.0067640995, 0.047884926, 199.61516, 199.61516, 0.0, 2.5005188, 2.498923 
1.1877472e+2, 5.1222545e+1, 41382.43, -396943.25, -5705.782, -0.007127058, 0.050767213, 41456.69, 41456.69, 0.0, 2.5005198, 2.4990683 
1.1877467e+2, 5.372164e+1, 44444.316, -392714.88, -5914.4614, -0.009836826, 0.05281514, 44524.32, 44524.32, 0.0, 2.5005221, 2.4990745 
1.1877462e+2, 5.622074e+1, 45743.52, -392104.97, -6324.273, -0.012544436, 0.05485659, 45834.848, 45834.848, 0.0, 2.5005243, 2.4990745 
1.1877456e+2, 5.871984e+1, 47014.324, -391508.75, -6736.7144, -0.015250314, 0.056899738, 47117.793, 47117.793, 0.0, 2.5005267, 2.4990742 
1.18774526e+2, 6.1219e+1, 88637.18, -307866.75, -8831.957, -0.016142743, 0.058943816, 88833.81, 88833.81, 0.0, 2.5005295, 2.4992163 
1.18774496e+2, 6.3718224e+1, 93188.68, -302583.72, -9391.097, -0.014699361, 0.05906458, 93411.39, 93411.39, 0.0, 2.500534, 2.4992232 
1.1877447e+2, 6.621745e+1, 95768.695, -301353.38, -9610.693, -0.013252649, 0.059176035, 96001.14, 96001.14, 0.0, 2.5005386, 2.4992232 
1.1877445e+2, 6.8716675e+1, 98318.266, -300137.7, -9832.391, -0.0118057765, 0.059289716, 98560.74, 98560.74, 0.0, 2.5005429, 2.4992232 
1.1877442e+2, 7.1215993e+1, 139525.75, -215625.8, -6251.6035, -0.012414063, 0.0616318, 139635.77, 139635.77, 0.0, 2.500544, 2.4993677 
1.1877439e+2, 7.371538e+1, 140708.73, -211918.0, -6873.3374, -0.013894072, 0.06368001, 140842.66, 140842.66, 0.0, 2.5005429, 2.4993749 
1.18774354e+2, 7.6214784e+1, 139876.06, -212334.31, -6589.5586, -0.015368251, 0.065712266, 139999.31, 139999.31, 0.0, 2.5005414, 2.4993749 
1.18774325e+2, 7.871418e+1, 138998.4, -212772.31, -6304.694, -0.016845327, 0.067745656, 139111.38, 139111.38, 0.0, 2.5005398, 2.4993746 
1.1877432e+2, 8.121365e+1, 177786.02, -134876.4, -4120.204, -0.01678273, 0.07030878, 177840.3, 177840.3, 0.0, 2.5005429, 2.499507 
1.18774325e+2, 8.371317e+1, 184702.06, -128703.47, -6347.1763, -0.01454046, 0.07134714, 184830.55, 184830.55, 0.0, 2.5005517, 2.4995134 
1.1877433e+2, 8.6212695e+1, 189794.19, -126258.68, -6976.3774, -0.012303628, 0.07237139, 189948.11, 189948.11, 0.0, 2.5005603, 2.4995134 
1.1877434e+2, 8.871221e+1, 194841.77, -123835.35, -7606.0913, -0.010076477, 0.073396005, 195023.2, 195023.2, 0.0, 2.500569, 2.4995134 
1.1877434e+2, 9.121183e+1, 231655.64, -48649.168, -2355.5723, -0.011584653, 0.07720394, 231675.44, 231675.44, 0.0, 2.5005705, 2.499642 
1.1877435e+2, 9.371148e+1, 230063.45, -46915.89, -5553.401, -0.0116161285, 0.07750418, 230174.77, 230174.77, 0.0, 2.500565, 2.4996474 
1.1877436e+2, 9.621113e+1, 226795.8, -48499.53, -6475.65, -0.011643515, 0.07774624, 226948.03, 226948.03, 0.0, 2.5005593, 2.4996474 
1.1877437e+2, 9.8710775e+1, 223422.11, -50134.227, -7398.8325, -0.011708293, 0.07797811, 223622.08, 223622.08, 0.0, 2.5005536, 2.4996474 
1.2127566e+2, 1.2491788e+0, -179345.95, -841286.1, -1329.9465, -0.002805754, 0.002082436, -179343.28, -179343.28, 0.0, 2.5005045, 2.4983134 
1.2127565e+2, 3.7475362e+0, -178174.75, -841114.8, -1425.4032, -0.003285897, 0.006246864, -178171.69, -178171.69, 0.0, 2.5005069, 2.4983125 
1.2127563e+2, 6.245894e+0, -176761.73, -840438.75, -1476.7177, -0.0037525077, 0.0104107, -176758.45, -176758.45, 0.0, 2.5005093, 2.4983125 
1.21275626e+2, 8.744251e+0, -175350.23, -839763.4, -1527.828, -0.004205587, 0.014573944, -175346.72, -175346.72, 0.0, 2.500512, 2.4983125 
1.2127561e+2, 1.1242671e+1, -129541.984, -744372.8, -649.08307, -0.0044902517, 0.016861143, -129541.305, -129541.305, 0.0, 2.5005116, 2.4984763 
1.2127561e+2, 1.374115e+1, -131025.164, -744590.8, -1162.3933, -0.004953158, 0.016847027, -131022.96, -131022.96, 0.0, 2.5005085, 2.4984772 
1.2127561e+2, 1.6239631e+1, -132832.64, -745480.7, -1968.8809, -0.0054040537, 0.016835432, -132826.31, -132826.31, 0.0, 2.5005054, 2.4984772 
1.21275604e+2, 1.8738112e+1, -134641.27, -746371.06, -2775.623, -0.0058424775, 0.016826846, -134628.67, -134628.67, 0.0, 2.5005023, 2.4984772 
1.212756e+2, 2.1236679e+1, -92753.17, -660474.75, -7318.1475, -0.0055418913, 0.01839828, -92658.85, -92658.85, 0.0, 2.5005035, 2.4986238 
1.2127558e+2, 2.3735332e+1, -89072.97, -657700.0, -6616.113, -0.0046045166, 0.02092502, -88996.0, -88996.0, 0.0, 2.5005088, 2.4986262 
1.2127557e+2, 2.623399e+1, -86040.13, -656266.25, -6344.698, -0.00365987, 0.023452466, -85969.55, -85969.55, 0.0, 2.500514, 2.498626 
1.2127555e+2, 2.8732643e+1, -83009.555, -654833.56, -6073.5454, -0.002707683, 0.02598218, -82945.055, -82945.055, 0.0, 2.5005193, 2.498626 
1.2127552e+2, 3.1231374e+1, -42659.64, -571218.3, -5109.029, -0.0034600983, 0.029227896, -42610.26, -42610.26, 0.0, 2.5005195, 2.4987693 
1.2127548e+2, 3.373018e+1, -44688.957, -570569.7, -4682.8315, -0.0063476814, 0.03223973, -44647.258, -44647.258, 0.0, 2.5005143, 2.498773 
1.2127543e+2, 3.6228982e+1, -47761.527, -572083.3, -4788.5146, -0.009228199, 0.035250604, -47717.797, -47717.797, 0.0, 2.500509, 2.4987729 
1.2127539e+2, 3.8727787e+1, -50836.875, -573598.25, -4894.719, -0.012100197, 0.038263883, -50791.05, -50791.05, 0.0, 2.5005038, 2.4987729 
1.2127535e+2, 4.122666e+1, -8925.972, -488538.6, -9488.957, -0.012819961, 0.04131894, -8738.31, -8738.31, 0.0, 2.500506, 2.4989178 
1.2127532e+2, 4.372561e+1, -1882.0393, -482852.22, -9372.164, -0.011371515, 0.043227617, -1699.483, -1699.483, 0.0, 2.5005155, 2.4989228 
1.212753e+2, 4.6224552e+1, 3702.1853, -480194.16, -9643.234, -0.009915824, 0.045130525, 3894.2822, 3894.2822, 0.0, 2.5005252, 2.4989228 
1.2127527e+2, 4.8723495e+1, 9283.498, -477537.53, -9915.123, -0.008452837, 0.047033016, 9485.356, 9485.356, 0.0, 2.5005348, 2.4989228 
1.2127523e+2, 5.1222515e+1, 51095.88, -392712.2, -8025.215, -0.008793201, 0.049875967, 51240.95, 51240.95, 0.0, 2.500537, 2.4990673 
1.2127519e+2, 5.372161e+1, 49740.844, -390571.47, -7538.565, -0.010841239, 0.05216282, 49869.875, 49869.875, 0.0, 2.5005317, 2.4990735 
1.2127514e+2, 5.622071e+1, 46615.496, -392105.7, -7263.8784, -0.012880588, 0.054439, 46735.73, 46735.73, 0.0, 2.5005264, 2.4990735 
1.2127509e+2, 5.871981e+1, 43488.066, -393640.88, -6989.403, -0.01491216, 0.056712583, 43599.797, 43599.797, 0.0, 2.500521, 2.4990733 
1.2127505e+2, 6.121897e+1, 84136.05, -310596.63, -7369.84, -0.015785404, 0.058799095, 84273.59, 84273.59, 0.0, 2.5005226, 2.4992151 
1.2127503e+2, 6.37182e+1, 91617.46, -303865.2, -7621.2134, -0.0150073245, 0.05879239, 91764.27, 91764.27, 0.0, 2.500532, 2.499222 
1.2127501e+2, 6.6217417e+1, 97125.22, -301233.88, -7602.5195, -0.01421907, 0.05877055, 97270.26, 97270.26, 0.0, 2.5005414, 2.499222 
1.21274985e+2, 6.8716645e+1, 102630.6, -298603.72, -7584.199, -0.013423731, 0.058744974, 102773.914, 102773.914, 0.0, 2.500551, 2.499222 
1.21274956e+2, 7.121596e+1, 144937.0, -213253.6, -5611.672, -0.013926993, 0.060934484, 145024.9, 145024.9, 0.0, 2.5005536, 2.4993672 
1.2127493e+2, 7.371535e+1, 145109.28, -210012.56, -6746.1245, -0.014374011, 0.06285958, 145237.39, 145237.39, 0.0, 2.5005505, 2.4993744 
1.212749e+2, 7.621474e+1, 143290.48, -210908.73, -7045.4976, -0.014805396, 0.064765155, 143430.58, 143430.58, 0.0, 2.5005474, 2.4993742 
1.2127488e+2, 7.871413e+1, 141469.64, -211805.88, -7347.2744, -0.015230847, 0.066668, 141622.39, 141622.39, 0.0, 2.5005443, 2.4993742 
1.2127487e+2, 8.12136e+1, 179162.53, -134669.75, -3552.7412, -0.015138407, 0.06919188, 179202.75, 179202.75, 0.0, 2.5005457, 2.499506 
1.2127488e+2, 8.3713126e+1, 185359.47, -128882.89, -4649.044, -0.014022551, 0.07032473, 185428.23, 185428.23, 0.0, 2.5005534, 2.4995122 
1.2127488e+2, 8.6212647e+1, 189795.61, -126755.445, -4300.745, -0.012900654, 0.071444236, 189854.03, 189854.03, 0.0, 2.500561, 2.4995122 
1.2127489e+2, 8.8712174e+1, 194224.63, -124631.44, -3953.9104, -0.01177621, 0.0725646, 194273.64, 194273.64, 0.0, 2.5005686, 2.4995122 
1.2127489e+2, 9.1211784e+1, 231327.1, -49077.5, 588.38885, -0.013166535, 0.07659746, 231328.33, 231328.33, 0.0, 2.5005703, 2.4996412 
1.2127492e+2, 9.371144e+1, 231252.88, -46727.88, -997.4596, -0.011050403, 0.07744987, 231256.45, 231256.45, 0.0, 2.5005674, 2.4996467 
1.2127494e+2, 9.621109e+1, 229667.2, -47502.395, -430.05133, -0.008898568, 0.078256674, 229667.88, 229667.88, 0.0, 2.5005648, 2.4996464 
1.2127497e+2, 9.8710746e+1, 228062.92, -48285.87, 136.89337, -0.0067583085, 0.07906443, 228063.0, 228063.0, 0.0, 2.500562, 2.4996464 
1.2377615e+2, 1.24917485e+0, -179431.77, -841454.94, -957.37897, -0.0047528828, 0.0017067281, -179430.39, -179430.39, 0.0, 2.5005045, 2.4983132 
1.2377614e+2, 3.7475246e+0, -178256.94, -841274.7, -1058.5262, -0.005088996, 0.0051200837, -178255.25, -178255.25, 0.0, 2.5005069, 2.4983122 
1.2377613e+2, 6.245874e+0, -176844.83, -840599.4, -1107.4169, -0.005417794, 0.0085333055, -176842.98, -176842.98, 0.0, 2.5005093, 2.4983122 
1.2377612e+2, 8.744224e+0, -175434.0, -839924.75, -1156.0654, -0.005739276, 0.011946393, -175431.98, -175431.98, 0.0, 2.500512, 2.4983122 
1.23776115e+2, 1.12426445e+1, -131025.71, -747441.7, -1106.1904, -0.0057745776, 0.014588646, -131023.73, -131023.73, 0.0, 2.5005116, 2.498471 
1.23776115e+2, 1.3741134e+1, -132515.06, -747671.4, -1630.2592, -0.005785577, 0.016062958, -132510.73, -132510.73, 0.0, 2.5005085, 2.498472 
1.2377611e+2, 1.6239624e+1, -134322.13, -748558.6, -2433.7786, -0.0057895333, 0.017539162, -134312.48, -134312.48, 0.0, 2.5005054, 2.498472 
1.2377611e+2, 1.8738113e+1, -136130.64, -749446.6, -3237.27, -0.0057860957, 0.019017717, -136113.55, -136113.55, 0.0, 2.5005023, 2.498472 
1.2377609e+2, 2.1236683e+1, -92283.266, -659453.1, -6510.3413, -0.005746315, 0.020927846, -92208.55, -92208.55, 0.0, 2.5005035, 2.4986258 
1.2377608e+2, 2.3735331e+1, -88583.62, -656630.2, -5822.903, -0.005876154, 0.022604719, -88523.93, -88523.93, 0.0, 2.5005088, 2.4986281 
1.23776056e+2, 2.6233977e+1, -85553.66, -655196.4, -5546.881, -0.006002474, 0.02428155, -85499.65, -85499.65, 0.0, 2.500514, 2.498628 
1.2377604e+2, 2.8732625e+1, -82524.65, -653763.0, -5270.623, -0.006124752, 0.025959974, -82476.02, -82476.02, 0.0, 2.5005193, 2.498628 
1.2377601e+2, 3.123135e+1, -42878.41, -571604.06, -5853.3687, -0.0067170584, 0.028610175, -42813.617, -42813.617, 0.0, 2.5005195, 2.4987688 
1.23775974e+2, 3.3730152e+1, -44910.938, -570959.9, -5451.5693, -0.008064825, 0.03135625, -44854.45, -44854.45, 0.0, 2.5005143, 2.4987724 
1.2377594e+2, 3.6228955e+1, -47982.914, -572472.0, -5549.5176, -0.0094082765, 0.034100484, -47924.203, -47924.203, 0.0, 2.500509, 2.4987724 
1.2377591e+2, 3.8727757e+1, -51056.12, -573984.6, -5647.249, -0.010746421, 0.036845997, -50995.145, -50995.145, 0.0, 2.5005038, 2.4987721 
1.2377587e+2, 4.122663e+1, -9473.503, -489593.1, -8002.4556, -0.011366245, 0.040104866, -9340.158, -9340.158, 0.0, 2.500506, 2.498916 
1.2377584e+2, 4.3725583e+1, -2419.3296, -483891.3, -7865.789, -0.011354026, 0.042722635, -2290.8608, -2290.8608, 0.0, 2.5005155, 2.4989212 
1.2377581e+2, 4.622453e+1, 3170.1433, -481230.22, -8126.8594, -0.011337662, 0.045334138, 3306.4507, 3306.4507, 0.0, 2.500525, 2.4989212 
1.2377578e+2, 4.872348e+1, 8758.3125, -478569.72, -8387.687, -0.011316759, 0.04794461, 8902.635, 8902.635, 0.0, 2.5005348, 2.498921 
1.2377574e+2, 5.12225e+1, 51554.14, -391717.97, -8744.241, -0.011809398, 0.050682634, 51726.566, 51726.566, 0.0, 2.500537, 2.499069 
1.23775706e+2, 5.372159e+1, 50241.87, -389498.75, -8249.611, -0.012584265, 0.05203759, 50396.582, 50396.582, 0.0, 2.5005317, 2.4990754 
1.2377566e+2, 5.622068e+1, 47123.45, -391029.56, -7962.545, -0.013352719, 0.053382233, 47268.105, 47268.105, 0.0, 2.5005262, 2.4990752 
1.2377562e+2, 5.8719766e+1, 44003.43, -392561.16, -7675.2163, -0.014116234, 0.054724608, 44138.324, 44138.324, 0.0, 2.500521, 2.4990752 
1.2377559e+2, 6.1218935e+1, 84178.76, -310513.97, -5902.7637, -0.014833618, 0.056644272, 84267.016, 84267.016, 0.0, 2.5005226, 2.4992154 
1.23775564e+2, 6.3718164e+1, 91666.914, -303784.5, -6048.041, -0.015057026, 0.057332333, 91759.39, 91759.39, 0.0, 2.500532, 2.4992223 
1.23775534e+2, 6.621739e+1, 97185.734, -301148.5, -6018.1323, -0.015273313, 0.05800656, 97276.64, 97276.64, 0.0, 2.5005414, 2.4992223 
1.2377551e+2, 6.871662e+1, 102702.484, -298513.53, -5988.2188, -0.015485435, 0.058677882, 102791.84, 102791.84, 0.0, 2.500551, 2.4992223 
1.2377549e+2, 7.1215934e+1, 144448.61, -214359.92, -5991.102, -0.015955836, 0.061051164, 144548.61, 144548.61, 0.0, 2.5005538, 2.4993653 
1.23775475e+2, 7.3715323e+1, 144612.14, -211153.3, -7031.616, -0.01515975, 0.06271184, 144751.06, 144751.06, 0.0, 2.5005507, 2.4993722 
1.2377546e+2, 7.621471e+1, 142803.58, -212045.58, -7321.396, -0.0143516185, 0.06435419, 142954.58, 142954.58, 0.0, 2.5005476, 2.4993722 
1.2377544e+2, 7.87141e+1, 140991.84, -212939.4, -7611.242, -0.013542051, 0.065994486, 141155.44, 141155.44, 0.0, 2.5005445, 2.4993722 
1.2377544e+2, 8.1213564e+1, 179930.1, -133250.34, -2365.73, -0.013463393, 0.0681941, 179947.97, 179947.97, 0.0, 2.5005457, 2.4995084 
1.2377544e+2, 8.371309e+1, 186123.97, -127487.1, -3277.3728, -0.013736001, 0.068986386, 186158.22, 186158.22, 0.0, 2.5005534, 2.4995146 
1.2377544e+2, 8.621261e+1, 190572.98, -125354.04, -2920.5251, -0.0140085155, 0.06976491, 190599.98, 190599.98, 0.0, 2.5005612, 2.4995146 
1.2377543e+2, 8.871214e+1, 195017.28, -123223.25, -2564.3328, -0.014283794, 0.0705435, 195037.95, 195037.95, 0.0, 2.5005689, 2.4995146 
1.2377544e+2, 9.121175e+1, 232659.86, -46591.074, 268.97327, -0.01544375, 0.07440852, 232660.13, 232660.13, 0.0, 2.5005705, 2.4996452 
1.2377548e+2, 9.371141e+1, 232527.55, -44411.99, -1130.7904, -0.010812106, 0.07555618, 232532.17, 232532.17, 0.0, 2.500568, 2.4996505 
1.23775534e+2, 9.621107e+1, 230981.16, -45170.15, -548.7783, -0.006152745, 0.07665897, 230982.25, 230982.25, 0.0, 2.5005653, 2.4996502 
1.2377559e+2, 9.8710734e+1, 229426.13, -45932.47, 32.45495, -0.0015175721, 0.07776126, 229426.14, 229426.14, 0.0, 2.5005624, 2.4996502 
1.2627663e+2, 1.2491709e+0, -179512.13, -841621.56, -585.4588, -0.006700029, 0.0013305868, -179511.61, -179511.61, 0.0, 2.5005045, 2.4983127 
1.2627663e+2, 3.7475127e+0, -178333.66, -841433.06, -692.4019, -0.006892149, 0.0039920034, -178332.94, -178332.94, 0.0, 2.5005069, 2.498312 
1.2627663e+2, 6.2458545e+0, -176922.22, -840758.56, -739.31793, -0.007083169, 0.0066537443, -176921.39, -176921.39, 0.0, 2.5005093, 2.498312 
1.2627661e+2, 8.7441957e+0, -175512.03, -840084.6, -785.9919, -0.0072730896, 0.00931581, -175511.11, -175511.11, 0.0, 2.500512, 2.498312 
1.2627661e+2, 1.1242618e+1, -132506.22, -750515.56, -1565.0873, -0.0070599327, 0.01231543, -132502.25, -132502.25, 0.0, 2.5005116, 2.4984655 
1.2627661e+2, 1.3741116e+1, -133997.0, -750749.6, -2100.9165, -0.0066213217, 0.015275749, -133989.84, -133989.84, 0.0, 2.5005085, 2.4984667 
1.2627661e+2, 1.6239616e+1, -135801.72, -751633.3, -2902.1853, -0.006180631, 0.018237324, -135788.05, -135788.05, 0.0, 2.5005054, 2.4984667 
1.2627661e+2, 1.8738115e+1, -137607.88, -752517.75, -3703.4265, -0.005737626, 0.021200595, -137585.58, -137585.58, 0.0, 2.5005023, 2.4984667 
1.262766e+2, 2.1236686e+1, -91807.62, -658446.06, -5714.3228, -0.0059454883, 0.023457771, -91750.0, -91750.0, 0.0, 2.5005035, 2.4986274 
1.2627657e+2, 2.3735327e+1, -88073.35, -655551.25, -5038.6577, -0.007143459, 0.0242831, -88028.62, -88028.62, 0.0, 2.5005088, 2.4986298 
1.2627655e+2, 2.6233968e+1, -85042.38, -654115.5, -4761.274, -0.008341731, 0.025107589, -85002.55, -85002.55, 0.0, 2.500514, 2.4986298 
1.2627652e+2, 2.873261e+1, -82012.375, -652680.25, -4483.654, -0.009539459, 0.025932994, -81977.15, -81977.15, 0.0, 2.500519, 2.4986298 
1.262765e+2, 3.1231326e+1, -43069.695, -571980.8, -6619.3823, -0.009975479, 0.027989576, -42986.867, -42986.867, 0.0, 2.5005193, 2.498768 
1.2627648e+2, 3.3730125e+1, -45101.863, -571335.94, -6247.3354, -0.00978341, 0.03046831, -45027.707, -45027.707, 0.0, 2.500514, 2.4987717 
1.2627645e+2, 3.6228925e+1, -48172.996, -572846.4, -6343.978, -0.009589755, 0.032944307, -48096.3, -48096.3, 0.0, 2.5005088, 2.4987717 
1.2627642e+2, 3.8727722e+1, -51245.36, -574357.4, -6440.4033, -0.009394007, 0.035420455, -51166.08, -51166.08, 0.0, 2.5005035, 2.4987717 
1.2627639e+2, 4.1226602e+1, -9999.803, -490647.56, -6568.5903, -0.009911023, 0.038891617, -9910.053, -9910.053, 0.0, 2.5005057, 2.4989142 
1.2627636e+2, 4.3725556e+1, -2933.8762, -484920.2, -6415.7275, -0.011334165, 0.042216934, -2848.4917, -2848.4917, 0.0, 2.5005155, 2.4989195 
1.2627631e+2, 4.622451e+1, 2655.2798, -482258.7, -6675.6787, -0.012756288, 0.04553539, 2747.1648, 2747.1648, 0.0, 2.500525, 2.4989192 
1.2627628e+2, 4.8723465e+1, 8243.132, -479597.8, -6935.386, -0.014176626, 0.04885221, 8341.709, 8341.709, 0.0, 2.5005348, 2.4989192 
1.2627624e+2, 5.1222485e+1, 52007.93, -390737.7, -9548.2705, -0.014824158, 0.051489174, 52213.754, 52213.754, 0.0, 2.500537, 2.4990706 
1.2627621e+2, 5.3721565e+1, 50738.016, -388429.2, -9056.813, -0.014325254, 0.051910296, 50924.715, 50924.715, 0.0, 2.5005317, 2.499077 
1.2627618e+2, 5.622065e+1, 47618.79, -389960.3, -8768.537, -0.013822179, 0.052321404, 47794.426, 47794.426, 0.0, 2.5005262, 2.499077 
1.2627615e+2, 5.871973e+1, 44497.96, -391492.22, -8479.998, -0.013317005, 0.05273058, 44662.832, 44662.832, 0.0, 2.500521, 2.499077 
1.2627612e+2, 6.1218894e+1, 84187.68, -310454.9, -4565.4614, -0.013877457, 0.054490853, 84240.49, 84240.49, 0.0, 2.5005224, 2.4992154 
1.2627609e+2, 6.371813e+1, 91676.55, -303723.97, -4613.737, -0.015102099, 0.055871643, 91730.375, 91730.375, 0.0, 2.500532, 2.4992223 
1.2627608e+2, 6.621737e+1, 97194.93, -301088.88, -4582.548, -0.016322684, 0.057239797, 97247.65, 97247.65, 0.0, 2.5005414, 2.4992223 
1.2627605e+2, 6.8716604e+1, 102711.24, -298454.75, -4551.3545, -0.017542021, 0.058605883, 102762.87, 102762.87, 0.0, 2.500551, 2.4992223 
1.2627603e+2, 7.121592e+1, 143878.36, -215519.64, -6537.024, -0.017976722, 0.06116912, 143997.22, 143997.22, 0.0, 2.5005538, 2.4993634 
1.2627602e+2, 7.37153e+1, 144031.94, -212334.95, -7492.9766, -0.015937258, 0.06256353, 144189.42, 144189.42, 0.0, 2.5005507, 2.4993703 
1.26276e+2, 7.621469e+1, 142223.36, -213228.3, -7781.108, -0.013889361, 0.063940704, 142393.61, 142393.61, 0.0, 2.5005476, 2.4993703 
1.26276e+2, 7.871407e+1, 140411.58, -214123.19, -8069.306, -0.01184453, 0.0653165, 140595.14, 140595.14, 0.0, 2.5005445, 2.49937 
1.26276e+2, 8.1213534e+1, 180580.88, -131898.02, -1379.3961, -0.0117820045, 0.06719574, 180586.97, 180586.97, 0.0, 2.5005457, 2.4995108 
1.2627599e+2, 8.371305e+1, 186770.05, -126149.125, -2114.5493, -0.0134435855, 0.06764628, 186784.34, 186784.34, 0.0, 2.5005536, 2.499517 
1.2627599e+2, 8.621257e+1, 191221.39, -124015.52, -1756.2802, -0.015110986, 0.06808254, 191231.17, 191231.17, 0.0, 2.5005612, 2.499517 
1.2627597e+2, 8.871209e+1, 195668.02, -121884.19, -1398.6664, -0.016786465, 0.06851807, 195674.17, 195674.17, 0.0, 2.5005689, 2.499517 
1.2627599e+2, 9.1211706e+1, 233821.6, -44205.91, -285.03113, -0.01769227, 0.07222405, 233821.89, 233821.89, 0.0, 2.5005705, 2.4996495 
1.2627606e+2, 9.371138e+1, 233614.75, -42187.293, -1503.3473, -0.010543224, 0.07366429, 233622.94, 233622.94, 0.0, 2.500568, 2.499654 
1.2627614e+2, 9.6211046e+1, 232070.16, -42947.15, -916.3243, -0.003374832, 0.075060226, 232073.2, 232073.2, 0.0, 2.5005653, 2.499654 
1.2627621e+2, 9.871071e+1, 230516.92, -43711.16, -330.0802, 0.0037567609, 0.07645422, 230517.31, 230517.31, 0.0, 2.5005627, 2.499654 
1.2877712e+2, 1.24916695e+0, -179549.58, -841768.6, -221.60725, -0.00864497, 0.000954015, -179549.5, -179549.5, 0.0, 2.5005045, 2.4983125 
1.2877712e+2, 3.7475008e+0, -178327.56, -841553.5, -349.16382, -0.008693333, 0.00286262, -178327.38, -178327.38, 0.0, 2.500507, 2.4983118 
1.2877712e+2, 6.245835e+0, -176915.27, -840879.0, -408.97235, -0.0087466575, 0.0047719926, -176915.02, -176915.02, 0.0, 2.5005095, 2.4983118 
1.2877712e+2, 8.7441695e+0, -175543.11, -840223.9, -468.2564, -0.008804946, 0.0066821324, -175542.78, -175542.78, 0.0, 2.500512, 2.4983118 
1.2877712e+2, 1.1242591e+1, -133926.3, -753567.25, -2085.4006, -0.008344249, 0.010041344, -133919.28, -133919.28, 0.0, 2.5005116, 2.4984603 
1.2877712e+2, 1.37411e+1, -135339.92, -753762.9, -2643.4229, -0.0074584945, 0.01448511, -135328.63, -135328.63, 0.0, 2.5005088, 2.4984615 
1.2877712e+2, 1.6239609e+1, -137099.67, -754622.6, -3459.0027, -0.0065755076, 0.018929467, -137080.3, -137080.3, 0.0, 2.5005057, 2.4984615 
1.2877712e+2, 1.8738118e+1, -138893.69, -755498.94, -4281.1924, -0.0056951707, 0.023374848, -138863.97, -138863.97, 0.0, 2.5005026, 2.4984615 
1.287771e+2, 2.1236691e+1, -91137.46, -657363.8, -5064.6157, -0.0061374935, 0.0259873, -91092.164, -91092.164, 0.0, 2.5005038, 2.498629 
1.2877707e+2, 2.3735324e+1, -87340.445, -654367.4, -4429.5527, -0.008404516, 0.025959363, -87305.84, -87305.84, 0.0, 2.500509, 2.4986317 
1.2877704e+2, 2.6233956e+1, -84323.71, -652937.2, -4190.226, -0.010675614, 0.02592975, -84292.83, -84292.83, 0.0, 2.5005143, 2.4986317 
1.2877701e+2, 2.8732592e+1, -81339.63, -651522.7, -3955.506, -0.012949552, 0.025900386, -81312.195, -81312.195, 0.0, 2.5005195, 2.4986317 
1.2877698e+2, 3.1231305e+1, -43074.37, -572273.06, -7689.431, -0.0132331, 0.027365172, -42962.664, -42962.664, 0.0, 2.5005198, 2.4987674 
1.2877697e+2, 3.3730102e+1, -44997.367, -571571.9, -7390.938, -0.011501419, 0.029574888, -44893.65, -44893.65, 0.0, 2.5005147, 2.4987712 
1.2877697e+2, 3.6228898e+1, -47991.06, -573043.8, -7535.3184, -0.009770771, 0.03178098, -47882.938, -47882.938, 0.0, 2.5005095, 2.498771 
1.2877695e+2, 3.8727692e+1, -51016.15, -574530.9, -7684.111, -0.008041152, 0.03398612, -50903.387, -50903.387, 0.0, 2.5005043, 2.498771 
1.2877692e+2, 4.122657e+1, -10122.435, -491519.34, -5637.491, -0.008452496, 0.037677895, -10056.424, -10056.424, 0.0, 2.5005064, 2.4989123 
1.2877688e+2, 4.372553e+1, -3109.7866, -485788.3, -5504.176, -0.011310054, 0.04170894, -3047.0286, -3047.0286, 0.0, 2.500516, 2.4989176 
1.2877682e+2, 4.6224487e+1, 2370.4395, -483178.8, -5806.5884, -0.014169637, 0.04573248, 2439.8694, 2439.8694, 0.0, 2.5005255, 2.4989176 
1.2877679e+2, 4.8723447e+1, 7811.719, -480588.1, -6112.0464, -0.017030079, 0.049753807, 7888.1963, 7888.1963, 0.0, 2.5005348, 2.4989176 
1.2877674e+2, 5.122247e+1, 52505.79, -389749.9, -11042.911, -0.017835082, 0.052293442, 52781.35, 52781.35, 0.0, 2.500537, 2.4990723 
1.2877673e+2, 5.372154e+1, 51372.484, -387295.88, -10633.423, -0.016062059, 0.05177872, 51630.09, 51630.09, 0.0, 2.5005317, 2.499079 
1.287767e+2, 5.6220615e+1, 48301.594, -388803.72, -10423.973, -0.014286965, 0.051254246, 48550.04, 48550.04, 0.0, 2.5005264, 2.499079 
1.2877667e+2, 5.8719695e+1, 45190.316, -390331.03, -10215.604, -0.012512498, 0.05072821, 45429.8, 45429.8, 0.0, 2.5005212, 2.499079 
1.2877665e+2, 6.121885e+1, 84305.336, -310352.63, -4231.2236, -0.012914953, 0.052336458, 84350.69, 84350.69, 0.0, 2.5005226, 2.4992156 
1.2877662e+2, 6.37181e+1, 91607.34, -303704.28, -4243.805, -0.015140541, 0.05440776, 91652.9, 91652.9, 0.0, 2.5005317, 2.4992225 
1.287766e+2, 6.621734e+1, 96884.875, -301185.88, -4274.6543, -0.017365014, 0.056467544, 96930.77, 96930.77, 0.0, 2.500541, 2.4992225 
1.2877658e+2, 6.8716586e+1, 102111.45, -298692.03, -4306.9727, -0.019591033, 0.058526102, 102157.73, 102157.73, 0.0, 2.5005498, 2.4992225 
1.2877655e+2, 7.1215904e+1, 142537.08, -217065.97, -8340.237, -0.01998728, 0.06128544, 142730.42, 142730.42, 0.0, 2.5005524, 2.4993613 
1.2877657e+2, 7.371528e+1, 142664.19, -213898.05, -9279.718, -0.016704602, 0.062411807, 142905.53, 142905.53, 0.0, 2.5005493, 2.4993682 
1.2877657e+2, 7.621466e+1, 140759.58, -214838.66, -9630.24, -0.01341691, 0.06352193, 141020.19, 141020.19, 0.0, 2.500546, 2.4993682 
1.2877657e+2, 7.871404e+1, 138780.42, -215815.17, -9978.339, -0.010136555, 0.06463136, 139061.0, 139061.0, 0.0, 2.5005426, 2.4993682 
1.2877657e+2, 8.121349e+1, 179931.13, -131182.84, -1885.3252, -0.010092532, 0.06619425, 179942.55, 179942.55, 0.0, 2.5005436, 2.499513 
1.2877655e+2, 8.371301e+1, 185787.08, -125596.45, -2473.0798, -0.013143575, 0.06630197, 185806.72, 185806.72, 0.0, 2.5005507, 2.499519 
1.2877654e+2, 8.6212534e+1, 189812.9, -123668.375, -2142.6772, -0.016205989, 0.06639484, 189827.55, 189827.55, 0.0, 2.5005577, 2.499519 
1.2877652e+2, 8.871205e+1, 193741.02, -121787.35, -1814.8606, -0.019281462, 0.066486195, 193751.45, 193751.45, 0.0, 2.5005643, 2.499519 
1.2877654e+2, 9.121167e+1, 232053.89, -43248.65, -2451.3123, -0.019909527, 0.07004218, 232075.72, 232075.72, 0.0, 2.5005655, 2.4996536 
1.2877662e+2, 9.371135e+1, 231545.92, -41481.574, -3505.3044, -0.010242021, 0.07177261, 231590.92, 231590.92, 0.0, 2.5005624, 2.4996579 
1.2877671e+2, 9.621102e+1, 229542.44, -42464.94, -2924.9248, -0.0005631715, 0.073459096, 229573.88, 229573.88, 0.0, 2.500559, 2.4996579 
1.2877682e+2, 9.871069e+1, 227308.06, -43559.496, -2337.786, 0.0090670185, 0.0751421, 227328.23, 227328.23, 0.0, 2.5005553, 2.4996579 
1.3127762e+2, 1.2491653e+0, -171843.66, -838688.5, -136.74059, -0.010162778, 0.0008555566, -171843.63, -171843.63, 0.0, 2.5005186, 2.498311 
1.3127762e+2, 3.7474957e+0, -171759.77, -839015.9, -573.9145, -0.009971722, 0.0025659285, -171759.27, -171759.27, 0.0, 2.500519, 2.4983103 
1.3127762e+2, 6.2458265e+0, -171451.13, -838874.8, -938.04425, -0.009769411, 0.004275313, -171449.81, -171449.81, 0.0, 2.5005195, 2.4983103 
1.3127762e+2, 8.744157e+0, -171143.47, -838734.25, -1302.0074, -0.0095558455, 0.0059837103, -171140.92, -171140.92, 0.0, 2.50052, 2.4983103 
1.3127762e+2, 1.12425774e+1, -129412.24, -752050.9, -2969.14, -0.009080136, 0.0093795825, -129398.086, -129398.086, 0.0, 2.5005202, 2.4984589 
1.3127762e+2, 1.3741088e+1, -129584.24, -751659.5, -2389.2598, -0.008405174, 0.014099282, -129575.06, -129575.06, 0.0, 2.5005193, 2.49846 
1.3127762e+2, 1.6239597e+1, -130071.13, -751921.0, -2040.9785, -0.007720788, 0.018817749, -130064.44, -130064.44, 0.0, 2.5005186, 2.4984598 
1.3127762e+2, 1.8738107e+1, -130558.625, -752182.8, -1692.3545, -0.007026906, 0.023535416, -130554.02, -130554.02, 0.0, 2.5005176, 2.4984598 
1.312776e+2, 2.1236679e+1, -84017.016, -654551.4, -1690.1082, -0.0075019784, 0.026191497, -84012.01, -84012.01, 0.0, 2.5005167, 2.4986277 
1.3127758e+2, 2.373531e+1, -84119.375, -653440.3, -1924.0969, -0.009670867, 0.025986843, -84112.87, -84112.87, 0.0, 2.5005152, 2.4986303 
1.3127755e+2, 2.623394e+1, -84971.74, -653887.9, -2537.9487, -0.011832164, 0.025781598, -84960.42, -84960.42, 0.0, 2.5005138, 2.4986303 
1.3127752e+2, 2.873257e+1, -85823.63, -654335.2, -3151.7827, -0.013984569, 0.025577666, -85806.16, -85806.16, 0.0, 2.5005124, 2.4986303 
1.312775e+2, 3.1231284e+1, -46328.316, -574062.94, -7472.659, -0.014180038, 0.026877103, -46222.527, -46222.527, 0.0, 2.5005143, 2.498767 
1.3127749e+2, 3.3730075e+1, -42464.234, -570574.1, -7025.2676, -0.012362642, 0.028943548, -42370.797, -42370.797, 0.0, 2.5005193, 2.4987707 
1.3127747e+2, 3.622887e+1, -39649.14, -569260.1, -6987.9155, -0.010537539, 0.031009478, -39556.953, -39556.953, 0.0, 2.500524, 2.4987705 
1.3127746e+2, 3.8727662e+1, -36836.082, -567947.1, -6950.666, -0.008704844, 0.033077523, -36745.137, -36745.137, 0.0, 2.500529, 2.4987705 
1.3127743e+2, 4.122654e+1, 2843.7249, -485669.38, -4233.404, -0.00907601, 0.036755666, 2880.4084, 2880.4084, 0.0, 2.500529, 2.4989114 
1.3127738e+2, 4.37255e+1, 1468.6016, -483985.3, -3684.1948, -0.011943093, 0.04091405, 1496.5599, 1496.5599, 0.0, 2.5005243, 2.4989166 
1.3127734e+2, 4.622446e+1, -1406.7135, -485412.34, -3567.418, -0.014801965, 0.04506945, -1380.4209, -1380.4209, 0.0, 2.5005193, 2.4989166 
1.3127731e+2, 4.872342e+1, -4284.8364, -486840.7, -3450.8584, -0.017651524, 0.049227066, -4260.16, -4260.16, 0.0, 2.5005145, 2.4989166 
1.3127726e+2, 5.122244e+1, 40742.598, -395994.44, -8357.108, -0.018423114, 0.05160454, 40902.457, 40902.457, 0.0, 2.5005174, 2.4990711 
1.3127725e+2, 5.3721505e+1, 49171.78, -388937.25, -8631.604, -0.016595913, 0.05064589, 49341.773, 49341.773, 0.0, 2.5005286, 2.4990778 
1.3127723e+2, 5.6220573e+1, 55697.88, -385830.03, -9129.517, -0.014757105, 0.049680468, 55886.57, 55886.57, 0.0, 2.5005398, 2.4990776 
1.312772e+2, 5.871964e+1, 62221.094, -382724.22, -9627.76, -0.01290938, 0.04871631, 62429.324, 62429.324, 0.0, 2.5005512, 2.4990776 
1.3127719e+2, 6.1218804e+1, 102129.11, -301866.97, -4294.663, -0.013276896, 0.0501958, 102174.76, 102174.76, 0.0, 2.5005534, 2.4992154 
1.3127716e+2, 6.371805e+1, 100246.77, -299642.94, -4138.0957, -0.015473546, 0.052499916, 100289.59, 100289.59, 0.0, 2.5005467, 2.4992223 
1.3127713e+2, 6.621729e+1, 96382.37, -301533.16, -4065.194, -0.017657943, 0.054794416, 96423.89, 96423.89, 0.0, 2.50054, 2.4992223 
1.3127711e+2, 6.871654e+1, 92514.05, -303425.28, -3992.5227, -0.019832935, 0.05708929, 92554.305, 92554.305, 0.0, 2.5005336, 2.4992223 
1.312771e+2, 7.1215856e+1, 131735.14, -222990.17, -7531.345, -0.02024858, 0.059850898, 131894.97, 131894.97, 0.0, 2.5005345, 2.4993596 
1.312771e+2, 7.3715234e+1, 139936.33, -215962.52, -8071.311, -0.017016636, 0.06081424, 140119.28, 140119.28, 0.0, 2.5005455, 2.4993665 
1.312771e+2, 7.6214606e+1, 146198.89, -212966.9, -8156.4067, -0.013761275, 0.06176341, 146384.03, 146384.03, 0.0, 2.5005562, 2.4993665 
1.3127711e+2, 7.8713983e+1, 152457.55, -209973.19, -8242.024, -0.010495101, 0.06271346, 152644.88, 152644.88, 0.0, 2.500567, 2.4993665 
1.3127711e+2, 8.121343e+1, 194534.8, -123422.01, -866.8381, -0.01023688, 0.0640959, 194537.17, 194537.17, 0.0, 2.500568, 2.4995146 
1.312771e+2, 8.371296e+1, 191792.28, -122015.0, -1474.1539, -0.012911416, 0.06406577, 191799.22, 191799.22, 0.0, 2.5005603, 2.4995208 
1.3127708e+2, 8.621248e+1, 187333.67, -124175.52, -1319.439, -0.015570396, 0.06402283, 187339.27, 187339.27, 0.0, 2.5005527, 2.4995208 
1.3127708e+2, 8.8712e+1, 182869.63, -126338.66, -1165.0225, -0.018214928, 0.063979946, 182874.02, 182874.02, 0.0, 2.500545, 2.4995208 
1.312771e+2, 9.1211617e+1, 221116.2, -46929.15, -1543.6368, -0.01885567, 0.067173585, 221125.1, 221125.1, 0.0, 2.500545, 2.499657 
1.3127719e+2, 9.3711287e+1, 228764.83, -41335.4, -2588.113, -0.009251925, 0.06858361, 228789.63, 228789.63, 0.0, 2.5005562, 2.4996612 
1.312773e+2, 9.621096e+1, 235202.36, -38247.61, -2266.0327, 0.00042687525, 0.06994613, 235221.13, 235221.13, 0.0, 2.5005672, 2.4996612 
1.3127738e+2, 9.871063e+1, 241619.25, -35169.758, -1945.6803, 0.010117865, 0.07129947, 241632.92, 241632.92, 0.0, 2.5005782, 2.4996612 
1.3377813e+2, 1.24916576e+0, -172503.78, -840059.56, -55.55886, -0.011671097, 0.0010301857, -172503.77, -172503.77, 0.0, 2.5005186, 2.4983087 
1.3377813e+2, 3.7474972e+0, -172414.8, -840375.6, -495.20267, -0.011095559, 0.0030903372, -172414.44, -172414.44, 0.0, 2.500519, 2.498308 
1.3377814e+2, 6.245829e+0, -172106.73, -840235.0, -857.9026, -0.01051295, 0.0051501957, -172105.63, -172105.63, 0.0, 2.5005195, 2.498308 
1.3377814e+2, 8.7441605e+0, -171799.63, -840094.8, -1220.4359, -0.009923269, 0.007209761, -171797.39, -171797.39, 0.0, 2.50052, 2.498308 
1.3377814e+2, 1.1242578e+1, -128755.22, -750678.94, -3072.113, -0.009658072, 0.010349492, -128740.04, -128740.04, 0.0, 2.50052, 2.4984612 
1.3377813e+2, 1.3741082e+1, -128921.125, -750273.2, -2513.7617, -0.00979485, 0.01419218, -128910.95, -128910.95, 0.0, 2.5005193, 2.4984624 
1.3377811e+2, 1.6239586e+1, -129408.07, -750533.06, -2164.1313, -0.009924781, 0.01803479, -129400.53, -129400.53, 0.0, 2.5005186, 2.4984622 
1.3377811e+2, 1.8738088e+1, -129895.6, -750793.2, -1814.1584, -0.010047765, 0.021877768, -129890.305, -129890.305, 0.0, 2.5005176, 2.4984622 
1.337781e+2, 2.1236658e+1, -85118.09, -656819.5, -1893.7161, -0.0103656845, 0.024302807, -85111.82, -85111.82, 0.0, 2.5005167, 2.4986238 
1.3377808e+2, 2.373529e+1, -85253.97, -655776.5, -2143.4373, -0.011286101, 0.024598192, -85245.914, -85245.914, 0.0, 2.5005152, 2.4986265 
1.3377805e+2, 2.623392e+1, -86107.84, -656222.6, -2755.148, -0.012202143, 0.024893336, -86094.53, -86094.53, 0.0, 2.5005138, 2.4986262 
1.3377804e+2, 2.873255e+1, -86963.03, -656669.4, -3366.3582, -0.013112777, 0.025189944, -86943.14, -86943.14, 0.0, 2.5005124, 2.4986262 
1.3377802e+2, 3.1231263e+1, -46289.832, -573929.25, -6712.1763, -0.013284683, 0.026761457, -46204.457, -46204.457, 0.0, 2.5005143, 2.4987671 
1.33778e+2, 3.3730057e+1, -42415.13, -570409.3, -6287.0674, -0.0127547765, 0.02883177, -42340.273, -42340.273, 0.0, 2.500519, 2.498771 
1.3377798e+2, 3.622885e+1, -39603.586, -569095.2, -6245.209, -0.01221992, 0.030900784, -39529.938, -39529.938, 0.0, 2.500524, 2.4987707 
1.3377796e+2, 3.8727647e+1, -36793.023, -567781.5, -6202.9063, -0.011679951, 0.032971267, -36720.574, -36720.574, 0.0, 2.5005288, 2.4987707 
1.3377792e+2, 4.122652e+1, 3035.7, -485182.75, -4935.3745, -0.0120760575, 0.036441628, 3085.5862, 3085.5862, 0.0, 2.500529, 2.4989123 
1.3377789e+2, 4.372548e+1, 1647.9146, -483524.34, -4401.3086, -0.013568337, 0.04022424, 1687.8384, 1687.8384, 0.0, 2.5005243, 2.4989176 
1.3377786e+2, 4.6224433e+1, -1226.0206, -484949.75, -4277.5186, -0.015055971, 0.044002675, -1188.1979, -1188.1979, 0.0, 2.5005193, 2.4989176 
1.3377783e+2, 4.8723394e+1, -4101.6216, -486375.94, -4153.3984, -0.016538363, 0.047781922, -4065.8547, -4065.8547, 0.0, 2.5005143, 2.4989173 
1.337778e+2, 5.12224e+1, 39819.293, -397827.34, -6673.435, -0.017103788, 0.049964964, 39921.027, 39921.027, 0.0, 2.5005174, 2.499068 
1.3377778e+2, 5.372147e+1, 48207.33, -390860.5, -6886.7246, -0.016364211, 0.04906625, 48315.316, 48315.316, 0.0, 2.5005286, 2.4990745 
1.3377775e+2, 5.622054e+1, 54738.01, -387751.4, -7376.52, -0.015617799, 0.048160005, 54860.945, 54860.945, 0.0, 2.5005398, 2.4990745 
1.3377774e+2, 5.8719605e+1, 61266.91, -384643.13, -7866.036, -0.0148666715, 0.047253948, 61405.63, 61405.63, 0.0, 2.500551, 2.4990742 
1.3377772e+2, 6.121876e+1, 102240.87, -301589.9, -5257.888, -0.015323446, 0.048650254, 102309.31, 102309.31, 0.0, 2.5005534, 2.4992158 
1.337777e+2, 6.371801e+1, 100366.586, -299358.22, -5053.5166, -0.01648601, 0.05077622, 100430.46, 100430.46, 0.0, 2.5005467, 2.4992228 
1.3377768e+2, 6.621725e+1, 96509.03, -301245.53, -4969.8706, -0.017641159, 0.0528926, 96571.12, 96571.12, 0.0, 2.50054, 2.4992228 
1.3377766e+2, 6.871649e+1, 92649.04, -303134.0, -4886.094, -0.018792307, 0.055009097, 92709.35, 92709.35, 0.0, 2.5005336, 2.4992228 
1.3377765e+2, 7.12158e+1, 131638.28, -223221.98, -5975.0195, -0.019274468, 0.05759535, 131738.84, 131738.84, 0.0, 2.5005348, 2.4993594 
1.3377765e+2, 7.3715186e+1, 139811.7, -216269.13, -6328.1797, -0.017273098, 0.058485262, 139924.13, 139924.13, 0.0, 2.5005455, 2.499366 
1.3377765e+2, 7.6214564e+1, 146084.27, -213270.55, -6402.9023, -0.01525618, 0.059361495, 146198.31, 146198.31, 0.0, 2.5005562, 2.499366 
1.3377765e+2, 7.8713936e+1, 152353.52, -210273.55, -6477.82, -0.013236052, 0.060238417, 152469.19, 152469.19, 0.0, 2.500567, 2.4993658 
1.3377766e+2, 8.1213385e+1, 194950.22, -122689.695, -2022.3076, -0.012535913, 0.061552465, 194963.1, 194963.1, 0.0, 2.5005682, 2.4995158 
1.3377766e+2, 8.3712906e+1, 192175.7, -121368.97, -2481.4453, -0.013103493, 0.061558314, 192195.34, 192195.34, 0.0, 2.5005605, 2.4995217 
1.3377766e+2, 8.6212426e+1, 187728.5, -123525.68, -2321.0232, -0.013666808, 0.061552804, 187745.8, 187745.8, 0.0, 2.500553, 2.4995217 
1.3377766e+2, 8.8711953e+1, 183276.13, -125684.87, -2160.807, -0.014226433, 0.06154808, 183291.23, 183291.23, 0.0, 2.5005453, 2.4995217 
1.3377768e+2, 9.1211563e+1, 222001.08, -45387.45, -36.252544, -0.01513068, 0.064123735, 222001.1, 222001.1, 0.0, 2.5005453, 2.4996595 
1.3377775e+2, 9.371123e+1, 229616.48, -39922.35, -743.8663, -0.0079495665, 0.064552866, 229618.53, 229618.53, 0.0, 2.5005565, 2.4996636 
1.3377784e+2, 9.621089e+1, 236099.64, -36813.008, -407.58774, -0.000713169, 0.06493862, 236100.25, 236100.25, 0.0, 2.5005677, 2.4996636 
1.3377795e+2, 9.8710555e+1, 242571.69, -33709.01, -71.23943, 0.006513643, 0.065316916, 242571.7, 242571.7, 0.0, 2.5005789, 2.4996636 
1.3627863e+2, 1.24916635e+0, -173164.19, -841431.25, 25.236336, -0.01317957, 0.001204273, -173164.19, -173164.19, 0.0, 2.5005186, 2.4983065 
1.3627864e+2, 3.747499e+0, -173070.77, -841737.3, -416.59042, -0.01221986, 0.0036131195, -173070.5, -173070.5, 0.0, 2.500519, 2.4983056 
1.3627864e+2, 6.245831e+0, -172763.25, -841597.06, -777.8605, -0.011257262, 0.0060223676, -172762.34, -172762.34, 0.0, 2.5005195, 2.4983056 
1.3627866e+2, 8.744165e+0, -172456.7, -841457.3, -1138.964, -0.010291776, 0.008432018, -172454.77, -172454.77, 0.0, 2.50052, 2.4983056 
1.3627866e+2, 1.124258e+1, -128103.61, -749318.25, -3175.7798, -0.010235428, 0.011319408, -128087.375, -128087.375, 0.0, 2.50052, 2.4984636 
1.3627863e+2, 1.3741076e+1, -128259.06, -748889.0, -2638.5986, -0.011185634, 0.014282233, -128247.84, -128247.84, 0.0, 2.5005193, 2.4984648 
1.3627861e+2, 1.6239575e+1, -128746.055, -749147.25, -2287.6194, -0.012131575, 0.017246122, -128737.62, -128737.62, 0.0, 2.5005186, 2.4984646 
1.362786e+2, 1.873807e+1, -129233.63, -749405.8, -1936.2974, -0.01307312, 0.020211548, -129227.586, -129227.586, 0.0, 2.5005176, 2.4984646 
1.3627858e+2, 2.1236636e+1, -86229.09, -659108.2, -2099.9336, -0.013223615, 0.022414276, -86221.4, -86221.4, 0.0, 2.5005167, 2.49862 
1.3627857e+2, 2.3735267e+1, -86389.17, -658114.4, -2363.3499, -0.012897405, 0.023207173, -86379.4, -86379.4, 0.0, 2.5005152, 2.4986224 
1.3627857e+2, 2.62339e+1, -87242.336, -658558.06, -2973.4045, -0.012570087, 0.024000129, -87226.86, -87226.86, 0.0, 2.5005138, 2.4986222 
1.3627855e+2, 2.8732532e+1, -88096.805, -659002.3, -3582.9585, -0.012240844, 0.024794696, -88074.32, -88074.32, 0.0, 2.5005124, 2.4986222 
1.3627854e+2, 3.1231248e+1, -46245.65, -573801.9, -5957.665, -0.012387964, 0.026642108, -46178.375, -46178.375, 0.0, 2.5005143, 2.4987674 
1.3627851e+2, 3.3730042e+1, -42350.703, -570238.25, -5554.9224, -0.013145876, 0.02871455, -42292.258, -42292.258, 0.0, 2.500519, 2.4987712 
1.3627848e+2, 3.6228836e+1, -39538.96, -568922.2, -5512.012, -0.013901607, 0.03078487, -39481.58, -39481.58, 0.0, 2.500524, 2.4987712 
1.3627845e+2, 3.8727626e+1, -36728.195, -567606.56, -5468.6577, -0.014654706, 0.032856017, -36671.87, -36671.87, 0.0, 2.5005288, 2.498771 
1.3627842e+2, 4.12265e+1, 3247.5178, -484692.94, -5657.651, -0.015072762, 0.0361245, 3313.1094, 3313.1094, 0.0, 2.500529, 2.4989133 
1.3627839e+2, 4.3725455e+1, 1850.0873, -483053.4, -5140.729, -0.015188746, 0.03952968, 1904.5809, 1904.5809, 0.0, 2.500524, 2.4989183 
1.3627838e+2, 4.6224412e+1, -1023.9284, -484477.88, -5015.399, -0.015303685, 0.042929433, -971.90375, -971.90375, 0.0, 2.5005193, 2.4989183 
1.3627836e+2, 4.872336e+1, -3899.6099, -485903.16, -4889.739, -0.015417453, 0.04632859, -3850.0105, -3850.0105, 0.0, 2.5005143, 2.4989183 
1.3627833e+2, 5.122237e+1, 38907.254, -399663.2, -5030.769, -0.015785225, 0.04832166, 38964.953, 38964.953, 0.0, 2.5005171, 2.499065 
1.3627832e+2, 5.3721434e+1, 47254.89, -392779.0, -5187.716, -0.016131036, 0.047480784, 47316.043, 47316.043, 0.0, 2.5005286, 2.4990711 
1.3627829e+2, 5.62205e+1, 53784.6, -389670.63, -5675.8315, -0.016474694, 0.04663158, 53857.234, 53857.234, 0.0, 2.5005398, 2.4990711 
1.3627827e+2, 5.8719563e+1, 60312.527, -386563.13, -6163.667, -0.016817838, 0.045781463, 60397.523, 60397.523, 0.0, 2.500551, 2.4990711 
1.3627824e+2, 6.121872e+1, 102339.5, -301330.4, -6287.644, -0.017366095, 0.047102842, 102437.414, 102437.414, 0.0, 2.5005531, 2.4992163 
1.3627823e+2, 6.371796e+1, 100473.33, -299080.72, -6044.0522, -0.017492691, 0.04904828, 100564.74, 100564.74, 0.0, 2.5005467, 2.4992232 
1.3627821e+2, 6.621721e+1, 96614.72, -300968.9, -5958.158, -0.017616672, 0.05098404, 96703.984, 96703.984, 0.0, 2.50054, 2.4992232 
1.362782e+2, 6.871645e+1, 92753.67, -302858.25, -5872.1333, -0.01774206, 0.05291966, 92840.81, 92840.81, 0.0, 2.5005333, 2.4992232 
1.3627818e+2, 7.121576e+1, 131492.23, -223492.48, -4515.485, -0.018294238, 0.0553388, 131549.67, 131549.67, 0.0, 2.5005345, 2.499359 
1.3627818e+2, 7.371513e+1, 139637.02, -216600.63, -4692.6846, -0.017521743, 0.056153424, 139698.83, 139698.83, 0.0, 2.5005455, 2.4993656 
1.3627818e+2, 7.621451e+1, 145909.11, -213604.11, -4764.723, -0.016741514, 0.056954715, 145972.25, 145972.25, 0.0, 2.5005562, 2.4993653 
1.3627818e+2, 7.871388e+1, 152177.89, -210609.17, -4836.957, -0.015965676, 0.057756517, 152242.38, 152242.38, 0.0, 2.500567, 2.4993653 
1.362782e+2, 8.121333e+1, 195273.81, -122016.305, -3303.635, -0.014828, 0.059007347, 195308.2, 195308.2, 0.0, 2.5005682, 2.499517 
1.3627821e+2, 8.371285e+1, 192464.08, -120769.25, -3619.5376, -0.01328766, 0.059047986, 192505.9, 192505.9, 0.0, 2.5005605, 2.4995227 
1.3627823e+2, 8.621238e+1, 188015.88, -122928.11, -3455.6738, -0.011754265, 0.059078615, 188054.27, 188054.27, 0.0, 2.500553, 2.4995227 
1.3627824e+2, 8.87119e+1, 183562.52, -125089.46, -3292.0156, -0.01022794, 0.059110772, 183597.63, 183597.63, 0.0, 2.5005453, 2.4995227 
1.3627826e+2, 9.121151e+1, 222728.08, -43944.99, 1343.2361, -0.011379863, 0.061082922, 222734.84, 222734.84, 0.0, 2.5005455, 2.499662 
1.3627833e+2, 9.371117e+1, 230286.19, -38597.816, 958.194, -0.0066212574, 0.060528334, 230289.61, 230289.61, 0.0, 2.5005565, 2.4996657 
1.3627839e+2, 9.6210825e+1, 236767.75, -35489.66, 1302.9578, -0.0018273747, 0.059934244, 236773.98, 236773.98, 0.0, 2.5005677, 2.4996657 
1.3627848e+2, 9.871049e+1, 243238.2, -32386.852, 1647.7911, 0.0029351448, 0.059334442, 243248.05, 243248.05, 0.0, 2.5005789, 2.4996657 
1.3877913e+2, 1.2491669e+0, -173943.34, -842861.0, 106.82262, -0.014685158, 0.0013777862, -173943.33, -173943.33, 0.0, 2.5005183, 2.4983041 
1.3877915e+2, 3.7475008e+0, -173829.31, -843150.25, -335.59775, -0.013341893, 0.0041341647, -173829.14, -173829.14, 0.0, 2.5005188, 2.4983032 
1.3877916e+2, 6.245834e+0, -173539.3, -843018.56, -695.5751, -0.011999783, 0.006891619, -173538.58, -173538.58, 0.0, 2.5005193, 2.4983032 
1.3877918e+2, 8.744168e+0, -173283.89, -842903.6, -1056.7871, -0.010658827, 0.009650148, -173282.22, -173282.22, 0.0, 2.5005198, 2.4983032 
1.3877916e+2, 1.1242581e+1, -127610.79, -748043.44, -3289.8572, -0.010809627, 0.012288947, -127593.34, -127593.34, 0.0, 2.5005198, 2.498466 
1.3877915e+2, 1.3741072e+1, -127659.88, -747537.56, -2793.2195, -0.012574907, 0.014369066, -127647.3, -127647.3, 0.0, 2.5005193, 2.498467 
1.3877912e+2, 1.6239561e+1, -128079.77, -747761.8, -2461.0857, -0.014338447, 0.016451355, -128070.0, -128070.0, 0.0, 2.5005186, 2.498467 
1.3877909e+2, 1.8738052e+1, -128524.66, -747998.1, -2129.071, -0.016100083, 0.01853633, -128517.336, -128517.336, 0.0, 2.5005178, 2.498467 
1.3877907e+2, 2.1236615e+1, -87249.63, -661369.6, -2395.1235, -0.016072927, 0.020525439, -87239.64, -87239.64, 0.0, 2.500517, 2.498616 
1.3877907e+2, 2.3735249e+1, -87364.836, -660377.5, -2683.8538, -0.014502174, 0.02181327, -87352.266, -87352.266, 0.0, 2.5005155, 2.4986184 
1.3877907e+2, 2.6233882e+1, -88181.73, -660801.56, -3309.3328, -0.012933539, 0.02310139, -88162.6, -88162.6, 0.0, 2.500514, 2.4986184 
1.3877909e+2, 2.8732514e+1, -89024.516, -661238.1, -3937.6323, -0.01136637, 0.024391245, -88997.42, -88997.42, 0.0, 2.5005126, 2.4986181 
1.3877906e+2, 3.123123e+1, -45988.1, -573581.5, -5366.6763, -0.011487476, 0.026518263, -45933.516, -45933.516, 0.0, 2.5005145, 2.4987676 
1.3877903e+2, 3.373002e+1, -42047.875, -569954.44, -5009.2188, -0.013533497, 0.028590985, -42000.348, -42000.348, 0.0, 2.5005195, 2.4987714 
1.3877898e+2, 3.6228818e+1, -39234.63, -568635.9, -4993.063, -0.015580073, 0.03066071, -39187.543, -39187.543, 0.0, 2.5005243, 2.4987714 
1.3877894e+2, 3.872761e+1, -36440.594, -567326.56, -4978.506, -0.017626444, 0.032730613, -36393.91, -36393.91, 0.0, 2.5005293, 2.4987714 
1.3877892e+2, 4.1226482e+1, 3712.418, -484088.6, -6661.537, -0.018063482, 0.035803013, 3803.3726, 3803.3726, 0.0, 2.5005293, 2.498914 
1.3877891e+2, 4.3725434e+1, 2383.2505, -482425.16, -6199.283, -0.016801827, 0.038829017, 2462.5083, 2462.5083, 0.0, 2.5005245, 2.4989192 
1.387789e+2, 4.6224385e+1, -449.62448, -483828.84, -6113.98, -0.015542659, 0.041848317, -372.30472, -372.30472, 0.0, 2.5005198, 2.4989192 
1.3877888e+2, 4.8723334e+1, -3317.5225, -485249.44, -6029.5757, -0.014286285, 0.044865638, -3242.0967, -3242.0967, 0.0, 2.500515, 2.498919 
1.3877887e+2, 5.122234e+1, 38336.914, -401343.78, -3828.974, -0.01446496, 0.046673123, 38370.254, 38370.254, 0.0, 2.5005178, 2.4990616 
1.3877884e+2, 5.3721404e+1, 46567.01, -394572.03, -3957.2195, -0.01589408, 0.045887876, 46602.508, 46602.508, 0.0, 2.5005288, 2.499068 
1.3877882e+2, 5.6220466e+1, 52973.855, -391523.2, -4472.9727, -0.01732552, 0.045093462, 53018.863, 53018.863, 0.0, 2.50054, 2.4990678 
1.387788e+2, 5.871952e+1, 59338.633, -388494.6, -4988.711, -0.018760528, 0.04429708, 59394.2, 59394.2, 0.0, 2.500551, 2.4990678 
1.3877878e+2, 6.121868e+1, 102327.19, -301136.78, -7887.593, -0.019402526, 0.04555173, 102481.33, 102481.33, 0.0, 2.500553, 2.4992168 
1.3877878e+2, 6.371792e+1, 100466.98, -298859.7, -7662.2505, -0.018491426, 0.047314197, 100613.945, 100613.945, 0.0, 2.5005465, 2.4992237 
1.3877876e+2, 6.621716e+1, 96548.43, -300777.06, -7628.8096, -0.017582309, 0.049066775, 96694.85, 96694.85, 0.0, 2.5005398, 2.4992237 
1.3877875e+2, 6.87164e+1, 92577.695, -302719.63, -7592.9175, -0.016679836, 0.050818935, 92723.49, 92723.49, 0.0, 2.5005329, 2.4992237 
1.3877873e+2, 7.1215713e+1, 130907.14, -223989.86, -3831.091, -0.01730562, 0.053079206, 130948.49, 130948.49, 0.0, 2.5005338, 2.4993584 
1.3877873e+2, 7.371509e+1, 138829.36, -217238.1, -3872.704, -0.017760618, 0.053816773, 138871.47, 138871.47, 0.0, 2.5005443, 2.4993649 
1.3877873e+2, 7.621446e+1, 144831.36, -214373.47, -3978.2039, -0.018215401, 0.05454122, 144875.42, 144875.42, 0.0, 2.5005546, 2.4993649 
1.3877873e+2, 7.871383e+1, 150762.53, -211542.95, -4082.7986, -0.018681942, 0.055265978, 150808.53, 150808.53, 0.0, 2.5005648, 2.4993649 
1.3877875e+2, 8.121328e+1, 194088.19, -122084.04, -5496.9063, -0.017111223, 0.056458898, 194183.73, 194183.73, 0.0, 2.5005655, 2.4995182 
1.3877878e+2, 8.3712804e+1, 191066.03, -120981.71, -5689.405, -0.013462323, 0.056533303, 191169.73, 191169.73, 0.0, 2.5005574, 2.4995239 
1.387788e+2, 8.621233e+1, 186346.19, -123272.96, -5532.8394, -0.009831156, 0.056598898, 186445.02, 186445.02, 0.0, 2.5005496, 2.4995239 
1.3877884e+2, 8.871185e+1, 181536.81, -125607.33, -5369.9854, -0.006217474, 0.056666706, 181630.67, 181630.67, 0.0, 2.5005412, 2.4995236 
1.3877884e+2, 9.1211456e+1, 220720.17, -43840.84, 1766.5106, -0.007601305, 0.058050107, 220731.97, 220731.97, 0.0, 2.5005407, 2.4996643 
1.387789e+2, 9.3711114e+1, 227704.7, -38837.93, 1653.1841, -0.005265389, 0.05650948, 227714.95, 227714.95, 0.0, 2.500551, 2.4996681 
1.3877895e+2, 9.621076e+1, 233477.55, -36071.53, 1967.4578, -0.0029137593, 0.054932885, 233491.9, 233491.9, 0.0, 2.500561, 2.499668 
1.3877903e+2, 9.871041e+1, 239063.98, -33394.91, 2282.2703, -0.00061459, 0.053352226, 239083.11, 239083.11, 0.0, 2.5005705, 2.499668 
1.4127965e+2, 1.2491671e+0, -165655.86, -839292.56, -60.76967, -0.015072565, 0.0014493373, -165655.86, -165655.86, 0.0, 2.5005329, 2.4983032 
1.4127967e+2, 3.747501e+0, -169055.86, -841270.6, -92.652725, -0.013860092, 0.0043473085, -169055.84, -169055.84, 0.0, 2.5005274, 2.4983025 
1.4127968e+2, 6.2458354e+0, -172252.23, -842823.56, -38.61784, -0.012635969, 0.007244343, -172252.23, -172252.23, 0.0, 2.500522, 2.4983022 
1.4127968e+2, 8.7441695e+0, -175449.95, -844377.1, 15.952501, -0.011400196, 0.0101404395, -175449.95, -175449.95, 0.0, 2.5005167, 2.4983022 
1.4127968e+2, 1.124258e+1, -129918.484, -749045.56, -1639.9751, -0.011599996, 0.012576635, -129914.14, -129914.14, 0.0, 2.5005157, 2.4984663 
1.4127965e+2, 1.3741066e+1, -127338.72, -747273.5, -1744.7096, -0.013396373, 0.014109164, -127333.805, -127333.805, 0.0, 2.5005195, 2.4984672 
1.4127962e+2, 1.6239549e+1, -125106.0, -746220.94, -2001.8672, -0.015185827, 0.015640311, -125099.555, -125099.555, 0.0, 2.5005236, 2.4984672 
1.412796e+2, 1.8738036e+1, -122874.23, -745168.75, -2258.7874, -0.016968155, 0.017170597, -122866.03, -122866.03, 0.0, 2.5005274, 2.4984672 
1.4127958e+2, 2.1236596e+1, -81052.53, -659061.56, -2956.3308, -0.016866611, 0.019008089, -81037.414, -81037.414, 0.0, 2.500528, 2.4986145 
1.412796e+2, 2.373523e+1, -82045.914, -658516.5, -2505.1465, -0.015070736, 0.020565491, -82035.03, -82035.03, 0.0, 2.5005255, 2.4986167 
1.412796e+2, 2.6233864e+1, -83707.61, -659356.9, -2357.1604, -0.013268164, 0.022120897, -83697.95, -83697.95, 0.0, 2.5005226, 2.4986167 
1.412796e+2, 2.87325e+1, -85370.29, -660197.7, -2208.5256, -0.01145838, 0.023675712, -85361.805, -85361.805, 0.0, 2.5005198, 2.4986167 
1.4127958e+2, 3.123121e+1, -43423.914, -572605.06, -2478.669, -0.011627006, 0.025833672, -43412.305, -43412.305, 0.0, 2.5005193, 2.4987671 
1.4127955e+2, 3.3730003e+1, -41348.965, -569895.56, -2326.803, -0.014067433, 0.027690258, -41338.723, -41338.723, 0.0, 2.500521, 2.498771 
1.4127949e+2, 3.6228794e+1, -40372.887, -569468.1, -2499.2478, -0.016504591, 0.029543733, -40361.082, -40361.082, 0.0, 2.5005226, 2.4987707 
1.4127946e+2, 3.8727584e+1, -39397.996, -569041.3, -2671.122, -0.018937552, 0.031397313, -39384.527, -39384.527, 0.0, 2.5005245, 2.4987707 
1.4127943e+2, 4.1226456e+1, 2295.198, -485303.13, -5194.454, -0.019306287, 0.034223232, 2350.5288, 2350.5288, 0.0, 2.5005276, 2.4989128 
1.4127943e+2, 4.3725404e+1, 6220.956, -481147.94, -5254.776, -0.01747081, 0.037003748, 6277.606, 6277.606, 0.0, 2.500532, 2.498918 
1.4127941e+2, 4.622435e+1, 8699.254, -479996.56, -5681.5913, -0.015628591, 0.03978153, 8765.299, 8765.299, 0.0, 2.5005362, 2.4989178 
1.4127941e+2, 4.8723298e+1, 11176.029, -478845.9, -6107.954, -0.013780103, 0.042561177, 11252.15, 11252.15, 0.0, 2.5005405, 2.4989178 
1.412794e+2, 5.12223e+1, 52204.12, -395159.3, -3050.0461, -0.013969537, 0.04438632, 52224.914, 52224.914, 0.0, 2.5005422, 2.4990606 
1.4127937e+2, 5.372136e+1, 53352.27, -391845.97, -2421.7964, -0.016040614, 0.04391457, 53365.445, 53365.445, 0.0, 2.5005412, 2.4990668 
1.4127935e+2, 5.622043e+1, 52743.133, -392179.63, -2214.0818, -0.018104406, 0.043438416, 52754.15, 52754.15, 0.0, 2.50054, 2.4990666 
1.4127934e+2, 5.871949e+1, 52131.68, -392514.44, -2006.5774, -0.020162068, 0.04296486, 52140.734, 52140.734, 0.0, 2.500539, 2.4990666 
1.4127931e+2, 6.121864e+1, 94145.766, -306310.9, -5911.143, -0.020724313, 0.04413157, 94233.01, 94233.01, 0.0, 2.5005403, 2.499214 
1.4127931e+2, 6.371787e+1, 98482.07, -301100.7, -6487.901, -0.018997034, 0.045424845, 98587.38, 98587.38, 0.0, 2.5005443, 2.4992208 
1.4127931e+2, 6.621711e+1, 100845.72, -299989.75, -7324.7603, -0.017258493, 0.04670967, 100979.52, 100979.52, 0.0, 2.5005484, 2.4992208 
1.412793e+2, 6.871634e+1, 103206.93, -298879.97, -8161.8413, -0.015513435, 0.047995277, 103372.54, 103372.54, 0.0, 2.5005527, 2.4992208 
1.4127928e+2, 7.1215653e+1, 142580.39, -218331.95, -3915.776, -0.016047899, 0.050055053, 142622.88, 142622.88, 0.0, 2.5005538, 2.4993584 
1.4127928e+2, 7.3715025e+1, 144237.08, -214622.06, -3554.0745, -0.017218985, 0.050954554, 144272.27, 144272.27, 0.0, 2.5005536, 2.4993649 
1.4127928e+2, 7.621439e+1, 144054.14, -214735.88, -3408.247, -0.018370835, 0.051842023, 144086.52, 144086.52, 0.0, 2.5005534, 2.4993649 
1.4127928e+2, 7.871377e+1, 143868.3, -214851.1, -3262.9373, -0.019515136, 0.05273027, 143897.97, 143897.97, 0.0, 2.5005531, 2.4993649 
1.412793e+2, 8.121322e+1, 186679.11, -126367.71, -6187.9355, -0.017793689, 0.053986046, 186801.38, 186801.38, 0.0, 2.5005536, 2.4995165 
1.4127932e+2, 8.3712745e+1, 190247.28, -122143.9, -7014.547, -0.013166755, 0.054072723, 190404.7, 190404.7, 0.0, 2.500557, 2.4995222 
1.4127937e+2, 8.6212265e+1, 192246.88, -121187.69, -7685.189, -0.00852802, 0.05414666, 192435.2, 192435.2, 0.0, 2.5005603, 2.4995222 
1.412794e+2, 8.871179e+1, 194242.47, -120233.414, -8356.585, -0.0038770214, 0.05421849, 194464.38, 194464.38, 0.0, 2.5005639, 2.499522 
1.4127941e+2, 9.121139e+1, 234305.3, -37633.746, -1281.7119, -0.0052529094, 0.055412937, 234311.34, 234311.34, 0.0, 2.5005646, 2.4996636 
1.4127946e+2, 9.3711036e+1, 235371.3, -35534.52, -2115.5278, -0.004004942, 0.05377938, 235387.81, 235387.81, 0.0, 2.5005646, 2.4996672 
1.4127952e+2, 9.621069e+1, 235436.3, -35518.42, -2809.1455, -0.0026855222, 0.052101985, 235465.42, 235465.42, 0.0, 2.5005648, 2.4996672 
1.4127958e+2, 9.8710334e+1, 235491.77, -35506.92, -3502.3462, -0.0013623214, 0.05041037, 235537.02, 235537.02, 0.0, 2.5005648, 2.4996672 
1.4378019e+2, 1.2491671e+0, -165543.42, -839057.25, -893.1948, -0.014942461, 0.0014295152, -165542.23, -165542.23, 0.0, 2.5005329, 2.4983034 
1.4378019e+2, 3.747501e+0, -168938.25, -841021.2, -922.9835, -0.014289838, 0.004288545, -168936.98, -168936.98, 0.0, 2.5005274, 2.4983027 
1.4378019e+2, 6.2458354e+0, -172136.08, -842573.7, -866.80994, -0.013631878, 0.007147575, -172134.95, -172134.95, 0.0, 2.500522, 2.4983027 
1.4378019e+2, 8.7441695e+0, -175335.23, -844126.9, -810.10077, -0.01296858, 0.010006605, -175334.25, -175334.25, 0.0, 2.5005164, 2.4983027 
1.4378019e+2, 1.12425774e+1, -130364.4, -749970.25, -1058.727, -0.01307271, 0.012300874, -130362.59, -130362.59, 0.0, 2.5005157, 2.4984646 
1.4378017e+2, 1.3741058e+1, -127797.22, -748222.56, -1165.6047, -0.014138231, 0.013611854, -127795.02, -127795.02, 0.0, 2.5005195, 2.4984658 
1.4378014e+2, 1.623954e+1, -125565.49, -747170.2, -1421.1475, -0.015200543, 0.014921894, -125562.24, -125562.24, 0.0, 2.5005236, 2.4984655 
1.4378013e+2, 1.873802e+1, -123334.71, -746118.3, -1676.4528, -0.016259387, 0.016231481, -123330.195, -123330.195, 0.0, 2.5005274, 2.4984655 
1.4378013e+2, 2.123658e+1, -80775.22, -658452.56, -3339.8442, -0.01618445, 0.017989522, -80755.914, -80755.914, 0.0, 2.500528, 2.4986155 
1.4378011e+2, 2.3735216e+1, -81776.516, -657919.94, -2932.312, -0.015108563, 0.019607555, -81761.59, -81761.59, 0.0, 2.5005252, 2.498618 
1.4378011e+2, 2.6233852e+1, -83439.78, -658759.6, -2782.9646, -0.014028725, 0.021224452, -83426.32, -83426.32, 0.0, 2.5005226, 2.4986176 
1.4378011e+2, 2.8732488e+1, -85104.05, -659599.9, -2632.9683, -0.012944575, 0.02284164, -85091.98, -85091.98, 0.0, 2.5005198, 2.4986176 
1.4378008e+2, 3.12312e+1, -43719.402, -573176.8, -2209.755, -0.013234896, 0.024816476, -43710.18, -43710.18, 0.0, 2.5005193, 2.4987662 
1.4378004e+2, 3.3729985e+1, -41684.68, -570544.5, -2067.7, -0.015198831, 0.02627023, -41676.598, -41676.598, 0.0, 2.500521, 2.4987698 
1.4378001e+2, 3.622877e+1, -40712.133, -570116.9, -2238.2307, -0.017161334, 0.027721036, -40702.668, -40702.668, 0.0, 2.5005226, 2.4987698 
1.4377998e+2, 3.8727558e+1, -39740.47, -569689.7, -2408.113, -0.019121414, 0.029172001, -39729.527, -39729.527, 0.0, 2.5005243, 2.4987698 
1.4377996e+2, 4.1226423e+1, 1505.7068, -486868.63, -4537.091, -0.019336544, 0.031726815, 1547.8535, 1547.8535, 0.0, 2.5005274, 2.4989102 
1.4377996e+2, 4.3725365e+1, 5388.9326, -482792.03, -4598.958, -0.01768355, 0.034412485, 5432.254, 5432.254, 0.0, 2.5005317, 2.4989152 
1.4377995e+2, 4.6224308e+1, 7862.2954, -481641.72, -5022.585, -0.016026305, 0.037095383, 7913.8247, 7913.8247, 0.0, 2.500536, 2.4989152 
1.4377995e+2, 4.872325e+1, 10334.466, -480491.97, -5445.569, -0.014365242, 0.03977992, 10394.875, 10394.875, 0.0, 2.5005403, 2.498915 
1.4377993e+2, 5.122226e+1, 52552.42, -394326.97, -3195.2063, -0.014743962, 0.04183869, 52575.266, 52575.266, 0.0, 2.500542, 2.499062 
1.437799e+2, 5.3721327e+1, 53678.098, -391059.63, -2551.1643, -0.016991373, 0.04196578, 53692.734, 53692.734, 0.0, 2.500541, 2.4990683 
1.4377989e+2, 5.62204e+1, 53070.19, -391391.66, -2338.4495, -0.019234529, 0.04208841, 53082.496, 53082.496, 0.0, 2.50054, 2.499068 
1.4377986e+2, 5.871947e+1, 52460.867, -391724.34, -2125.2964, -0.021474699, 0.042213425, 52471.035, 52471.035, 0.0, 2.500539, 2.499068 
1.4377984e+2, 6.121862e+1, 92620.75, -309394.34, -5350.8228, -0.02178559, 0.04328595, 92691.95, 92691.95, 0.0, 2.5005403, 2.4992087 
1.4377984e+2, 6.3717836e+1, 96881.414, -304343.9, -5833.053, -0.019429317, 0.043846086, 96966.195, 96966.195, 0.0, 2.5005443, 2.4992154 
1.4377986e+2, 6.621706e+1, 99246.31, -303233.4, -6664.862, -0.017065274, 0.04439859, 99356.65, 99356.65, 0.0, 2.5005484, 2.4992154 
1.4377986e+2, 6.8716276e+1, 101609.734, -302123.6, -7496.386, -0.014697811, 0.044952262, 101748.88, 101748.88, 0.0, 2.5005524, 2.4992154 
1.4377984e+2, 7.121558e+1, 142841.3, -217756.34, -4037.3079, -0.014957261, 0.046769757, 142886.5, 142886.5, 0.0, 2.5005538, 2.4993594 
1.4377984e+2, 7.371496e+1, 144495.63, -214067.95, -3538.6409, -0.016279629, 0.04805094, 144530.55, 144530.55, 0.0, 2.5005536, 2.4993658 
1.4377984e+2, 7.621434e+1, 144324.45, -214175.83, -3387.7305, -0.017587638, 0.049321502, 144356.45, 144356.45, 0.0, 2.5005534, 2.4993658 
1.4377983e+2, 7.8713715e+1, 144151.13, -214284.75, -3236.772, -0.0188925, 0.05059344, 144180.36, 144180.36, 0.0, 2.5005531, 2.4993658 
1.4377986e+2, 8.1213164e+1, 185563.75, -128791.49, -5828.61, -0.01727733, 0.052002426, 185671.78, 185671.78, 0.0, 2.5005536, 2.4995122 
1.4377989e+2, 8.3712685e+1, 189092.45, -124672.875, -6424.6104, -0.012715627, 0.052045576, 189223.95, 189223.95, 0.0, 2.5005572, 2.4995177 
1.4377993e+2, 8.6212206e+1, 191105.27, -123712.984, -7092.006, -0.008147329, 0.052076973, 191264.95, 191264.95, 0.0, 2.5005605, 2.4995177 
1.4377996e+2, 8.871172e+1, 193115.34, -122754.414, -7759.728, -0.0035719222, 0.052106995, 193305.86, 193305.86, 0.0, 2.500564, 2.4995177 
1.4377998e+2, 9.121132e+1, 233231.92, -40132.766, -1447.8181, -0.0046905726, 0.053446244, 233239.6, 233239.6, 0.0, 2.5005648, 2.499659 
1.4378004e+2, 9.371097e+1, 234302.61, -38068.273, -2002.2087, -0.0031454707, 0.052492008, 234317.33, 234317.33, 0.0, 2.500565, 2.4996626 
1.437801e+2, 9.6210617e+1, 234398.05, -38036.906, -2686.9639, -0.001541757, 0.05149796, 234424.55, 234424.55, 0.0, 2.500565, 2.4996626 
1.4378016e+2, 9.871027e+1, 234487.86, -38008.24, -3371.6748, 0.0000553323, 0.05049111, 234529.56, 234529.56, 0.0, 2.5005653, 2.4996626 
1.4628072e+2, 1.24916695e+0, -165431.52, -838823.0, -1726.4998, -0.014812349, 0.0014088403, -165427.08, -165427.08, 0.0, 2.5005329, 2.498304 
1.4628072e+2, 3.7475008e+0, -168822.13, -840774.8, -1753.777, -0.014719562, 0.0042272233, -168817.55, -168817.55, 0.0, 2.5005274, 2.4983032 
1.462807e+2, 6.245835e+0, -172021.39, -842326.94, -1695.4646, -0.014627749, 0.007046543, -172017.11, -172017.11, 0.0, 2.500522, 2.4983032 
1.4628069e+2, 8.7441695e+0, -175222.0, -843879.75, -1636.6167, -0.01453691, 0.0098668, -175217.98, -175217.98, 0.0, 2.5005164, 2.4983032 
1.4628069e+2, 1.1242576e+1, -130818.02, -750911.0, -475.37274, -0.014545056, 0.012024002, -130817.664, -130817.664, 0.0, 2.5005157, 2.498463 
1.4628068e+2, 1.3741052e+1, -128257.09, -749174.5, -586.64386, -0.014879637, 0.013110768, -128256.54, -128256.54, 0.0, 2.5005195, 2.498464 
1.4628068e+2, 1.623953e+1, -126026.37, -748122.4, -840.5716, -0.015214724, 0.014197018, -126025.23, -126025.23, 0.0, 2.5005236, 2.498464 
1.4628066e+2, 1.8738006e+1, -123796.57, -747070.7, -1094.262, -0.0155500015, 0.015283223, -123794.65, -123794.65, 0.0, 2.5005274, 2.4984639 
1.4628066e+2, 2.1236564e+1, -80503.3, -657854.7, -3727.6167, -0.015502052, 0.01696642, -80479.23, -80479.23, 0.0, 2.500528, 2.4986167 
1.4628065e+2, 2.3735203e+1, -81508.32, -657325.8, -3359.9592, -0.015146136, 0.01864254, -81488.71, -81488.71, 0.0, 2.5005252, 2.4986188 
1.4628063e+2, 2.623384e+1, -83173.164, -658164.94, -3209.2502, -0.014789009, 0.020318355, -83155.25, -83155.25, 0.0, 2.5005224, 2.4986188 
1.4628062e+2, 2.873248e+1, -84839.0, -659004.5, -3057.8928, -0.014430469, 0.021995338, -84822.72, -84822.72, 0.0, 2.5005198, 2.4986186 
1.4628057e+2, 3.123119e+1, -44022.52, -573765.94, -1940.8667, -0.014839137, 0.023793837, -44015.41, -44015.41, 0.0, 2.5005193, 2.4987652 
1.4628056e+2, 3.372997e+1, -42018.39, -571193.94, -1810.3923, -0.01632672, 0.024843063, -42012.195, -42012.195, 0.0, 2.500521, 2.4987688 
1.4628053e+2, 3.622875e+1, -41046.707, -570764.9, -1980.1147, -0.017814726, 0.025889445, -41039.305, -41039.305, 0.0, 2.5005226, 2.4987686 
1.4628051e+2, 3.8727528e+1, -40075.914, -570336.2, -2149.1887, -0.019302089, 0.026936037, -40067.203, -40067.203, 0.0, 2.5005243, 2.4987686 
1.4628048e+2, 4.122639e+1, 720.76215, -488441.47, -3886.2942, -0.019367147, 0.029224513, 751.63605, 751.63605, 0.0, 2.5005274, 2.4989076 
1.4628048e+2, 4.372533e+1, 4570.458, -484430.97, -3950.9888, -0.017895812, 0.031813532, 4602.3784, 4602.3784, 0.0, 2.5005317, 2.4989123 
1.4628048e+2, 4.622427e+1, 7042.403, -483280.0, -4373.5967, -0.016422689, 0.034399685, 7081.4116, 7081.4116, 0.0, 2.500536, 2.4989123 
1.4628048e+2, 4.872321e+1, 9513.155, -482129.6, -4795.562, -0.014948195, 0.036987253, 9559.928, 9559.928, 0.0, 2.5005403, 2.4989123 
1.4628047e+2, 5.122222e+1, 52920.652, -393488.63, -3356.6365, -0.01551288, 0.039283678, 52945.89, 52945.89, 0.0, 2.500542, 2.4990635 
1.4628044e+2, 5.3721297e+1, 54024.008, -390264.84, -2698.5142, -0.017935554, 0.04000752, 54040.4, 54040.4, 0.0, 2.500541, 2.4990695 
1.4628041e+2, 5.622037e+1, 53415.01, -390596.3, -2484.4526, -0.020357039, 0.0407268, 53428.91, 53428.91, 0.0, 2.50054, 2.4990695 
1.462804e+2, 5.871945e+1, 52804.598, -390928.44, -2269.953, -0.022778679, 0.041448247, 52816.207, 52816.207, 0.0, 2.5005388, 2.4990695 
1.4628038e+2, 6.1218596e+1, 91094.47, -312500.1, -4816.4834, -0.022846878, 0.042438067, 91151.94, 91151.94, 0.0, 2.50054, 2.4992034 
1.462804e+2, 6.3717806e+1, 95289.86, -307584.1, -5210.3687, -0.019860337, 0.042262197, 95357.234, 95357.234, 0.0, 2.5005443, 2.49921 
1.4628041e+2, 6.621701e+1, 97653.23, -306475.34, -6040.5044, -0.016869403, 0.042079348, 97743.49, 97743.49, 0.0, 2.5005484, 2.49921 
1.4628042e+2, 6.8716216e+1, 100015.11, -305367.3, -6870.357, -0.013878145, 0.041898064, 100131.516, 100131.516, 0.0, 2.5005524, 2.4992096 
1.4628041e+2, 7.1215516e+1, 143090.61, -217199.05, -4197.783, -0.013857915, 0.04348124, 143139.52, 143139.52, 0.0, 2.5005538, 2.4993603 
1.4628041e+2, 7.37149e+1, 144739.22, -213521.8, -3569.1873, -0.015331121, 0.045142584, 144774.77, 144774.77, 0.0, 2.5005536, 2.4993668 
1.462804e+2, 7.621429e+1, 144567.45, -213629.7, -3416.6284, -0.0167949, 0.046794593, 144600.05, 144600.05, 0.0, 2.5005534, 2.4993668 
1.462804e+2, 7.871367e+1, 144393.56, -213738.63, -3264.0215, -0.018259937, 0.04844858, 144423.31, 144423.31, 0.0, 2.500553, 2.4993668 
1.4628041e+2, 8.1213117e+1, 184382.44, -131267.38, -5514.875, -0.016757265, 0.050016586, 184478.77, 184478.77, 0.0, 2.5005536, 2.4995081 
1.4628045e+2, 8.371263e+1, 187870.81, -127234.87, -5891.4253, -0.0122598205, 0.050014682, 187980.92, 187980.92, 0.0, 2.5005572, 2.4995134 
1.462805e+2, 8.621214e+1, 189882.78, -126278.07, -6556.9863, -0.007760891, 0.05000192, 190018.72, 190018.72, 0.0, 2.5005605, 2.4995131 
1.4628054e+2, 8.8711655e+1, 191892.02, -125322.59, -7222.874, -0.003260009, 0.049988512, 192056.39, 192056.39, 0.0, 2.500564, 2.4995131 
1.4628054e+2, 9.121125e+1, 232024.5, -42722.02, -1670.3528, -0.004105323, 0.051490784, 232034.66, 232034.66, 0.0, 2.5005648, 2.4996548 
1.4628062e+2, 9.37109e+1, 233086.78, -40673.926, -1956.9651, -0.0022636675, 0.05121306, 233100.77, 233100.77, 0.0, 2.500565, 2.499658 
1.4628068e+2, 9.621056e+1, 233181.39, -40642.324, -2637.453, -0.0003764663, 0.050899245, 233206.8, 233206.8, 0.0, 2.5005653, 2.499658 
1.4628074e+2, 9.8710203e+1, 233270.39, -40613.426, -3317.897, 0.0014937054, 0.050574042, 233310.58, 233310.58, 0.0, 2.5005655, 2.499658 
1.4878125e+2, 1.24916695e+0, -165953.81, -838895.75, -2562.375, -0.014678584, 0.0013872711, -165944.06, -165944.06, 0.0, 2.500532, 2.4983044 
1.4878124e+2, 3.7475008e+0, -169086.67, -840714.7, -2591.5903, -0.015146015, 0.0041632233, -169076.67, -169076.67, 0.0, 2.500527, 2.4983037 
1.4878121e+2, 6.245835e+0, -172113.31, -842182.5, -2535.778, -0.015620409, 0.0069410563, -172103.72, -172103.72, 0.0, 2.5005217, 2.4983037 
1.487812e+2, 8.744168e+0, -175221.7, -843689.75, -2479.3655, -0.016101765, 0.00972077, -175212.5, -175212.5, 0.0, 2.5005164, 2.4983037 
1.4878118e+2, 1.1242573e+1, -131361.72, -751907.7, 89.979965, -0.01601359, 0.011745761, -131361.7, -131361.7, 0.0, 2.5005157, 2.4984612 
1.487812e+2, 1.3741046e+1, -128807.9, -750172.7, -32.17405, -0.015617461, 0.012605707, -128807.9, -128807.9, 0.0, 2.5005195, 2.4984624 
1.487812e+2, 1.623952e+1, -126626.33, -749144.0, -288.69446, -0.015225371, 0.013465552, -126626.195, -126626.195, 0.0, 2.5005233, 2.4984624 
1.487812e+2, 1.8737993e+1, -124486.68, -748135.56, -544.9471, -0.014836956, 0.014325764, -124486.2, -124486.2, 0.0, 2.500527, 2.4984624 
1.487812e+2, 2.123655e+1, -80436.66, -657364.8, -4160.714, -0.014816398, 0.015938697, -80406.66, -80406.66, 0.0, 2.5005276, 2.4986176 
1.4878117e+2, 2.373519e+1, -81293.98, -656760.0, -3842.423, -0.015180555, 0.017670253, -81268.33, -81268.33, 0.0, 2.5005252, 2.4986198 
1.4878112e+2, 2.6233828e+1, -82853.19, -657546.8, -3703.1423, -0.015546091, 0.01940231, -82829.33, -82829.33, 0.0, 2.5005226, 2.4986198 
1.487811e+2, 2.8732467e+1, -84453.445, -658353.44, -3562.732, -0.015912965, 0.021136418, -84431.33, -84431.33, 0.0, 2.5005198, 2.4986198 
1.4878108e+2, 3.1231174e+1, -44169.023, -574293.75, -1762.7872, -0.016436603, 0.022765307, -44163.164, -44163.164, 0.0, 2.5005195, 2.498764 
1.4878106e+2, 3.372995e+1, -42155.004, -571750.4, -1657.4501, -0.017448127, 0.023408288, -42149.816, -42149.816, 0.0, 2.5005212, 2.4987676 
1.4878105e+2, 3.6228725e+1, -41174.313, -571315.1, -1840.7002, -0.01846187, 0.024048463, -41167.92, -41167.92, 0.0, 2.5005229, 2.4987676 
1.4878103e+2, 3.87275e+1, -40218.273, -570891.7, -2024.6733, -0.019476663, 0.024688898, -40210.55, -40210.55, 0.0, 2.5005245, 2.4987674 
1.4878102e+2, 4.1226357e+1, 129.5536, -489930.94, -3383.4988, -0.019395247, 0.026715793, 152.913, 152.913, 0.0, 2.5005276, 2.498905 
1.4878102e+2, 4.372529e+1, 3975.2297, -485964.06, -3460.2903, -0.018104887, 0.029206343, 3999.6675, 3999.6675, 0.0, 2.500532, 2.4989097 
1.4878102e+2, 4.6224228e+1, 6447.94, -484811.4, -3892.6387, -0.0168151, 0.031693857, 6478.782, 6478.782, 0.0, 2.5005362, 2.4989095 
1.4878102e+2, 4.8723164e+1, 8897.284, -483670.03, -4325.1343, -0.015526315, 0.03418253, 8935.26, 8935.26, 0.0, 2.5005405, 2.4989095 
1.48781e+2, 5.1222175e+1, 53475.8, -392564.34, -3717.3533, -0.01627367, 0.036720518, 53506.78, 53506.78, 0.0, 2.5005422, 2.499065 
1.4878097e+2, 5.372126e+1, 54540.117, -389389.78, -3069.145, -0.018870568, 0.038038846, 54561.336, 54561.336, 0.0, 2.5005412, 2.499071 
1.4878094e+2, 5.6220347e+1, 53881.09, -389744.28, -2879.4285, -0.02146925, 0.03935241, 53899.777, 53899.777, 0.0, 2.50054, 2.499071 
1.4878091e+2, 5.8719426e+1, 53189.906, -390114.25, -2689.5496, -0.024071105, 0.040667895, 53206.223, 53206.223, 0.0, 2.5005388, 2.499071 
1.487809e+2, 6.121857e+1, 89537.6, -315642.25, -4569.5054, -0.023905354, 0.041586448, 89589.13, 89589.13, 0.0, 2.50054, 2.499198 
1.4878093e+2, 6.3717765e+1, 93641.914, -310852.78, -4884.165, -0.02028771, 0.04067192, 93700.88, 93700.88, 0.0, 2.500544, 2.4992044 
1.4878096e+2, 6.6216964e+1, 95932.08, -309780.3, -5718.186, -0.016668823, 0.039750885, 96012.66, 96012.66, 0.0, 2.500548, 2.4992044 
1.4878097e+2, 6.8716156e+1, 98187.664, -308724.5, -6551.6772, -0.013052602, 0.03883179, 98293.125, 98293.125, 0.0, 2.500552, 2.4992042 
1.4878097e+2, 7.1215445e+1, 142962.1, -216836.23, -4673.5464, -0.01274821, 0.040188666, 143022.8, 143022.8, 0.0, 2.5005531, 2.4993613 
1.4878097e+2, 7.3714834e+1, 144429.45, -213242.67, -3937.4548, -0.01437194, 0.04222862, 144472.8, 144472.8, 0.0, 2.5005527, 2.4993677 
1.4878096e+2, 7.6214224e+1, 144024.97, -213462.36, -3800.555, -0.015991082, 0.04426036, 144065.38, 144065.38, 0.0, 2.500552, 2.4993677 
1.4878096e+2, 7.8713614e+1, 143569.23, -213706.73, -3662.503, -0.017615741, 0.046294656, 143606.78, 143606.78, 0.0, 2.5005512, 2.4993677 
1.4878097e+2, 8.121307e+1, 181869.4, -134403.63, -5558.4067, -0.016231848, 0.048027493, 181967.06, 181967.06, 0.0, 2.5005515, 2.4995036 
1.4878102e+2, 8.371257e+1, 185100.16, -130542.33, -5701.466, -0.011797968, 0.04797918, 185203.11, 185203.11, 0.0, 2.5005546, 2.4995089 
1.4878106e+2, 8.621208e+1, 186818.42, -129729.65, -6340.8022, -0.0073674433, 0.047920797, 186945.39, 186945.39, 0.0, 2.5005574, 2.4995089 
1.487811e+2, 8.8711584e+1, 188471.77, -128948.24, -6979.9443, -0.0029399437, 0.047862507, 188625.17, 188625.17, 0.0, 2.5005603, 2.4995089 
1.487811e+2, 9.121118e+1, 228213.27, -46588.61, -2160.8704, -0.003495885, 0.049546238, 228230.25, 228230.25, 0.0, 2.5005605, 2.4996502 
1.487812e+2, 9.371084e+1, 228736.6, -44787.625, -2168.3376, -0.0013581846, 0.04994244, 228753.78, 228753.78, 0.0, 2.5005598, 2.4996536 
1.4878125e+2, 9.6210486e+1, 228055.94, -45128.66, -2818.0579, 0.0008123491, 0.050305843, 228085.0, 228085.0, 0.0, 2.5005586, 2.4996536 
1.4878131e+2, 9.8710144e+1, 227140.38, -45582.82, -3460.1536, 0.002956031, 0.050659165, 227184.27, 227184.27, 0.0, 2.500557, 2.4996536 
1.5128179e+2, 1.2491654e+0, -175205.86, -843155.75, -2174.2957, -0.014721118, 0.0012134117, -175198.78, -175198.78, 0.0, 2.5005157, 2.4983048 
1.5128176e+2, 3.7474963e+0, -169706.25, -840805.9, -2180.8389, -0.015396, 0.0036417223, -169699.16, -169699.16, 0.0, 2.5005255, 2.4983041 
1.5128174e+2, 6.245827e+0, -164025.25, -838075.5, -2106.065, -0.016051684, 0.006072016, -164018.66, -164018.66, 0.0, 2.5005352, 2.4983041 
1.5128171e+2, 8.7441576e+0, -158346.5, -835346.25, -2031.6848, -0.016688168, 0.008504293, -158340.4, -158340.4, 0.0, 2.500545, 2.4983041 
1.5128171e+2, 1.1242561e+1, -113964.92, -744179.0, -54.90894, -0.016558204, 0.010470826, -113964.92, -113964.92, 0.0, 2.5005462, 2.4984598 
1.5128171e+2, 1.3741036e+1, -118276.23, -745756.5, -141.80035, -0.015909009, 0.011564096, -118276.195, -118276.195, 0.0, 2.5005383, 2.498461 
1.5128173e+2, 1.6239509e+1, -122917.94, -748017.06, -340.01636, -0.015249232, 0.012657401, -122917.75, -122917.75, 0.0, 2.5005302, 2.498461 
1.5128173e+2, 1.8737984e+1, -127561.46, -750278.44, -537.5761, -0.014578537, 0.013751209, -127560.99, -127560.99, 0.0, 2.5005224, 2.4984608 
1.5128171e+2, 2.1236537e+1, -84176.12, -659105.75, -3648.0415, -0.01461991, 0.015312745, -84152.97, -84152.97, 0.0, 2.5005212, 2.4986176 
1.5128168e+2, 2.3735175e+1, -80373.984, -656263.7, -3596.0525, -0.015423995, 0.016687257, -80351.53, -80351.53, 0.0, 2.5005267, 2.49862 
1.5128164e+2, 2.623381e+1, -77227.586, -654781.06, -3697.265, -0.016217709, 0.018062254, -77203.92, -77203.92, 0.0, 2.5005322, 2.49862 
1.5128163e+2, 2.8732446e+1, -74082.53, -653299.06, -3798.0544, -0.017000938, 0.01943933, -74057.625, -74057.625, 0.0, 2.5005376, 2.4986198 
1.512816e+2, 3.123115e+1, -33088.668, -569843.5, -2454.7646, -0.017469367, 0.02084929, -33077.44, -33077.44, 0.0, 2.5005393, 2.4987621 
1.512816e+2, 3.3729923e+1, -33379.26, -568449.2, -2623.4392, -0.017918795, 0.0214246, -33366.4, -33366.4, 0.0, 2.5005372, 2.4987655 
1.5128158e+2, 3.6228696e+1, -34657.9, -569104.75, -3056.02, -0.018363615, 0.021997534, -34640.42, -34640.42, 0.0, 2.500535, 2.4987655 
1.5128157e+2, 3.872747e+1, -35936.797, -569760.5, -3488.1333, -0.018802777, 0.022571113, -35914.004, -35914.004, 0.0, 2.5005329, 2.4987655 
1.5128155e+2, 4.122632e+1, 3502.4702, -488976.94, -4062.4585, -0.018713344, 0.024587246, 3535.979, 3535.979, 0.0, 2.5005343, 2.4989035 
1.5128155e+2, 4.3725258e+1, 7349.7246, -485062.22, -3756.0872, -0.018017301, 0.027125752, 7378.374, 7378.374, 0.0, 2.5005386, 2.498908 
1.5128155e+2, 4.622419e+1, 9877.804, -483884.3, -3797.5525, -0.017317442, 0.029659769, 9907.01, 9907.01, 0.0, 2.5005429, 2.4989078 
1.5128155e+2, 4.8723125e+1, 12403.886, -482707.38, -3838.4377, -0.01661409, 0.03219348, 12433.643, 12433.643, 0.0, 2.5005474, 2.4989078 
1.5128154e+2, 5.1222134e+1, 56803.21, -391779.78, -4352.7144, -0.01728179, 0.034574453, 56845.44, 56845.44, 0.0, 2.5005488, 2.4990633 
1.512815e+2, 5.3721213e+1, 57516.55, -388838.03, -4628.888, -0.019104637, 0.035555072, 57564.547, 57564.547, 0.0, 2.5005472, 2.499069 
1.5128149e+2, 5.6220293e+1, 56577.55, -389326.88, -5380.9443, -0.02092044, 0.036529478, 56642.477, 56642.477, 0.0, 2.5005455, 2.499069 
1.5128146e+2, 5.871937e+1, 55637.08, -389816.4, -6132.26, -0.022730637, 0.037504207, 55721.48, 55721.48, 0.0, 2.500544, 2.4990687 
1.5128146e+2, 6.121851e+1, 92828.32, -314993.13, -6992.972, -0.022474416, 0.038307376, 92948.195, 92948.195, 0.0, 2.5005467, 2.499196 
1.5128148e+2, 6.3717705e+1, 98891.48, -309320.44, -6215.102, -0.0195351, 0.037549447, 98986.08, 98986.08, 0.0, 2.500554, 2.499202 
1.512815e+2, 6.62169e+1, 103210.8, -307269.28, -6040.0903, -0.016588125, 0.036784645, 103299.65, 103299.65, 0.0, 2.5005615, 2.499202 
1.5128154e+2, 6.8716097e+1, 107527.414, -305219.38, -5864.6963, -0.013637102, 0.036021166, 107610.734, 107610.734, 0.0, 2.500569, 2.499202 
1.5128154e+2, 7.1215385e+1, 151714.89, -213407.3, -5403.815, -0.013293242, 0.037390746, 151794.86, 151794.86, 0.0, 2.500569, 2.4993596 
1.5128152e+2, 7.371477e+1, 149460.84, -211650.92, -5376.587, -0.014226956, 0.03936999, 149540.88, 149540.88, 0.0, 2.5005622, 2.499366 
1.5128152e+2, 7.621416e+1, 145413.81, -213622.0, -6063.0483, -0.015146287, 0.041339077, 145516.17, 145516.17, 0.0, 2.5005553, 2.4993658 
1.5128152e+2, 7.8713536e+1, 141365.27, -215593.81, -6750.0127, -0.016060807, 0.04330828, 141492.86, 141492.86, 0.0, 2.5005481, 2.4993658 
1.5128154e+2, 8.121299e+1, 179787.17, -135916.73, -7332.844, -0.014706117, 0.045068216, 179957.4, 179957.4, 0.0, 2.5005484, 2.4995027 
1.5128157e+2, 8.37125e+1, 186534.92, -130364.914, -6375.0835, -0.011024758, 0.045189727, 186663.13, 186663.13, 0.0, 2.5005574, 2.4995077 
1.5128161e+2, 8.6212003e+1, 191833.7, -127826.45, -6126.307, -0.007333959, 0.045301553, 191951.08, 191951.08, 0.0, 2.5005667, 2.4995077 
1.5128165e+2, 8.871152e+1, 197125.97, -125291.13, -5877.9063, -0.0036336766, 0.04541352, 197233.1, 197233.1, 0.0, 2.5005758, 2.4995077 
1.5128168e+2, 9.1211104e+1, 236897.69, -42833.555, -1862.0244, -0.003862009, 0.047179416, 236910.08, 236910.08, 0.0, 2.500576, 2.4996493 
1.5128176e+2, 9.371076e+1, 233832.55, -42715.047, -678.2175, -0.0008178769, 0.04780836, 233834.2, 233834.2, 0.0, 2.5005689, 2.4996529 
1.5128182e+2, 9.621042e+1, 229765.6, -44675.96, -401.14624, 0.002300472, 0.048395067, 229766.19, 229766.19, 0.0, 2.500562, 2.4996529 
1.512819e+2, 9.871008e+1, 225688.78, -46641.63, -123.7899, 0.005437489, 0.04896036, 225688.84, 225688.84, 0.0, 2.500555, 2.4996526 
1.537823e+2, 1.24916255e+0, -175052.48, -842838.1, -710.15424, -0.015615518, 0.00089984806, -175051.73, -175051.73, 0.0, 2.5005157, 2.4983053 
1.5378228e+2, 3.7474877e+0, -169547.13, -840478.4, -709.05646, -0.01607104, 0.0026999626, -169546.38, -169546.38, 0.0, 2.5005255, 2.4983046 
1.5378228e+2, 6.245813e+0, -163864.23, -837746.2, -630.85913, -0.01651811, 0.0045006354, -163863.66, -163863.66, 0.0, 2.5005352, 2.4983046 
1.5378226e+2, 8.744138e+0, -158183.63, -835015.1, -553.0555, -0.01695673, 0.0063018664, -158183.17, -158183.17, 0.0, 2.500545, 2.4983046 
1.5378226e+2, 1.124254e+1, -114324.984, -744906.1, -1230.8373, -0.01684104, 0.008286553, -114322.586, -114322.586, 0.0, 2.5005462, 2.4984586 
1.5378225e+2, 1.3741021e+1, -118644.58, -746497.5, -1345.9125, -0.01634041, 0.010058654, -118641.695, -118641.695, 0.0, 2.500538, 2.4984598 
1.5378225e+2, 1.62395e+1, -123287.984, -748758.25, -1541.5221, -0.01583603, 0.01183055, -123284.18, -123284.18, 0.0, 2.5005302, 2.4984596 
1.5378225e+2, 1.8737979e+1, -127933.195, -751019.94, -1736.4753, -0.015327666, 0.013602706, -127928.36, -127928.36, 0.0, 2.5005224, 2.4984596 
1.5378223e+2, 2.1236534e+1, -84352.6, -659449.7, -2810.34, -0.0154712, 0.015139063, -84338.87, -84338.87, 0.0, 2.5005212, 2.4986172 
1.5378219e+2, 2.3735161e+1, -80562.63, -656630.94, -2778.1099, -0.016414663, 0.015774766, -80549.234, -80549.234, 0.0, 2.5005267, 2.4986193 
1.5378217e+2, 2.6233786e+1, -77416.055, -655145.94, -2877.6658, -0.017352527, 0.016409954, -77401.73, -77401.73, 0.0, 2.5005322, 2.4986193 
1.5378214e+2, 2.8732416e+1, -74270.81, -653661.5, -2976.7988, -0.018284425, 0.017046232, -74255.516, -74255.516, 0.0, 2.5005376, 2.4986193 
1.5378213e+2, 3.1231117e+1, -33889.15, -571454.2, -2753.1577, -0.01853019, 0.018203873, -33875.047, -33875.047, 0.0, 2.5005393, 2.4987595 
1.5378211e+2, 3.372989e+1, -34205.38, -570109.8, -2948.767, -0.018301103, 0.019049775, -34189.152, -34189.152, 0.0, 2.5005372, 2.4987628 
1.5378211e+2, 3.622866e+1, -35484.453, -570763.25, -3380.2874, -0.018069783, 0.019893214, -35463.11, -35463.11, 0.0, 2.500535, 2.4987626 
1.537821e+2, 3.8727435e+1, -36764.523, -571417.1, -3811.1216, -0.017835459, 0.020737115, -36737.36, -36737.36, 0.0, 2.5005329, 2.4987626 
1.537821e+2, 4.122629e+1, 3425.0557, -489064.75, -3388.666, -0.017864162, 0.022988802, 3448.3708, 3448.3708, 0.0, 2.500534, 2.4989033 
1.5378208e+2, 4.3725222e+1, 7231.596, -485229.34, -3091.733, -0.01814105, 0.025723353, 7251.006, 7251.006, 0.0, 2.5005386, 2.4989078 
1.5378208e+2, 4.6224162e+1, 9757.94, -484050.13, -3131.2314, -0.018417118, 0.028453855, 9777.795, 9777.795, 0.0, 2.5005429, 2.4989076 
1.5378208e+2, 4.87231e+1, 12282.985, -482871.56, -3169.9456, -0.018692477, 0.03118452, 12303.278, 12303.278, 0.0, 2.5005472, 2.4989076 
1.5378207e+2, 5.12221e+1, 55412.754, -394588.9, -4604.8555, -0.019013947, 0.03304876, 55459.87, 55459.87, 0.0, 2.5005486, 2.4990585 
1.5378205e+2, 5.372116e+1, 56068.94, -391757.66, -4859.9243, -0.019128174, 0.03281519, 56121.676, 56121.676, 0.0, 2.5005472, 2.499064 
1.5378205e+2, 5.622022e+1, 55126.285, -392246.22, -5610.3003, -0.019238044, 0.032576736, 55196.63, 55196.63, 0.0, 2.5005455, 2.499064 
1.5378204e+2, 5.8719283e+1, 54182.492, -392735.3, -6359.952, -0.01934502, 0.03233979, 54272.98, 54272.98, 0.0, 2.5005438, 2.499064 
1.5378204e+2, 6.1218417e+1, 93129.07, -314281.9, -5939.5693, -0.019116111, 0.032986566, 93215.65, 93215.65, 0.0, 2.5005467, 2.4991972 
1.5378205e+2, 6.371763e+1, 99160.7, -308673.94, -5077.2305, -0.01806002, 0.03322978, 99223.9, 99223.9, 0.0, 2.500554, 2.4992032 
1.5378207e+2, 6.6216826e+1, 103481.35, -306621.13, -4900.305, -0.016999625, 0.03346732, 103539.9, 103539.9, 0.0, 2.5005615, 2.4992032 
1.5378207e+2, 6.871603e+1, 107800.69, -304568.97, -4722.9214, -0.015938027, 0.03370692, 107854.77, 107854.77, 0.0, 2.5005689, 2.4992032 
1.5378207e+2, 7.121533e+1, 150476.19, -215945.38, -6532.0566, -0.015758215, 0.03531454, 150592.6, 150592.6, 0.0, 2.5005689, 2.4993553 
1.5378207e+2, 7.371471e+1, 148169.25, -214307.2, -6402.3335, -0.015153914, 0.036808155, 148282.3, 148282.3, 0.0, 2.500562, 2.4993615 
1.5378208e+2, 7.621408e+1, 144127.06, -216275.66, -7085.7153, -0.014539983, 0.038291767, 144266.33, 144266.33, 0.0, 2.500555, 2.4993613 
1.5378208e+2, 7.871345e+1, 140083.17, -218244.92, -7769.248, -0.013925501, 0.039775264, 140251.55, 140251.55, 0.0, 2.5005481, 2.4993613 
1.537821e+2, 8.121291e+1, 180273.03, -134957.66, -6152.107, -0.012494799, 0.041420605, 180393.05, 180393.05, 0.0, 2.5005484, 2.499504 
1.5378213e+2, 8.3712417e+1, 187047.69, -129360.766, -4973.1143, -0.010187699, 0.041890528, 187125.83, 187125.83, 0.0, 2.5005577, 2.4995093 
1.5378217e+2, 8.621193e+1, 192355.06, -126818.7, -4720.485, -0.007877697, 0.042352363, 192424.86, 192424.86, 0.0, 2.5005667, 2.4995093 
1.5378223e+2, 8.871144e+1, 197659.86, -124277.88, -4467.746, -0.005565098, 0.04281537, 197721.86, 197721.86, 0.0, 2.5005758, 2.4995093 
1.5378225e+2, 9.121104e+1, 237567.75, -41678.93, -3132.4897, -0.005425931, 0.044528086, 237602.89, 237602.89, 0.0, 2.5005763, 2.499651 
1.5378232e+2, 9.371069e+1, 234567.56, -41464.066, -1692.8597, -0.0008800252, 0.044913486, 234577.94, 234577.94, 0.0, 2.5005693, 2.4996548 
1.537824e+2, 9.621034e+1, 230526.88, -43413.52, -1406.648, 0.0037189126, 0.045261446, 230534.1, 230534.1, 0.0, 2.5005622, 2.4996548 
1.5378247e+2, 9.871e+1, 226479.55, -45366.164, -1120.0138, 0.008320498, 0.04559111, 226484.17, 226484.17, 0.0, 2.5005553, 2.4996548 
1.562828e+2, 1.2491597e+0, -174899.83, -842522.0, 754.2726, -0.016510231, 0.00058546686, -174898.97, -174898.97, 0.0, 2.5005157, 2.4983058 
1.562828e+2, 3.747479e+0, -169389.69, -840154.44, 762.89014, -0.016747022, 0.0017557503, -169388.83, -169388.83, 0.0, 2.5005255, 2.498305 
1.562828e+2, 6.245798e+0, -163704.94, -837420.44, 844.5109, -0.01698611, 0.002925167, -163703.88, -163703.88, 0.0, 2.5005352, 2.498305 
1.5628281e+2, 8.7441176e+0, -158022.44, -834687.56, 925.738, -0.01722749, 0.0040937173, -158021.17, -158021.17, 0.0, 2.500545, 2.498305 
1.562828e+2, 1.124252e+1, -114690.19, -745643.94, -2412.8552, -0.017121585, 0.006099363, -114680.96, -114680.96, 0.0, 2.5005462, 2.4984574 
1.5628278e+2, 1.3741004e+1, -119014.516, -747241.75, -2550.5676, -0.01676842, 0.008547857, -119004.16, -119004.16, 0.0, 2.500538, 2.4984584 
1.5628277e+2, 1.6239491e+1, -123659.6, -749502.75, -2743.5708, -0.016418345, 0.010995899, -123647.58, -123647.58, 0.0, 2.5005302, 2.4984584 
1.5628275e+2, 1.8737975e+1, -128306.51, -751764.6, -2935.9177, -0.01607122, 0.013443956, -128292.69, -128292.69, 0.0, 2.5005224, 2.4984584 
1.5628272e+2, 2.1236528e+1, -84536.66, -659809.3, -1969.9596, -0.01632842, 0.014958479, -84529.91, -84529.91, 0.0, 2.5005212, 2.4986167 
1.5628271e+2, 2.3735148e+1, -80752.586, -657000.9, -1960.6637, -0.0174115, 0.014853332, -80745.914, -80745.914, 0.0, 2.5005267, 2.4986188 
1.562827e+2, 2.6233765e+1, -77605.82, -655513.5, -2058.563, -0.018493695, 0.014746649, -77598.484, -77598.484, 0.0, 2.5005322, 2.4986186 
1.5628266e+2, 2.8732386e+1, -74460.38, -654026.7, -2156.0398, -0.019574447, 0.014640068, -74452.37, -74452.37, 0.0, 2.5005374, 2.4986186 
1.5628266e+2, 3.123108e+1, -34695.555, -573077.25, -3057.7542, -0.01958509, 0.01555226, -34678.188, -34678.188, 0.0, 2.5005393, 2.4987566 
1.5628265e+2, 3.3729854e+1, -35032.58, -571772.75, -3274.752, -0.018678168, 0.016666919, -35012.598, -35012.598, 0.0, 2.5005372, 2.49876 
1.5628265e+2, 3.6228627e+1, -36312.094, -572423.94, -3705.2114, -0.017771479, 0.017778974, -36286.49, -36286.49, 0.0, 2.500535, 2.4987597 
1.5628265e+2, 3.8727403e+1, -37592.605, -573075.56, -4134.985, -0.01686444, 0.018891307, -37560.676, -37560.676, 0.0, 2.5005329, 2.4987597 
1.5628263e+2, 4.1226256e+1, 3344.9146, -489160.34, -2716.896, -0.017015826, 0.021379478, 3359.9019, 3359.9019, 0.0, 2.500534, 2.498903 
1.5628263e+2, 4.3725193e+1, 7114.9233, -485397.28, -2429.141, -0.018266523, 0.024308223, 7126.904, 7126.904, 0.0, 2.5005383, 2.4989076 
1.5628262e+2, 4.6224132e+1, 9640.42, -484216.3, -2467.4731, -0.019519355, 0.02723334, 9652.748, 9652.748, 0.0, 2.5005429, 2.4989073 
1.562826e+2, 4.872307e+1, 12164.617, -483036.0, -2505.0208, -0.02077426, 0.030159093, 12177.289, 12177.289, 0.0, 2.5005472, 2.4989073 
1.562826e+2, 5.122206e+1, 54015.363, -397419.7, -4860.0024, -0.020741442, 0.03151946, 54067.676, 54067.676, 0.0, 2.5005486, 2.4990535 
1.562826e+2, 5.3721106e+1, 54627.203, -394676.06, -5095.4106, -0.01914762, 0.030069046, 54684.98, 54684.98, 0.0, 2.500547, 2.499059 
1.5628262e+2, 5.622015e+1, 53682.9, -395163.38, -5844.362, -0.01755221, 0.02861494, 53758.984, 53758.984, 0.0, 2.5005455, 2.499059 
1.5628262e+2, 5.8719194e+1, 52737.46, -395651.25, -6592.5894, -0.01595662, 0.027163517, 52834.37, 52834.37, 0.0, 2.5005438, 2.499059 
1.5628262e+2, 6.121833e+1, 93435.02, -313578.1, -4887.578, -0.015755147, 0.027657144, 93493.71, 93493.71, 0.0, 2.5005465, 2.4991984 
1.5628262e+2, 6.3717544e+1, 99440.02, -308023.72, -3945.066, -0.016582968, 0.028899647, 99478.22, 99478.22, 0.0, 2.5005538, 2.4992044 
1.5628262e+2, 6.621676e+1, 103760.0, -305970.25, -3766.926, -0.017409833, 0.030137623, 103794.63, 103794.63, 0.0, 2.5005615, 2.4992044 
1.5628262e+2, 6.871598e+1, 108078.664, -303917.44, -3588.328, -0.018238345, 0.031378396, 108109.914, 108109.914, 0.0, 2.5005689, 2.4992044 
1.5628262e+2, 7.121527e+1, 149226.63, -218507.56, -7661.8223, -0.018218402, 0.033236492, 149386.19, 149386.19, 0.0, 2.5005689, 2.4993508 
1.5628263e+2, 7.371464e+1, 146874.17, -216966.38, -7436.451, -0.016076775, 0.034242485, 147026.11, 147026.11, 0.0, 2.500562, 2.4993567 
1.5628263e+2, 7.6214004e+1, 142833.31, -218933.89, -8118.009, -0.013930333, 0.035238456, 143015.39, 143015.39, 0.0, 2.500555, 2.4993567 
1.5628265e+2, 7.871337e+1, 138790.75, -220902.22, -8799.718, -0.011787599, 0.036234077, 139005.9, 139005.9, 0.0, 2.5005481, 2.4993567 
1.5628266e+2, 8.121281e+1, 180733.16, -134031.56, -4975.3784, -0.010279082, 0.037769236, 180811.78, 180811.78, 0.0, 2.5005484, 2.4995058 
1.562827e+2, 8.3712333e+1, 187540.17, -128367.16, -3584.5374, -0.009345879, 0.038585637, 187580.83, 187580.83, 0.0, 2.5005577, 2.499511 
1.5628275e+2, 8.6211854e+1, 192846.45, -125826.16, -3329.3352, -0.008416333, 0.039395474, 192881.23, 192881.23, 0.0, 2.5005667, 2.499511 
1.5628278e+2, 8.8711375e+1, 198150.14, -123286.41, -3074.0244, -0.0074910787, 0.040207505, 198179.55, 198179.55, 0.0, 2.5005758, 2.499511 
1.562828e+2, 9.121097e+1, 238150.06, -40606.074, -4402.142, -0.0069843656, 0.041894082, 238219.58, 238219.58, 0.0, 2.5005763, 2.4996529 
1.5628289e+2, 9.371062e+1, 235211.94, -40257.727, -2728.561, -0.0009353766, 0.042032767, 235238.97, 235238.97, 0.0, 2.5005693, 2.4996567 
1.5628298e+2, 9.621027e+1, 231166.56, -42210.613, -2435.9968, 0.00514546, 0.04213839, 231188.27, 231188.27, 0.0, 2.5005624, 2.4996567 
1.5628305e+2, 9.870993e+1, 227114.56, -44166.7, -2143.01, 0.011212923, 0.04222882, 227131.48, 227131.48, 0.0, 2.5005555, 2.4996567 
1.587833e+2, 1.24915674e+0, -174989.45, -842324.1, 2213.8264, -0.0174013, 0.00027031839, -174982.11, -174982.11, 0.0, 2.5005155, 2.4983063 
1.5878332e+2, 3.74747e+0, -169527.58, -839975.9, 2218.5403, -0.017420445, 0.00080925936, -169520.23, -169520.23, 0.0, 2.500525, 2.4983058 
1.5878333e+2, 6.2457836e+0, -163968.69, -837301.7, 2290.6912, -0.017452275, 0.0013459399, -163960.89, -163960.89, 0.0, 2.5005345, 2.4983058 
1.5878335e+2, 8.744097e+0, -158487.72, -834665.06, 2360.9143, -0.017496793, 0.0018803602, -158479.48, -158479.48, 0.0, 2.500544, 2.4983058 
1.5878335e+2, 1.12425e+1, -115685.695, -746693.94, -3651.133, -0.017396195, 0.003909765, -115664.57, -115664.57, 0.0, 2.500545, 2.498456 
1.5878332e+2, 1.3740991e+1, -119796.195, -748187.25, -3804.462, -0.01718972, 0.007032032, -119773.164, -119773.164, 0.0, 2.5005374, 2.4984572 
1.587833e+2, 1.623948e+1, -124288.83, -750374.2, -3992.8345, -0.016992897, 0.010153626, -124263.37, -124263.37, 0.0, 2.5005298, 2.4984572 
1.5878326e+2, 1.873797e+1, -128844.13, -752591.3, -4180.0, -0.016805662, 0.013275034, -128816.12, -128816.12, 0.0, 2.500522, 2.498457 
1.5878324e+2, 2.1236522e+1, -84846.53, -660241.8, -1173.3281, -0.017187972, 0.014771025, -84844.14, -84844.14, 0.0, 2.500521, 2.498616 
1.5878323e+2, 2.3735134e+1, -81043.234, -657421.6, -1199.6057, -0.018411187, 0.01392301, -81040.734, -81040.734, 0.0, 2.5005264, 2.4986181 
1.5878321e+2, 2.6233745e+1, -77909.37, -655938.1, -1307.3234, -0.019638045, 0.0130724525, -77906.41, -77906.41, 0.0, 2.500532, 2.4986181 
1.587832e+2, 2.8732356e+1, -74808.766, -654470.6, -1416.6284, -0.020867847, 0.012221049, -74805.3, -74805.3, 0.0, 2.5005372, 2.4986181 
1.5878318e+2, 3.123105e+1, -35638.96, -574775.7, -3449.9285, -0.020630982, 0.012894704, -35616.887, -35616.887, 0.0, 2.500539, 2.4987538 
1.5878318e+2, 3.372982e+1, -35894.887, -573454.4, -3670.1106, -0.019047018, 0.014276253, -35869.832, -35869.832, 0.0, 2.500537, 2.4987571 
1.5878318e+2, 3.622859e+1, -37109.8, -574072.0, -4088.1218, -0.017465716, 0.015655003, -37078.676, -37078.676, 0.0, 2.500535, 2.4987571 
1.587832e+2, 3.8727367e+1, -38357.7, -574705.5, -4506.7188, -0.015886582, 0.017033858, -38319.836, -38319.836, 0.0, 2.5005329, 2.498757 
1.5878318e+2, 4.1226223e+1, 3343.1807, -489224.7, -2093.3235, -0.016165242, 0.019759372, 3352.0767, 3352.0767, 0.0, 2.500534, 2.498903 
1.5878317e+2, 4.3725163e+1, 7086.8555, -485524.1, -1823.0844, -0.018390847, 0.022880314, 7093.6025, 7093.6025, 0.0, 2.5005386, 2.4989073 
1.5878315e+2, 4.6224102e+1, 9588.191, -484352.66, -1870.358, -0.020621305, 0.02599803, 9595.273, 9595.273, 0.0, 2.5005429, 2.498907 
1.5878314e+2, 4.8723042e+1, 12057.821, -483196.47, -1917.8713, -0.022856437, 0.029116856, 12065.248, 12065.248, 0.0, 2.5005472, 2.498907 
1.5878312e+2, 5.1222026e+1, 52628.703, -400263.38, -5189.7285, -0.022461386, 0.029986285, 52688.164, 52688.164, 0.0, 2.5005486, 2.4990487 
1.5878315e+2, 5.372105e+1, 53277.36, -397551.63, -5392.1025, -0.019160518, 0.027316652, 53341.84, 53341.84, 0.0, 2.5005472, 2.499054 
1.5878317e+2, 5.622008e+1, 52366.414, -398020.88, -6126.1284, -0.015860796, 0.024644323, 52449.727, 52449.727, 0.0, 2.5005455, 2.499054 
1.587832e+2, 5.871911e+1, 51418.645, -398507.84, -6860.495, -0.0125634745, 0.021975819, 51523.23, 51523.23, 0.0, 2.500544, 2.499054 
1.587832e+2, 6.121824e+1, 93794.305, -312858.25, -3862.7373, -0.012389691, 0.022319563, 93830.99, 93830.99, 0.0, 2.5005465, 2.4991996 
1.5878318e+2, 6.3717467e+1, 99636.984, -307414.0, -2846.514, -0.01510215, 0.02455937, 99656.89, 99656.89, 0.0, 2.5005538, 2.4992056 
1.5878318e+2, 6.621669e+1, 103773.4, -305447.97, -2669.4407, -0.017816823, 0.026795711, 103790.805, 103790.805, 0.0, 2.5005608, 2.4992056 
1.5878317e+2, 6.871592e+1, 107866.555, -303502.78, -2491.4138, -0.020535812, 0.029035576, 107881.64, 107881.64, 0.0, 2.500568, 2.4992054 
1.5878315e+2, 7.121522e+1, 147384.63, -221373.06, -8810.332, -0.020671697, 0.031156493, 147595.0, 147595.0, 0.0, 2.500568, 2.4993465 
1.5878318e+2, 7.371458e+1, 145028.84, -219890.8, -8469.529, -0.016993964, 0.031672973, 145225.31, 145225.31, 0.0, 2.500561, 2.4993522 
1.587832e+2, 7.6213926e+1, 140951.63, -221875.52, -9123.9375, -0.013315994, 0.032179255, 141180.9, 141180.9, 0.0, 2.500554, 2.4993522 
1.5878321e+2, 7.8713286e+1, 136803.77, -223894.23, -9778.93, -0.009645699, 0.032685004, 137068.69, 137068.69, 0.0, 2.500547, 2.4993522 
1.5878324e+2, 8.121273e+1, 180276.11, -133566.45, -3713.0032, -0.008057686, 0.034114435, 180320.03, 180320.03, 0.0, 2.500547, 2.4995074 
1.5878329e+2, 8.371225e+1, 186798.7, -127967.18, -2088.9587, -0.00849829, 0.035275284, 186812.56, 186812.56, 0.0, 2.5005555, 2.499513 
1.587833e+2, 8.6211777e+1, 191690.44, -125626.33, -1798.7422, -0.008948776, 0.03643098, 191700.63, 191700.63, 0.0, 2.5005639, 2.4995127 
1.5878333e+2, 8.87113e+1, 196495.38, -123327.27, -1505.7616, -0.009410077, 0.037589867, 196502.45, 196502.45, 0.0, 2.5005722, 2.4995127 
1.5878336e+2, 9.12109e+1, 236188.38, -40795.625, -5436.2534, -0.008535841, 0.039277315, 236295.03, 236295.03, 0.0, 2.5005722, 2.4996545 
1.5878345e+2, 9.371055e+1, 233005.4, -40423.06, -3502.7788, -0.0009827904, 0.03916624, 233050.28, 233050.28, 0.0, 2.5005646, 2.4996588 
1.5878354e+2, 9.6210206e+1, 228422.66, -42635.93, -3158.3413, 0.0065817074, 0.039026, 228459.45, 228459.45, 0.0, 2.5005567, 2.4996588 
1.5878363e+2, 9.870985e+1, 223630.42, -44949.676, -2813.9424, 0.014117595, 0.038873643, 223659.9, 223659.9, 0.0, 2.5005486, 2.4996588 
1.6128385e+2, 1.2491556e+0, -154782.5, -833010.06, 2099.4126, -0.01692683, 0.00020665598, -154776.0, -154776.0, 0.0, 2.5005505, 2.4983053 
1.6128387e+2, 3.7474668e+0, -159715.89, -835670.3, 1678.4166, -0.016981468, 0.00062030356, -159711.72, -159711.72, 0.0, 2.5005424, 2.4983048 
1.6128388e+2, 6.245778e+0, -164477.97, -837972.06, 1322.8992, -0.017021812, 0.0010343994, -164475.38, -164475.38, 0.0, 2.500534, 2.4983048 
1.6128388e+2, 8.744089e+0, -169241.67, -840274.56, 967.5434, -0.017047865, 0.0014489433, -169240.28, -169240.28, 0.0, 2.500526, 2.4983048 
1.6128388e+2, 1.12424895e+1, -127597.25, -752788.2, -5347.877, -0.017042246, 0.003360202, -127551.51, -127551.51, 0.0, 2.500525, 2.4984553 
1.6128385e+2, 1.3740978e+1, -123938.7, -750539.94, -5377.818, -0.017027572, 0.0063627693, -123892.555, -123892.555, 0.0, 2.5005307, 2.4984565 
1.6128384e+2, 1.6239467e+1, -120598.47, -748950.4, -5422.8525, -0.01699947, 0.009368185, -120551.67, -120551.67, 0.0, 2.5005364, 2.4984562 
1.6128379e+2, 1.8737955e+1, -117259.625, -747361.44, -5467.675, -0.016957905, 0.012376941, -117212.18, -117212.18, 0.0, 2.5005422, 2.4984562 
1.6128378e+2, 2.1236503e+1, -72047.84, -655058.5, -2220.7808, -0.017343799, 0.013672471, -72039.38, -72039.38, 0.0, 2.500544, 2.4986138 
1.6128376e+2, 2.3735109e+1, -72912.67, -654499.25, -2738.7036, -0.018439392, 0.012534179, -72899.78, -72899.78, 0.0, 2.5005414, 2.498616 
1.6128375e+2, 2.6233715e+1, -74408.19, -655248.0, -3308.011, -0.019528635, 0.011396985, -74389.35, -74389.35, 0.0, 2.5005388, 2.498616 
1.6128373e+2, 2.8732324e+1, -75904.836, -655997.2, -3876.899, -0.020610832, 0.010262591, -75878.93, -75878.93, 0.0, 2.5005364, 2.4986157 
1.6128373e+2, 3.1231013e+1, -37279.164, -576373.6, -6067.127, -0.020323329, 0.010854054, -37210.895, -37210.895, 0.0, 2.5005372, 2.498752 
1.6128373e+2, 3.3729783e+1, -34479.777, -573617.5, -6046.7134, -0.018772086, 0.012351945, -34411.97, -34411.97, 0.0, 2.5005403, 2.4987552 
1.6128373e+2, 3.6228552e+1, -32585.297, -572737.0, -6193.643, -0.017213628, 0.013847875, -32514.287, -32514.287, 0.0, 2.5005436, 2.4987552 
1.6128373e+2, 3.8727325e+1, -30692.271, -571857.1, -6339.8643, -0.015647497, 0.015344755, -30618.008, -30618.008, 0.0, 2.500547, 2.498755 
1.6128373e+2, 4.122618e+1, 11217.757, -486384.22, -3840.9775, -0.015931461, 0.01803048, 11247.403, 11247.403, 0.0, 2.5005486, 2.498901 
1.6128372e+2, 4.3725118e+1, 12360.741, -483988.63, -4158.4883, -0.018180909, 0.020944774, 12395.579, 12395.579, 0.0, 2.5005486, 2.498905 
1.612837e+2, 4.622405e+1, 12325.376, -484038.53, -4785.028, -0.02042083, 0.023855926, 12371.5, 12371.5, 0.0, 2.5005486, 2.498905 
1.6128369e+2, 4.8722985e+1, 12288.846, -484089.03, -5410.798, -0.022650922, 0.0267683, 12347.819, 12347.819, 0.0, 2.5005486, 2.498905 
1.6128369e+2, 5.1221967e+1, 53894.285, -400672.72, -8541.632, -0.022202296, 0.027464535, 54054.734, 54054.734, 0.0, 2.500552, 2.4990463 
1.612837e+2, 5.3720987e+1, 59049.12, -395849.66, -7990.2886, -0.01881789, 0.024657788, 59189.426, 59189.426, 0.0, 2.5005581, 2.4990516 
1.6128373e+2, 5.622002e+1, 62716.465, -394112.97, -7981.8584, -0.01542637, 0.021844957, 62855.883, 62855.883, 0.0, 2.5005646, 2.4990516 
1.6128376e+2, 5.871904e+1, 66382.21, -392377.03, -7972.9224, -0.012028914, 0.01903254, 66520.73, 66520.73, 0.0, 2.5005708, 2.4990516 
1.6128376e+2, 6.1218166e+1, 107719.15, -306339.1, -5244.6914, -0.01190303, 0.019351142, 107785.57, 107785.57, 0.0, 2.5005708, 2.4991994 
1.6128375e+2, 6.3717395e+1, 105355.75, -304896.7, -4688.1074, -0.01486674, 0.021719793, 105409.32, 105409.32, 0.0, 2.5005639, 2.499205 
1.6128373e+2, 6.6216624e+1, 101358.62, -306846.22, -5021.732, -0.017820694, 0.024083896, 101420.38, 101420.38, 0.0, 2.500557, 2.499205 
1.6128372e+2, 6.871585e+1, 97360.12, -308796.4, -5355.107, -0.020766664, 0.026450248, 97430.71, 97430.71, 0.0, 2.50055, 2.4992049 
1.6128372e+2, 7.121514e+1, 137008.97, -227524.3, -11530.486, -0.020832784, 0.028548058, 137373.33, 137373.33, 0.0, 2.5005512, 2.4993439 
1.6128375e+2, 7.37145e+1, 144530.81, -221319.44, -10587.299, -0.0168947, 0.028928464, 144836.94, 144836.94, 0.0, 2.5005615, 2.4993496 
1.6128376e+2, 7.6213855e+1, 150424.22, -218499.0, -10747.68, -0.0129354, 0.029302204, 150737.06, 150737.06, 0.0, 2.5005717, 2.4993496 
1.6128379e+2, 7.87132e+1, 156315.61, -215679.52, -10907.9, -0.008961984, 0.029678706, 156635.19, 156635.19, 0.0, 2.5005817, 2.4993496 
1.6128382e+2, 8.1212646e+1, 200219.06, -123252.68, -5324.4385, -0.0074894214, 0.03102139, 200306.69, 200306.69, 0.0, 2.5005805, 2.4995089 
1.6128384e+2, 8.3712167e+1, 194435.19, -123524.8, -3646.6035, -0.00845587, 0.032182414, 194477.02, 194477.02, 0.0, 2.500568, 2.4995146 
1.6128387e+2, 8.6211693e+1, 187068.13, -127082.586, -3449.1711, -0.009405977, 0.03333566, 187106.0, 187106.0, 0.0, 2.5005553, 2.4995146 
1.6128388e+2, 8.871122e+1, 179696.8, -130642.42, -3252.201, -0.010340836, 0.03448913, 179730.88, 179730.88, 0.0, 2.5005424, 2.4995146 
1.6128391e+2, 9.121082e+1, 218704.69, -48537.367, -6800.0903, -0.009124934, 0.03610872, 218877.61, 218877.61, 0.0, 2.5005414, 2.499656 
1.61284e+2, 9.371047e+1, 227089.0, -42439.08, -4843.5576, -0.0010558803, 0.03597283, 227176.02, 227176.02, 0.0, 2.5005536, 2.4996607 
1.612841e+2, 9.621013e+1, 234167.67, -39034.008, -4706.961, 0.0070763337, 0.035805296, 234248.73, 234248.73, 0.0, 2.5005658, 2.4996607 
1.6128421e+2, 9.870978e+1, 241228.5, -35637.535, -4568.328, 0.015236961, 0.035622347, 241303.86, 241303.86, 0.0, 2.500578, 2.4996605 
1.637844e+2, 1.2491562e+0, -155435.36, -834366.1, 856.9876, -0.015838116, 0.00038274212, -155434.28, -155434.28, 0.0, 2.5005505, 2.4983032 
1.6378441e+2, 3.7474686e+0, -160366.69, -837021.5, 442.3186, -0.016087072, 0.0011484841, -160366.4, -160366.4, 0.0, 2.5005424, 2.4983025 
1.6378441e+2, 6.245781e+0, -165128.92, -839322.9, 89.18839, -0.016329158, 0.0019145703, -165128.9, -165128.9, 0.0, 2.500534, 2.4983025 
1.6378441e+2, 8.744094e+0, -169892.77, -841625.1, -263.7801, -0.016564377, 0.0026810009, -169892.66, -169892.66, 0.0, 2.500526, 2.4983025 
1.6378441e+2, 1.1242491e+1, -127673.48, -752937.25, -4459.112, -0.01674622, 0.004338804, -127641.68, -127641.68, 0.0, 2.500525, 2.498455 
1.6378438e+2, 1.374097e+1, -124019.14, -750697.75, -4512.8257, -0.016904743, 0.0064819492, -123986.65, -123986.65, 0.0, 2.5005307, 2.498456 
1.6378437e+2, 1.6239448e+1, -120677.85, -749105.9, -4555.9336, -0.017054642, 0.008626742, -120644.83, -120644.83, 0.0, 2.5005364, 2.498456 
1.6378433e+2, 1.8737929e+1, -117337.95, -747514.7, -4598.829, -0.01719586, 0.010773674, -117304.4, -117304.4, 0.0, 2.5005422, 2.498456 
1.6378431e+2, 2.1236472e+1, -73104.4, -657224.9, -2583.9019, -0.017463759, 0.011703842, -73092.97, -73092.97, 0.0, 2.500544, 2.49861 
1.6378431e+2, 2.3735075e+1, -73980.195, -656687.25, -3123.673, -0.01811548, 0.010718087, -73963.45, -73963.45, 0.0, 2.5005414, 2.4986122 
1.637843e+2, 2.623368e+1, -75474.85, -657433.1, -3691.5774, -0.01876407, 0.009732236, -75451.44, -75451.44, 0.0, 2.5005388, 2.4986122 
1.6378428e+2, 2.8732282e+1, -76970.64, -658179.5, -4259.062, -0.019408884, 0.008747961, -76939.44, -76939.44, 0.0, 2.5005364, 2.4986122 
1.6378428e+2, 3.123097e+1, -37548.55, -576880.06, -5530.483, -0.019260311, 0.009402129, -37491.848, -37491.848, 0.0, 2.500537, 2.4987512 
1.6378428e+2, 3.372974e+1, -34779.14, -574183.4, -5551.0894, -0.018412175, 0.010879056, -34722.02, -34722.02, 0.0, 2.5005403, 2.4987543 
1.6378427e+2, 3.622851e+1, -32884.727, -573300.25, -5696.6094, -0.017560098, 0.012353967, -32824.684, -32824.684, 0.0, 2.5005436, 2.4987543 
1.6378427e+2, 3.8727283e+1, -30991.762, -572417.8, -5841.4214, -0.016703693, 0.013829769, -30928.746, -30928.746, 0.0, 2.500547, 2.498754 
1.6378427e+2, 4.122613e+1, 10048.171, -488748.38, -3838.8618, -0.016856287, 0.016222274, 10077.714, 10077.714, 0.0, 2.5005486, 2.4988968 
1.6378427e+2, 4.3725055e+1, 11157.402, -486418.13, -4160.692, -0.018159578, 0.018564757, 11192.191, 11192.191, 0.0, 2.5005486, 2.498901 
1.6378425e+2, 4.622398e+1, 11120.848, -486465.78, -4786.0303, -0.019456767, 0.020904964, 11166.877, 11166.877, 0.0, 2.5005486, 2.498901 
1.6378425e+2, 4.8722908e+1, 11083.127, -486514.0, -5410.5996, -0.020747341, 0.02324728, 11141.951, 11141.951, 0.0, 2.5005486, 2.4989007 
1.6378425e+2, 5.1221883e+1, 53910.69, -400560.13, -7589.6973, -0.0205304, 0.024064118, 54037.402, 54037.402, 0.0, 2.5005517, 2.4990466 
1.6378427e+2, 5.372092e+1, 59019.363, -395831.16, -7029.706, -0.018570099, 0.02213245, 59127.98, 59127.98, 0.0, 2.5005581, 2.4990518 
1.6378428e+2, 5.6219953e+1, 62686.71, -394092.6, -7019.696, -0.016606573, 0.020194856, 62794.563, 62794.563, 0.0, 2.5005643, 2.4990516 
1.6378431e+2, 5.8718985e+1, 66352.43, -392354.8, -7009.1685, -0.014641031, 0.018257575, 66459.51, 66459.51, 0.0, 2.5005708, 2.4990516 
1.637843e+2, 6.121811e+1, 107106.414, -307555.03, -6297.216, -0.01455731, 0.018674677, 107202.02, 107202.02, 0.0, 2.5005705, 2.4991972 
1.637843e+2, 6.371733e+1, 104701.445, -306198.28, -5713.401, -0.016166493, 0.020346036, 104780.875, 104780.875, 0.0, 2.5005639, 2.4992027 
1.637843e+2, 6.621655e+1, 100704.57, -308146.22, -6045.395, -0.01776982, 0.022012418, 100793.94, 100793.94, 0.0, 2.500557, 2.4992027 
1.6378428e+2, 6.8715775e+1, 96706.336, -310094.8, -6377.1255, -0.019368872, 0.02368065, 96806.28, 96806.28, 0.0, 2.50055, 2.4992027 
1.6378428e+2, 7.121506e+1, 136718.73, -228111.25, -10119.086, -0.019121615, 0.025487555, 136999.19, 136999.19, 0.0, 2.5005512, 2.499343 
1.6378431e+2, 7.371442e+1, 144228.2, -221932.19, -9046.56, -0.016075244, 0.026066316, 144451.58, 144451.58, 0.0, 2.5005615, 2.4993486 
1.6378435e+2, 7.6213765e+1, 150121.48, -219111.72, -9204.844, -0.013014354, 0.026638456, 150350.81, 150350.81, 0.0, 2.5005715, 2.4993486 
1.6378437e+2, 7.871312e+1, 156012.84, -216292.19, -9362.997, -0.009945092, 0.027212918, 156248.16, 156248.16, 0.0, 2.5005817, 2.4993486 
1.6378438e+2, 8.121256e+1, 200623.39, -122477.18, -7311.979, -0.008759595, 0.028478066, 200788.78, 200788.78, 0.0, 2.5005805, 2.4995103 
1.637844e+2, 8.3712083e+1, 194861.45, -122708.31, -5547.502, -0.009369535, 0.029317878, 194958.34, 194958.34, 0.0, 2.500568, 2.4995158 
1.6378441e+2, 8.621161e+1, 187496.69, -126265.68, -5346.1885, -0.009972709, 0.030149085, 187587.75, 187587.75, 0.0, 2.5005553, 2.4995158 
1.6378443e+2, 8.871113e+1, 180128.28, -129824.79, -5145.25, -0.01057031, 0.03097943, 180213.67, 180213.67, 0.0, 2.5005426, 2.4995158 
1.6378444e+2, 9.121073e+1, 219021.55, -48049.953, -5207.2817, -0.009031721, 0.03246585, 219123.05, 219123.05, 0.0, 2.5005414, 2.4996567 
1.6378455e+2, 9.3710387e+1, 227519.63, -41738.008, -2989.9497, -0.0013493135, 0.032504637, 227552.83, 227552.83, 0.0, 2.5005538, 2.4996617 
1.6378467e+2, 9.6210045e+1, 234625.77, -38319.17, -2849.4717, 0.0063780467, 0.032512248, 234655.52, 234655.52, 0.0, 2.500566, 2.4996617 
1.6378477e+2, 9.87097e+1, 241726.88, -34902.754, -2708.573, 0.014120957, 0.0325041, 241753.39, 241753.39, 0.0, 2.5005782, 2.4996617 
1.6628496e+2, 1.2491568e+0, -156088.89, -835723.6, -384.95313, -0.014749393, 0.00055809255, -156088.67, -156088.67, 0.0, 2.5005505, 2.4983008 
1.6628496e+2, 3.7474704e+0, -161018.97, -838375.75, -793.9384, -0.015192653, 0.0016744573, -161018.05, -161018.05, 0.0, 2.5005424, 2.4983 
1.6628495e+2, 6.2457836e+0, -165781.36, -840676.9, -1144.6814, -0.015636466, 0.0027910627, -165779.4, -165779.4, 0.0, 2.500534, 2.4983 
1.6628495e+2, 8.744098e+0, -170545.34, -842978.75, -1495.2626, -0.016080834, 0.003907908, -170542.02, -170542.02, 0.0, 2.500526, 2.4983 
1.6628493e+2, 1.1242491e+1, -127755.31, -753098.0, -3571.668, -0.016450725, 0.0053152605, -127734.914, -127734.914, 0.0, 2.500525, 2.4984548 
1.6628492e+2, 1.3740961e+1, -124101.08, -750858.6, -3648.1934, -0.016783072, 0.006596321, -124079.84, -124079.84, 0.0, 2.5005307, 2.4984558 
1.662849e+2, 1.6239432e+1, -120758.734, -749264.5, -3689.374, -0.01711159, 0.007877818, -120737.08, -120737.08, 0.0, 2.5005364, 2.4984558 
1.6628489e+2, 1.8737902e+1, -117417.78, -747671.06, -3730.342, -0.01743621, 0.00916025, -117395.7, -117395.7, 0.0, 2.5005422, 2.4984558 
1.6628486e+2, 2.1236439e+1, -74169.13, -659408.25, -2951.5771, -0.017581508, 0.009731029, -74154.25, -74154.25, 0.0, 2.5005438, 2.4986062 
1.6628484e+2, 2.373504e+1, -75049.05, -658878.06, -3509.2065, -0.017790386, 0.008895157, -75027.95, -75027.95, 0.0, 2.5005414, 2.4986084 
1.6628484e+2, 2.6233643e+1, -76542.84, -659621.0, -4075.7075, -0.017999375, 0.00805796, -76514.36, -76514.36, 0.0, 2.5005388, 2.4986084 
1.6628483e+2, 2.8732243e+1, -78037.78, -660364.5, -4641.789, -0.018207865, 0.0072211158, -78000.78, -78000.78, 0.0, 2.5005362, 2.4986084 
1.6628483e+2, 3.123093e+1, -37825.313, -577401.8, -4998.2866, -0.018197032, 0.007942925, -37779.016, -37779.016, 0.0, 2.500537, 2.4987504 
1.6628481e+2, 3.37297e+1, -35079.6, -574751.5, -5056.2554, -0.018053347, 0.009396895, -35032.23, -35032.23, 0.0, 2.5005403, 2.4987533 
1.6628481e+2, 3.622847e+1, -33185.246, -573865.8, -5200.366, -0.01790901, 0.01084875, -33135.234, -33135.234, 0.0, 2.5005436, 2.4987533 
1.662848e+2, 3.872724e+1, -31292.346, -572980.75, -5343.769, -0.017763685, 0.0123014385, -31239.635, -31239.635, 0.0, 2.5005467, 2.4987533 
1.662848e+2, 4.1226083e+1, 8873.227, -491123.63, -3838.1714, -0.017778402, 0.014405805, 8902.6875, 8902.6875, 0.0, 2.5005486, 2.4988928 
1.6628481e+2, 4.3725e+1, 9953.113, -488849.63, -4163.6885, -0.018136969, 0.01617471, 9987.867, 9987.867, 0.0, 2.5005484, 2.4988968 
1.6628481e+2, 4.6223912e+1, 9915.368, -488895.0, -4787.826, -0.01849292, 0.017942145, 9961.319, 9961.319, 0.0, 2.5005484, 2.4988966 
1.6628481e+2, 4.8722827e+1, 9876.457, -488940.94, -5411.1943, -0.018845478, 0.019712573, 9935.151, 9935.151, 0.0, 2.5005484, 2.4988966 
1.6628481e+2, 5.1221806e+1, 53921.176, -400459.78, -6637.638, -0.018857466, 0.020654442, 54018.117, 54018.117, 0.0, 2.5005517, 2.4990468 
1.6628483e+2, 5.372085e+1, 58988.81, -395814.3, -6069.7017, -0.018322198, 0.019596081, 59069.8, 59069.8, 0.0, 2.500558, 2.4990518 
1.6628484e+2, 5.621989e+1, 62656.16, -394073.9, -6058.111, -0.017787628, 0.018531892, 62736.504, 62736.504, 0.0, 2.5005643, 2.4990518 
1.6628484e+2, 5.871893e+1, 66321.88, -392334.28, -6046.0034, -0.017254956, 0.017467916, 66401.57, 66401.57, 0.0, 2.5005705, 2.4990516 
1.6628484e+2, 6.121806e+1, 106485.84, -308787.4, -7345.5493, -0.017211305, 0.017991925, 106615.734, 106615.734, 0.0, 2.5005705, 2.499195 
1.6628484e+2, 6.371727e+1, 104046.46, -307501.4, -6738.98, -0.017466426, 0.018963851, 104156.77, 104156.77, 0.0, 2.5005636, 2.4992006 
1.6628484e+2, 6.6216475e+1, 100049.805, -309447.75, -7069.344, -0.017719626, 0.019930262, 100171.805, 100171.805, 0.0, 2.500557, 2.4992006 
1.6628484e+2, 6.871569e+1, 96051.79, -311394.78, -7399.444, -0.017972266, 0.020898117, 96186.12, 96186.12, 0.0, 2.50055, 2.4992006 
1.6628484e+2, 7.1214974e+1, 136418.23, -228720.16, -8700.204, -0.017411947, 0.022423867, 136625.4, 136625.4, 0.0, 2.5005512, 2.499342 
1.6628489e+2, 7.3714334e+1, 143925.5, -222545.78, -7505.896, -0.015256794, 0.023199305, 144079.17, 144079.17, 0.0, 2.5005615, 2.4993474 
1.6628492e+2, 7.621368e+1, 149818.5, -219725.38, -7662.07, -0.013093817, 0.02396801, 149977.3, 149977.3, 0.0, 2.5005715, 2.4993474 
1.6628495e+2, 7.8713036e+1, 155709.56, -216905.9, -7818.1123, -0.0109282145, 0.0247386, 155873.53, 155873.53, 0.0, 2.5005817, 2.4993474 
1.6628495e+2, 8.121248e+1, 201012.33, -121732.15, -9285.031, -0.010033617, 0.025931794, 201279.23, 201279.23, 0.0, 2.5005805, 2.4995115 
1.6628495e+2, 8.3712e+1, 195285.08, -121893.94, -7448.1147, -0.010285908, 0.026448444, 195459.88, 195459.88, 0.0, 2.500568, 2.4995172 
1.6628496e+2, 8.6211514e+1, 187920.81, -125451.734, -7243.0938, -0.010540965, 0.026955564, 188088.14, 188088.14, 0.0, 2.5005553, 2.4995172 
1.6628496e+2, 8.871105e+1, 180552.92, -129011.27, -7038.447, -0.010800125, 0.027460732, 180712.88, 180712.88, 0.0, 2.5005426, 2.4995172 
1.66285e+2, 9.121064e+1, 219306.02, -47612.14, -3601.09, -0.008947485, 0.028838227, 219354.6, 219354.6, 0.0, 2.5005417, 2.4996574 
1.662851e+2, 9.37103e+1, 227923.9, -41050.664, -1137.5792, -0.0016507861, 0.02904861, 227928.7, 227928.7, 0.0, 2.5005538, 2.4996629 
1.6628522e+2, 9.620996e+1, 235029.06, -37631.754, -992.1317, 0.00567279, 0.029227875, 235032.67, 235032.67, 0.0, 2.5005662, 2.4996629 
1.6628534e+2, 9.870962e+1, 242129.2, -34215.26, -846.26373, 0.012999053, 0.02939104, 242131.8, 242131.8, 0.0, 2.5005784, 2.4996629 
1.6878553e+2, 1.2491574e+0, -157284.7, -837343.8, -1628.835, -0.013657578, 0.0007327066, -157280.81, -157280.81, 0.0, 2.5005496, 2.4982984 
1.6878551e+2, 3.7474722e+0, -162103.55, -839940.94, -2036.0806, -0.014295246, 0.002198214, -162097.42, -162097.42, 0.0, 2.5005417, 2.498298 
1.687855e+2, 6.2457865e+0, -166785.38, -842202.8, -2387.6052, -0.014940706, 0.003663847, -166776.94, -166776.94, 0.0, 2.5005336, 2.498298 
1.6878548e+2, 8.7441015e+0, -171498.94, -844480.0, -2738.317, -0.015593957, 0.005129606, -171487.8, -171487.8, 0.0, 2.5005255, 2.4982977 
1.6878547e+2, 1.1242491e+1, -128113.016, -753400.94, -2704.057, -0.016152414, 0.0062895543, -128101.32, -128101.32, 0.0, 2.5005245, 2.4984546 
1.6878545e+2, 1.3740952e+1, -124438.586, -751145.3, -2815.5137, -0.016659396, 0.0067060087, -124425.94, -124425.94, 0.0, 2.5005302, 2.4984555 
1.6878544e+2, 1.6239414e+1, -121099.46, -749551.0, -2868.7778, -0.017167294, 0.0071216905, -121086.37, -121086.37, 0.0, 2.500536, 2.4984555 
1.6878542e+2, 1.8737875e+1, -117782.18, -747967.25, -2922.7568, -0.017676026, 0.00753712, -117768.625, -117768.625, 0.0, 2.5005417, 2.4984555 
1.6878542e+2, 2.1236406e+1, -75510.625, -661738.0, -3388.2344, -0.0176942, 0.007754596, -75491.05, -75491.05, 0.0, 2.5005434, 2.4986026 
1.687854e+2, 2.3735006e+1, -76333.97, -661175.06, -3952.7188, -0.017461313, 0.007066033, -76307.25, -76307.25, 0.0, 2.500541, 2.4986048 
1.687854e+2, 2.6233608e+1, -77791.1, -661897.9, -4511.3193, -0.017231705, 0.006374893, -77756.26, -77756.26, 0.0, 2.5005386, 2.4986045 
1.6878538e+2, 2.8732204e+1, -79267.4, -662630.0, -5070.0156, -0.017004771, 0.005682899, -79223.34, -79223.34, 0.0, 2.500536, 2.4986045 
1.6878536e+2, 3.123089e+1, -38242.28, -578002.8, -4514.0557, -0.01713051, 0.0064773005, -38204.535, -38204.535, 0.0, 2.5005367, 2.4987495 
1.6878536e+2, 3.3729658e+1, -35474.215, -575366.7, -4609.0215, -0.017692834, 0.007906213, -35434.87, -35434.87, 0.0, 2.50054, 2.4987524 
1.6878535e+2, 3.6228424e+1, -33560.383, -574469.0, -4755.706, -0.01825768, 0.009332855, -33518.574, -33518.574, 0.0, 2.5005434, 2.4987524 
1.6878535e+2, 3.872719e+1, -31668.242, -573581.75, -4902.372, -0.018824764, 0.010760256, -31623.896, -31623.896, 0.0, 2.5005467, 2.4987524 
1.6878535e+2, 4.1226032e+1, 7638.6777, -493535.8, -3886.5579, -0.018695157, 0.012581639, 7668.8154, 7668.8154, 0.0, 2.5005484, 2.4988887 
1.6878536e+2, 4.3724936e+1, 8721.47, -491295.5, -4195.423, -0.018110588, 0.013775478, 8756.669, 8756.669, 0.0, 2.5005484, 2.4988925 
1.6878536e+2, 4.6223843e+1, 8674.6875, -491342.44, -4799.912, -0.017526846, 0.014968544, 8720.761, 8720.761, 0.0, 2.5005484, 2.4988925 
1.6878538e+2, 4.8722747e+1, 8591.059, -491407.1, -5404.893, -0.016942825, 0.016165439, 8649.478, 8649.478, 0.0, 2.5005481, 2.4988925 
1.6878538e+2, 5.122173e+1, 53822.04, -400421.53, -5668.2524, -0.017181087, 0.017236767, 53892.758, 53892.758, 0.0, 2.5005515, 2.499047 
1.687854e+2, 5.372078e+1, 58850.586, -395850.38, -5090.2007, -0.01807196, 0.01704982, 58907.56, 58907.56, 0.0, 2.5005577, 2.4990518 
1.687854e+2, 5.621983e+1, 62482.84, -394124.97, -5073.626, -0.018967276, 0.016857116, 62539.207, 62539.207, 0.0, 2.500564, 2.4990518 
1.687854e+2, 5.871888e+1, 66081.53, -392415.78, -5056.0024, -0.0198682, 0.016664553, 66137.27, 66137.27, 0.0, 2.5005703, 2.4990518 
1.687854e+2, 6.1218005e+1, 105635.49, -310142.6, -8347.766, -0.019862598, 0.017303862, 105803.02, 105803.02, 0.0, 2.50057, 2.499193 
1.687854e+2, 6.371721e+1, 103208.49, -308893.34, -7698.4683, -0.018764555, 0.017574264, 103352.26, 103352.26, 0.0, 2.5005634, 2.4991984 
1.6878542e+2, 6.621641e+1, 99214.27, -310837.03, -8003.115, -0.01766841, 0.01783852, 99370.414, 99370.414, 0.0, 2.5005565, 2.4991984 
1.6878542e+2, 6.871561e+1, 95181.26, -312799.44, -8307.878, -0.016575256, 0.018103853, 95350.37, 95350.37, 0.0, 2.5005496, 2.4991984 
1.6878544e+2, 7.121489e+1, 135802.3, -229496.75, -7128.085, -0.015702398, 0.0193582, 135941.34, 135941.34, 0.0, 2.5005507, 2.4993408 
1.6878545e+2, 7.371424e+1, 143152.69, -223385.3, -5775.781, -0.01443826, 0.020328533, 143243.67, 143243.67, 0.0, 2.5005605, 2.4993465 
1.6878548e+2, 7.62136e+1, 148818.84, -220673.98, -5881.5015, -0.0131728, 0.021291904, 148912.44, 148912.44, 0.0, 2.5005703, 2.4993465 
1.6878551e+2, 7.871296e+1, 154421.36, -217993.33, -5982.5347, -0.011910261, 0.022256762, 154517.44, 154517.44, 0.0, 2.50058, 2.4993465 
1.6878551e+2, 8.1212395e+1, 200268.16, -121554.445, -10908.964, -0.0113105085, 0.023383522, 200637.52, 200637.52, 0.0, 2.5005786, 2.4995127 
1.6878551e+2, 8.3711916e+1, 194602.4, -121611.625, -8982.35, -0.011204158, 0.023574986, 194857.36, 194857.36, 0.0, 2.5005662, 2.4995186 
1.6878551e+2, 8.621143e+1, 187160.73, -125207.27, -8739.779, -0.011109574, 0.02375597, 187405.08, 187405.08, 0.0, 2.5005534, 2.4995186 
1.687855e+2, 8.871095e+1, 179624.52, -128848.45, -8495.095, -0.011028286, 0.023933986, 179858.3, 179858.3, 0.0, 2.5005405, 2.4995186 
1.6878553e+2, 9.121055e+1, 217933.14, -48004.28, -1478.2257, -0.008870244, 0.025226722, 217941.34, 217941.34, 0.0, 2.500539, 2.499658 
1.6878565e+2, 9.3710214e+1, 226181.05, -41396.164, 1311.8685, -0.001958999, 0.025605375, 226187.48, 226187.48, 0.0, 2.5005505, 2.4996638 
1.6878578e+2, 9.620988e+1, 232542.11, -38335.074, 1557.0436, 0.004961992, 0.025952633, 232551.06, 232551.06, 0.0, 2.5005612, 2.4996638 
1.687859e+2, 9.870954e+1, 238672.56, -35385.035, 1801.2041, 0.011873619, 0.026283516, 238684.4, 238684.4, 0.0, 2.500572, 2.4996638 
1.7128608e+2, 1.24915615e+0, -160642.03, -840027.3, -2105.2407, -0.0128626125, 0.0007286915, -160635.5, -160635.5, 0.0, 2.500545, 2.498296 
1.7128606e+2, 3.7474686e+0, -159880.88, -839932.7, -2515.1611, -0.013514034, 0.0021854476, -159871.58, -159871.58, 0.0, 2.5005465, 2.4982955 
1.7128605e+2, 6.245781e+0, -158952.56, -839489.7, -2873.498, -0.014160902, 0.0036413681, -158940.44, -158940.44, 0.0, 2.5005481, 2.4982955 
1.7128603e+2, 8.744093e+0, -158024.9, -839047.0, -3231.6946, -0.014803218, 0.0050964532, -158009.56, -158009.56, 0.0, 2.5005498, 2.4982955 
1.7128602e+2, 1.1242478e+1, -113417.97, -747411.6, -2542.641, -0.015382732, 0.0060989656, -113407.77, -113407.77, 0.0, 2.500551, 2.498452 
1.71286e+2, 1.3740934e+1, -112861.266, -746662.6, -3301.699, -0.015959807, 0.006215034, -112844.06, -112844.06, 0.0, 2.5005512, 2.4984531 
1.7128599e+2, 1.623939e+1, -112616.555, -746560.5, -3982.5452, -0.016534276, 0.0063315383, -112591.54, -112591.54, 0.0, 2.5005517, 2.4984531 
1.7128597e+2, 1.8737847e+1, -112372.48, -746458.7, -4663.2163, -0.017106045, 0.0064489963, -112338.18, -112338.18, 0.0, 2.5005522, 2.4984531 
1.7128597e+2, 2.1236373e+1, -71394.125, -660965.9, -6023.857, -0.017150328, 0.006576427, -71332.586, -71332.586, 0.0, 2.5005517, 2.4985998 
1.7128596e+2, 2.3734972e+1, -71772.65, -660209.5, -6325.758, -0.016864166, 0.0060108574, -71704.66, -71704.66, 0.0, 2.5005503, 2.498602 
1.7128596e+2, 2.623357e+1, -72754.19, -660703.06, -6595.0376, -0.01657373, 0.0054441113, -72680.22, -72680.22, 0.0, 2.5005486, 2.498602 
1.7128593e+2, 2.873217e+1, -73736.875, -661197.1, -6863.9097, -0.016278513, 0.0048779026, -73656.69, -73656.69, 0.0, 2.500547, 2.498602 
1.7128591e+2, 3.123085e+1, -32007.51, -575893.56, -5406.843, -0.016483467, 0.005581288, -31953.766, -31953.766, 0.0, 2.5005484, 2.4987473 
1.7128591e+2, 3.3729613e+1, -28584.86, -572971.1, -5857.763, -0.017313452, 0.0066890987, -28521.836, -28521.836, 0.0, 2.500553, 2.4987502 
1.712859e+2, 3.6228374e+1, -25976.756, -571738.44, -6337.6357, -0.01813697, 0.0077936277, -25903.17, -25903.17, 0.0, 2.5005574, 2.4987502 
1.712859e+2, 3.8727137e+1, -23369.787, -570506.25, -6816.858, -0.018953592, 0.008897945, -23284.867, -23284.867, 0.0, 2.500562, 2.4987502 
1.712859e+2, 4.122597e+1, 15593.581, -490741.88, -6481.0796, -0.01875298, 0.010509144, 15676.525, 15676.525, 0.0, 2.5005631, 2.4988863 
1.7128591e+2, 4.3724874e+1, 15177.428, -489284.47, -6351.475, -0.017757742, 0.011617712, 15257.384, 15257.384, 0.0, 2.5005605, 2.4988902 
1.7128593e+2, 4.6223775e+1, 13703.608, -490020.13, -6497.64, -0.01675552, 0.012721123, 13787.409, 13787.409, 0.0, 2.5005581, 2.4988902 
1.7128596e+2, 4.8722678e+1, 12228.362, -490756.47, -6643.269, -0.015745267, 0.013823925, 12316.089, 12316.089, 0.0, 2.5005555, 2.49889 
1.7128597e+2, 5.1221657e+1, 56248.547, -399386.47, -5903.925, -0.016027577, 0.0149917165, 56325.035, 56325.035, 0.0, 2.5005558, 2.4990468 
1.7128597e+2, 5.372071e+1, 58956.41, -395986.78, -5485.7856, -0.01750055, 0.01510428, 59022.547, 59022.547, 0.0, 2.5005581, 2.4990516 
1.7128597e+2, 5.621976e+1, 60335.977, -395342.6, -5632.475, -0.018962136, 0.015213834, 60405.586, 60405.586, 0.0, 2.5005605, 2.4990513 
1.7128597e+2, 5.871881e+1, 61714.047, -394699.13, -5778.952, -0.020413171, 0.015326263, 61787.207, 61787.207, 0.0, 2.500563, 2.4990513 
1.7128597e+2, 6.121794e+1, 101955.99, -312561.47, -10205.832, -0.02033121, 0.0158827, 102207.12, 102207.12, 0.0, 2.5005646, 2.4991915 
1.7128597e+2, 6.371714e+1, 103664.29, -309358.97, -9400.862, -0.018533466, 0.015660847, 103878.15, 103878.15, 0.0, 2.5005648, 2.499197 
1.7128599e+2, 6.621633e+1, 103868.336, -309277.34, -9559.255, -0.016726315, 0.015435001, 104089.4, 104089.4, 0.0, 2.5005653, 2.4991968 
1.71286e+2, 6.8715525e+1, 104070.93, -309196.4, -9717.49, -0.014910767, 0.015212459, 104299.3, 104299.3, 0.0, 2.5005655, 2.4991968 
1.71286e+2, 7.121481e+1, 143957.88, -224753.78, -7235.6753, -0.014008729, 0.016273672, 144099.81, 144099.81, 0.0, 2.5005639, 2.4993427 
1.7128603e+2, 7.3714167e+1, 143247.03, -222491.11, -5047.2344, -0.013588401, 0.017371235, 143316.67, 143316.67, 0.0, 2.5005598, 2.4993484 
1.7128605e+2, 7.6213527e+1, 140896.02, -223631.95, -4392.909, -0.0131548075, 0.01846359, 140948.95, 140948.95, 0.0, 2.5005558, 2.4993484 
1.7128608e+2, 7.871288e+1, 138543.25, -224773.66, -3738.5469, -0.01271111, 0.01955907, 138581.7, 138581.7, 0.0, 2.5005517, 2.4993484 
1.7128608e+2, 8.121232e+1, 183990.16, -130159.23, -9852.676, -0.012220774, 0.02071469, 184298.86, 184298.86, 0.0, 2.5005517, 2.499511 
1.7128606e+2, 8.371184e+1, 188127.27, -125432.375, -8826.881, -0.011446996, 0.02084016, 188375.55, 188375.55, 0.0, 2.5005558, 2.499517 
1.7128606e+2, 8.621136e+1, 190549.45, -124267.4, -9570.182, -0.01065162, 0.02096063, 190840.11, 190840.11, 0.0, 2.5005598, 2.499517 
1.7128606e+2, 8.871087e+1, 192968.98, -123103.69, -10313.432, -0.009836411, 0.021083571, 193305.16, 193305.16, 0.0, 2.500564, 2.499517 
1.7128609e+2, 9.1210467e+1, 231747.22, -41120.184, -3121.7258, -0.0075459066, 0.022304535, 231782.92, 231782.92, 0.0, 2.5005627, 2.4996586 
1.712862e+2, 9.371013e+1, 228755.7, -39712.387, -444.21704, -0.0017886667, 0.022611743, 228756.44, 228756.44, 0.0, 2.5005543, 2.499665 
1.7128631e+2, 9.6209794e+1, 223966.25, -42020.2, -437.15762, 0.0040240167, 0.02289229, 223966.97, 223966.97, 0.0, 2.5005462, 2.499665 
1.7128643e+2, 9.870946e+1, 219161.66, -44335.31, -428.32553, 0.009878258, 0.023161113, 219162.36, 219162.36, 0.0, 2.5005379, 2.499665 
1.7378663e+2, 1.2491532e+0, -161308.69, -841412.06, -1870.7935, -0.012908322, 0.0005499432, -161303.55, -161303.55, 0.0, 2.500545, 2.4982936 
1.7378661e+2, 3.7474594e+0, -160547.1, -841315.7, -2276.1907, -0.013374648, 0.0016495484, -160539.48, -160539.48, 0.0, 2.5005465, 2.4982932 
1.737866e+2, 6.2457657e+0, -159619.45, -840873.4, -2633.611, -0.013839182, 0.0027487795, -159609.28, -159609.28, 0.0, 2.5005481, 2.4982932 
1.7378658e+2, 8.744072e+0, -158692.47, -840431.3, -2990.8906, -0.014301927, 0.0038476365, -158679.34, -158679.34, 0.0, 2.5005498, 2.4982932 
1.7378657e+2, 1.1242454e+1, -114676.984, -750024.0, -2465.0527, -0.014751434, 0.0047750054, -114667.42, -114667.42, 0.0, 2.500551, 2.4984477 
1.7378657e+2, 1.3740906e+1, -114126.73, -749287.2, -3238.5786, -0.015258699, 0.00511986, -114110.21, -114110.21, 0.0, 2.5005512, 2.4984486 
1.7378655e+2, 1.6239361e+1, -113882.164, -749184.25, -3918.2847, -0.015764879, 0.0054654847, -113858.0, -113858.0, 0.0, 2.5005517, 2.4984486 
1.7378654e+2, 1.8737814e+1, -113638.234, -749081.56, -4597.8154, -0.016269866, 0.005812371, -113604.97, -113604.97, 0.0, 2.5005522, 2.4984486 
1.7378652e+2, 2.1236342e+1, -71877.83, -661957.5, -6240.0947, -0.016475318, 0.006090865, -71811.85, -71811.85, 0.0, 2.5005517, 2.498598 
1.7378652e+2, 2.3734938e+1, -72281.69, -661251.4, -6580.0195, -0.016503908, 0.0056125373, -72208.19, -72208.19, 0.0, 2.50055, 2.4986002 
1.737865e+2, 2.6233536e+1, -73264.01, -661744.1, -6848.1807, -0.016530532, 0.005133586, -73184.32, -73184.32, 0.0, 2.5005484, 2.4986 
1.7378649e+2, 2.8732133e+1, -74247.46, -662237.5, -7115.9346, -0.01655486, 0.0046556867, -74161.36, -74161.36, 0.0, 2.5005467, 2.4986 
1.7378646e+2, 3.1230807e+1, -32905.324, -577714.06, -4718.6787, -0.01677878, 0.005102335, -32864.457, -32864.457, 0.0, 2.5005484, 2.4987442 
1.7378646e+2, 3.3729562e+1, -29505.953, -574835.25, -5178.7725, -0.017408026, 0.005619143, -29456.777, -29456.777, 0.0, 2.500553, 2.498747 
1.7378646e+2, 3.6228317e+1, -26899.49, -573601.4, -5657.502, -0.018033901, 0.0061340025, -26840.95, -26840.95, 0.0, 2.5005572, 2.498747 
1.7378646e+2, 3.872707e+1, -24294.162, -572368.06, -6135.5815, -0.018655673, 0.0066499542, -24225.484, -24225.484, 0.0, 2.5005617, 2.498747 
1.7378646e+2, 4.1225898e+1, 15345.673, -491209.16, -6823.6104, -0.018443933, 0.008113087, 15437.575, 15437.575, 0.0, 2.5005631, 2.4988856 
1.7378649e+2, 4.3724805e+1, 14881.738, -489848.34, -6728.4404, -0.017525088, 0.0095667485, 14971.418, 14971.418, 0.0, 2.5005605, 2.4988892 
1.737865e+2, 4.622371e+1, 13407.47, -490582.1, -6873.1836, -0.016602425, 0.011016034, 13501.186, 13501.186, 0.0, 2.5005581, 2.4988892 
1.7378652e+2, 4.8722613e+1, 11931.774, -491316.53, -7017.391, -0.01567533, 0.012465282, 12029.607, 12029.607, 0.0, 2.5005555, 2.4988892 
1.7378652e+2, 5.122159e+1, 55969.03, -399900.34, -5542.8696, -0.015808687, 0.013698666, 56036.418, 56036.418, 0.0, 2.5005555, 2.4990458 
1.7378652e+2, 5.372064e+1, 58642.324, -396572.03, -5122.817, -0.017002871, 0.013572409, 58699.965, 58699.965, 0.0, 2.5005581, 2.4990504 
1.7378654e+2, 5.621969e+1, 60022.57, -395926.06, -5268.1836, -0.01818992, 0.013442254, 60083.434, 60083.434, 0.0, 2.5005605, 2.4990504 
1.7378654e+2, 5.871874e+1, 61401.32, -395280.8, -5413.3384, -0.019370096, 0.013314188, 61465.48, 61465.48, 0.0, 2.500563, 2.4990504 
1.7378654e+2, 6.121786e+1, 101672.23, -313119.6, -10146.795, -0.019083982, 0.0135964025, 101920.29, 101920.29, 0.0, 2.5005643, 2.4991906 
1.7378655e+2, 6.3717055e+1, 103356.086, -309967.56, -9338.822, -0.017145906, 0.01308489, 103566.984, 103566.984, 0.0, 2.5005648, 2.4991958 
1.7378657e+2, 6.621625e+1, 103560.81, -309883.78, -9495.952, -0.01520127, 0.0125685055, 103778.8, 103778.8, 0.0, 2.5005653, 2.4991958 
1.7378658e+2, 6.871544e+1, 103764.07, -309800.7, -9652.926, -0.01325113, 0.01205444, 103989.26, 103989.26, 0.0, 2.5005655, 2.4991958 
1.7378658e+2, 7.121471e+1, 145174.58, -222243.83, -7869.918, -0.012565593, 0.012997991, 145343.06, 145343.06, 0.0, 2.5005639, 2.499347 
1.737866e+2, 7.3714083e+1, 144485.7, -219935.45, -5649.5957, -0.012891144, 0.014172792, 144573.28, 144573.28, 0.0, 2.5005598, 2.4993527 
1.7378661e+2, 7.621344e+1, 142133.73, -221077.55, -4993.6724, -0.013208378, 0.0153418705, 142202.38, 142202.38, 0.0, 2.5005558, 2.4993527 
1.7378661e+2, 7.871281e+1, 139780.0, -222220.48, -4337.712, -0.013519328, 0.016513469, 139831.97, 139831.97, 0.0, 2.5005517, 2.4993527 
1.7378661e+2, 8.121224e+1, 182667.06, -132995.55, -9327.723, -0.01293573, 0.017807992, 182942.45, 182942.45, 0.0, 2.5005517, 2.499506 
1.7378663e+2, 8.371176e+1, 186823.28, -128228.92, -8191.3643, -0.011162925, 0.018135732, 187036.13, 187036.13, 0.0, 2.5005558, 2.4995122 
1.7378664e+2, 8.6211276e+1, 189244.6, -127064.63, -8932.64, -0.009373735, 0.018458014, 189496.66, 189496.66, 0.0, 2.50056, 2.4995122 
1.7378664e+2, 8.871079e+1, 191663.27, -125901.61, -9673.865, -0.007570208, 0.018782359, 191957.69, 191957.69, 0.0, 2.500564, 2.4995122 
1.7378667e+2, 9.1210383e+1, 231843.42, -41124.01, -4384.5396, -0.005324427, 0.019957626, 231913.83, 231913.83, 0.0, 2.5005627, 2.4996583 
1.7378676e+2, 9.3710047e+1, 228975.34, -39454.895, -1679.3662, -0.0013612704, 0.020005032, 228985.86, 228985.86, 0.0, 2.5005546, 2.4996653 
1.7378685e+2, 9.620971e+1, 224182.73, -41762.473, -1665.8181, 0.0026365982, 0.0200264, 224193.17, 224193.17, 0.0, 2.5005462, 2.4996653 
1.7378694e+2, 9.870937e+1, 219381.5, -44074.2, -1651.5479, 0.0066604665, 0.020036444, 219391.86, 219391.86, 0.0, 2.500538, 2.4996653 
1.7628717e+2, 1.2491502e+0, -161975.94, -842798.0, -1636.1022, -0.012953947, 0.0003704922, -161972.02, -161972.02, 0.0, 2.500545, 2.4982913 
1.7628716e+2, 3.7474507e+0, -161214.7, -842701.7, -2037.2717, -0.01323501, 0.0011115414, -161208.63, -161208.63, 0.0, 2.5005465, 2.4982908 
1.7628714e+2, 6.245751e+0, -160287.75, -842260.0, -2393.7751, -0.013517043, 0.0018526779, -160279.34, -160279.34, 0.0, 2.5005481, 2.4982908 
1.7628713e+2, 8.744051e+0, -159361.44, -841818.6, -2750.1377, -0.013800046, 0.0025939015, -159350.34, -159350.34, 0.0, 2.5005498, 2.4982908 
1.7628713e+2, 1.1242428e+1, -115941.87, -752648.56, -2387.3572, -0.014120456, 0.0034487955, -115932.914, -115932.914, 0.0, 2.500551, 2.4984431 
1.7628711e+2, 1.374088e+1, -115393.73, -751915.0, -3175.6328, -0.014558528, 0.0040191775, -115377.88, -115377.88, 0.0, 2.5005512, 2.498444 
1.7628711e+2, 1.6239332e+1, -115149.32, -751811.2, -3854.1985, -0.014997035, 0.0045906524, -115125.984, -115125.984, 0.0, 2.5005517, 2.498444 
1.762871e+2, 1.8737784e+1, -114905.53, -751707.7, -4532.5894, -0.015435856, 0.005163698, -114873.27, -114873.27, 0.0, 2.5005522, 2.498444 
1.7628708e+2, 2.123631e+1, -72373.31, -662973.56, -6457.6157, -0.015797744, 0.0056037595, -72302.71, -72302.71, 0.0, 2.5005517, 2.4985964 
1.7628707e+2, 2.3734903e+1, -72791.89, -662295.6, -6834.7188, -0.016141936, 0.005210414, -72712.664, -72712.664, 0.0, 2.50055, 2.4985983 
1.7628706e+2, 2.62335e+1, -73774.984, -662787.7, -7101.7617, -0.01648649, 0.004816934, -73689.37, -73689.37, 0.0, 2.5005484, 2.4985983 
1.7628703e+2, 2.8732097e+1, -74759.22, -663280.25, -7368.398, -0.016831236, 0.004425022, -74666.98, -74666.98, 0.0, 2.5005467, 2.4985983 
1.7628703e+2, 3.123077e+1, -33807.496, -579543.56, -4033.7874, -0.017074533, 0.0046147043, -33777.68, -33777.68, 0.0, 2.5005481, 2.4987411 
1.7628703e+2, 3.3729511e+1, -30428.043, -576701.44, -4500.498, -0.017504174, 0.0045385994, -30390.969, -30390.969, 0.0, 2.5005527, 2.498744 
1.7628704e+2, 3.6228257e+1, -27823.22, -575466.44, -4978.085, -0.01793354, 0.0044618687, -27777.975, -27777.975, 0.0, 2.5005572, 2.498744 
1.7628704e+2, 3.8727e+1, -25219.535, -574231.94, -5455.0215, -0.01836159, 0.0043875338, -25165.34, -25165.34, 0.0, 2.5005617, 2.4987438 
1.7628704e+2, 4.1225827e+1, 15088.727, -491695.22, -7163.9014, -0.018133136, 0.0057121743, 15189.976, 15189.976, 0.0, 2.500563, 2.498885 
1.7628706e+2, 4.3724737e+1, 14585.163, -490414.03, -7106.103, -0.017292088, 0.0075091263, 14685.138, 14685.138, 0.0, 2.5005605, 2.4988883 
1.7628707e+2, 4.6223643e+1, 13110.446, -491145.88, -7249.4243, -0.016450435, 0.009302381, 13214.6455, 13214.6455, 0.0, 2.500558, 2.4988883 
1.7628707e+2, 4.872255e+1, 11634.301, -491878.4, -7392.21, -0.015607951, 0.011096174, 11742.805, 11742.805, 0.0, 2.5005555, 2.4988883 
1.7628708e+2, 5.1221526e+1, 55682.76, -400428.25, -5183.1973, -0.015592831, 0.012398444, 55741.656, 55741.656, 0.0, 2.5005555, 2.4990451 
1.7628708e+2, 5.3720576e+1, 58327.496, -397158.8, -4760.25, -0.016509311, 0.012031696, 58377.24, 58377.24, 0.0, 2.500558, 2.4990494 
1.762871e+2, 5.621962e+1, 59708.426, -396511.06, -4904.2944, -0.017422905, 0.01166011, 59761.137, 59761.137, 0.0, 2.5005603, 2.4990494 
1.7628711e+2, 5.8718663e+1, 61087.855, -395864.03, -5048.126, -0.018333301, 0.011289828, 61143.617, 61143.617, 0.0, 2.5005627, 2.4990494 
1.7628711e+2, 6.1217785e+1, 101381.695, -313691.75, -10082.5625, -0.017836897, 0.011304885, 101626.46, 101626.46, 0.0, 2.5005643, 2.4991896 
1.7628713e+2, 6.371697e+1, 103047.21, -310577.53, -9277.196, -0.015758883, 0.010502094, 103255.19, 103255.19, 0.0, 2.5005648, 2.4991949 
1.7628714e+2, 6.621616e+1, 103252.61, -310491.63, -9433.063, -0.01367724, 0.009693451, 103467.56, 103467.56, 0.0, 2.500565, 2.4991949 
1.7628716e+2, 6.8715346e+1, 103456.54, -310406.4, -9588.775, -0.011592987, 0.008886143, 103678.58, 103678.58, 0.0, 2.5005655, 2.4991949 
1.7628716e+2, 7.121462e+1, 146380.78, -219755.69, -8494.248, -0.011131867, 0.009719437, 146577.75, 146577.75, 0.0, 2.5005639, 2.4993513 
1.7628716e+2, 7.3713994e+1, 145723.8, -217381.02, -6252.008, -0.0122022685, 0.010969411, 145831.42, 145831.42, 0.0, 2.5005598, 2.4993572 
1.7628716e+2, 7.6213366e+1, 143370.86, -218524.34, -5594.4863, -0.013269208, 0.012213032, 143457.33, 143457.33, 0.0, 2.5005558, 2.4993572 
1.7628716e+2, 7.871273e+1, 141016.16, -219668.52, -4936.9272, -0.014333681, 0.013458564, 141083.72, 141083.72, 0.0, 2.500552, 2.4993572 
1.7628716e+2, 8.1212175e+1, 181330.34, -135860.14, -8789.385, -0.013658273, 0.014901014, 181573.72, 181573.72, 0.0, 2.5005517, 2.499501 
1.7628717e+2, 8.3711684e+1, 185518.92, -131026.27, -7555.897, -0.0108849825, 0.015428971, 185699.17, 185699.17, 0.0, 2.500556, 2.4995074 
1.762872e+2, 8.62112e+1, 187939.36, -129862.67, -8295.147, -0.008100494, 0.015950868, 188155.73, 188155.73, 0.0, 2.50056, 2.4995074 
1.7628723e+2, 8.871071e+1, 190357.16, -128700.34, -9034.349, -0.005307166, 0.016474415, 190612.77, 190612.77, 0.0, 2.5005643, 2.4995074 
1.7628725e+2, 9.1210294e+1, 231918.88, -41170.996, -5623.952, -0.0031268268, 0.017622275, 232034.64, 232034.64, 0.0, 2.500563, 2.4996583 
1.7628732e+2, 9.3709964e+1, 229194.3, -39198.88, -2915.029, -0.0009567021, 0.017406376, 229225.95, 229225.95, 0.0, 2.5005548, 2.4996655 
1.7628738e+2, 9.6209615e+1, 224398.52, -41506.223, -2894.9924, 0.0012277352, 0.017164765, 224430.03, 224430.03, 0.0, 2.5005465, 2.4996655 
1.7628744e+2, 9.870928e+1, 219594.13, -43817.715, -2874.2334, 0.0034226135, 0.016912226, 219625.48, 219625.48, 0.0, 2.5005383, 2.4996655 
1.7878772e+2, 1.2491472e+0, -163137.9, -844423.44, -1404.1116, -0.012996533, 0.00019040778, -163135.02, -163135.02, 0.0, 2.500544, 2.4982889 
1.7878771e+2, 3.7474415e+0, -162309.11, -844295.75, -1806.8086, -0.013092407, 0.0005716185, -162304.33, -162304.33, 0.0, 2.5005457, 2.4982884 
1.787877e+2, 6.245736e+0, -161342.0, -843835.0, -2167.1108, -0.013191843, 0.00095335685, -161335.13, -161335.13, 0.0, 2.5005474, 2.4982884 
1.787877e+2, 8.74403e+0, -160403.48, -843388.06, -2526.4502, -0.013294842, 0.0013356226, -160394.13, -160394.13, 0.0, 2.500549, 2.4982884 
1.7878768e+2, 1.1242403e+1, -117575.28, -755460.06, -2327.971, -0.013487092, 0.0021207999, -117566.79, -117566.79, 0.0, 2.5005503, 2.4984386 
1.7878768e+2, 1.3740852e+1, -117012.21, -754714.6, -3130.8398, -0.013856815, 0.0029135363, -116996.84, -116996.84, 0.0, 2.5005507, 2.4984396 
1.7878766e+2, 1.6239302e+1, -116773.766, -754612.75, -3807.4026, -0.014228406, 0.0037076396, -116751.04, -116751.04, 0.0, 2.5005512, 2.4984396 
1.7878766e+2, 1.8737751e+1, -116554.484, -754520.1, -4483.3647, -0.0146017345, 0.0045035835, -116522.98, -116522.98, 0.0, 2.5005515, 2.4984396 
1.7878765e+2, 2.1236275e+1, -73224.51, -664179.9, -6693.058, -0.015115361, 0.0051157586, -73148.72, -73148.72, 0.0, 2.5005512, 2.4985948 
1.7878762e+2, 2.373487e+1, -73558.195, -663465.2, -7109.3374, -0.015775967, 0.0048051993, -73472.53, -73472.53, 0.0, 2.5005496, 2.4985967 
1.787876e+2, 2.6233464e+1, -74484.12, -663928.5, -7376.593, -0.016439129, 0.004494867, -74391.82, -74391.82, 0.0, 2.5005481, 2.4985967 
1.7878757e+2, 2.8732058e+1, -75442.25, -664407.4, -7641.9253, -0.017104812, 0.0041865497, -75343.12, -75343.12, 0.0, 2.5005465, 2.4985964 
1.7878757e+2, 3.1230727e+1, -34876.18, -581460.4, -3373.9905, -0.017367894, 0.004119173, -34855.35, -34855.35, 0.0, 2.500548, 2.498738 
1.7878757e+2, 3.372946e+1, -31530.078, -578656.06, -3848.7297, -0.017599417, 0.003448587, -31503.006, -31503.006, 0.0, 2.5005524, 2.4987407 
1.7878759e+2, 3.6228198e+1, -28982.248, -577446.56, -4328.928, -0.017833589, 0.0027786205, -28948.082, -28948.082, 0.0, 2.5005567, 2.4987407 
1.787876e+2, 3.8726932e+1, -26474.11, -576256.2, -4808.263, -0.018069075, 0.0021122852, -26432.06, -26432.06, 0.0, 2.500561, 2.4987407 
1.787876e+2, 4.1225758e+1, 14496.473, -492357.38, -7535.786, -0.017818391, 0.0033081176, 14608.488, 14608.488, 0.0, 2.5005624, 2.498884 
1.7878762e+2, 4.3724668e+1, 14074.205, -491084.56, -7517.544, -0.01705673, 0.0054466086, 14186.053, 14186.053, 0.0, 2.50056, 2.4988873 
1.7878762e+2, 4.6223575e+1, 12687.346, -491771.97, -7659.4233, -0.016297588, 0.007581962, 12803.615, 12803.615, 0.0, 2.5005577, 2.4988873 
1.7878763e+2, 4.8722485e+1, 11274.589, -492471.88, -7801.4966, -0.0155410925, 0.009718403, 11395.381, 11395.381, 0.0, 2.5005553, 2.4988873 
1.7878763e+2, 5.122146e+1, 55337.082, -400995.47, -4855.4336, -0.015378062, 0.011092862, 55388.742, 55388.742, 0.0, 2.5005555, 2.4990442 
1.7878765e+2, 5.372051e+1, 57896.98, -397802.53, -4422.67, -0.016018141, 0.010484003, 57939.9, 57939.9, 0.0, 2.5005577, 2.4990485 
1.7878766e+2, 5.6219554e+1, 59174.86, -397203.03, -4562.5, -0.01665943, 0.009869345, 59220.465, 59220.465, 0.0, 2.5005598, 2.4990485 
1.7878768e+2, 5.871859e+1, 60409.816, -396624.25, -4705.171, -0.017301029, 0.009255233, 60458.25, 60458.25, 0.0, 2.500562, 2.4990485 
1.787877e+2, 6.121771e+1, 100677.37, -314473.22, -10019.297, -0.016588287, 0.009010233, 100919.03, 100919.03, 0.0, 2.5005636, 2.4991887 
1.7878771e+2, 6.3716894e+1, 102405.12, -311348.28, -9188.708, -0.014371092, 0.00791452, 102609.08, 102609.08, 0.0, 2.500564, 2.499194 
1.7878772e+2, 6.621607e+1, 102658.16, -311237.6, -9310.229, -0.012153175, 0.006811926, 102867.48, 102867.48, 0.0, 2.5005646, 2.4991937 
1.7878774e+2, 6.8715256e+1, 102882.195, -311140.88, -9431.947, -0.009935439, 0.00570973, 103096.96, 103096.96, 0.0, 2.500565, 2.4991937 
1.7878774e+2, 7.121454e+1, 147283.7, -217429.66, -8985.626, -0.009706767, 0.006440189, 147504.94, 147504.94, 0.0, 2.5005634, 2.4993553 
1.7878772e+2, 7.371391e+1, 146592.19, -215004.81, -6702.7554, -0.01152106, 0.007763188, 146716.39, 146716.39, 0.0, 2.5005593, 2.4993615 
1.7878771e+2, 7.621329e+1, 144131.66, -216200.7, -6013.7896, -0.013336506, 0.009079073, 144231.98, 144231.98, 0.0, 2.500555, 2.4993615 
1.7878771e+2, 7.871266e+1, 141639.02, -217412.05, -5323.6226, -0.015153168, 0.010396252, 141717.94, 141717.94, 0.0, 2.5005507, 2.4993615 
1.787877e+2, 8.12121e+1, 179250.16, -139102.16, -7970.5425, -0.014387473, 0.01199544, 179449.58, 179449.58, 0.0, 2.5005505, 2.499496 
1.7878774e+2, 8.3711606e+1, 183384.45, -134221.55, -6573.2935, -0.010612634, 0.01272129, 183520.44, 183520.44, 0.0, 2.5005546, 2.4995024 
1.7878778e+2, 8.621112e+1, 185671.2, -133122.55, -7228.2656, -0.0068316488, 0.013440357, 185835.0, 185835.0, 0.0, 2.5005586, 2.4995024 
1.7878781e+2, 8.871063e+1, 187922.33, -132040.7, -7881.008, -0.00304721, 0.014160689, 188116.33, 188116.33, 0.0, 2.5005624, 2.4995024 
1.7878784e+2, 9.121021e+1, 230648.28, -41896.637, -6226.2944, -0.0009530412, 0.015299374, 230790.45, 230790.45, 0.0, 2.500561, 2.499658 
1.7878787e+2, 9.370987e+1, 227787.17, -39724.43, -3424.6853, -0.00057443476, 0.014816725, 227831.02, 227831.02, 0.0, 2.5005522, 2.499666 
1.787879e+2, 9.620953e+1, 222552.05, -42241.664, -3286.7751, -0.0002010552, 0.014308359, 222592.84, 222592.84, 0.0, 2.500543, 2.499666 
1.7878795e+2, 9.870919e+1, 217172.19, -44828.605, -3149.6035, 0.00016773427, 0.013789437, 217210.05, 217210.05, 0.0, 2.500534, 2.499666 
1.8128827e+2, 1.2491453e+0, -155900.89, -842335.4, -1040.3187, -0.011939194, 0.00015938136, -155899.31, -155899.31, 0.0, 2.5005581, 2.4982858 
1.8128827e+2, 3.747436e+0, -153474.6, -841437.6, -1652.6888, -0.012125016, 0.00047769476, -153470.63, -153470.63, 0.0, 2.5005624, 2.4982853 
1.8128826e+2, 6.2457263e+0, -150882.02, -840192.7, -2225.7598, -0.012304066, 0.0007954098, -150874.83, -150874.83, 0.0, 2.500567, 2.4982853 
1.8128826e+2, 8.7440175e+0, -148290.52, -838948.2, -2798.677, -0.012476344, 0.0011125262, -148279.17, -148279.17, 0.0, 2.5005715, 2.4982853 
1.8128826e+2, 1.1242386e+1, -106273.14, -751422.0, -3307.5032, -0.012712594, 0.0018124487, -106256.19, -106256.19, 0.0, 2.5005713, 2.4984355 
1.8128824e+2, 1.3740832e+1, -108995.67, -752264.6, -3726.484, -0.013090501, 0.002500027, -108974.086, -108974.086, 0.0, 2.500566, 2.4984365 
1.8128823e+2, 1.6239277e+1, -112021.59, -753735.56, -4002.984, -0.013466465, 0.0031860748, -111996.625, -111996.625, 0.0, 2.5005608, 2.4984365 
1.8128821e+2, 1.873772e+1, -115048.586, -755207.06, -4279.523, -0.01384038, 0.0038710637, -115019.984, -115019.984, 0.0, 2.5005555, 2.4984365 
1.812882e+2, 2.1236242e+1, -70958.02, -664113.2, -5618.2554, -0.014384134, 0.004437413, -70904.81, -70904.81, 0.0, 2.5005562, 2.4985924 
1.8128818e+2, 2.3734835e+1, -66897.47, -661297.6, -6225.747, -0.015103192, 0.0041524773, -66832.266, -66832.266, 0.0, 2.5005622, 2.4985943 
1.8128817e+2, 2.6233426e+1, -63386.727, -659621.3, -6657.352, -0.015813831, 0.0038628082, -63312.402, -63312.402, 0.0, 2.5005682, 2.4985943 
1.8128814e+2, 2.8732023e+1, -59877.383, -657945.7, -7088.6035, -0.01651601, 0.0035701785, -59793.375, -59793.375, 0.0, 2.5005744, 2.4985943 
1.8128814e+2, 3.1230685e+1, -20514.135, -575870.5, -3402.221, -0.016751137, 0.0034357628, -20493.293, -20493.293, 0.0, 2.500574, 2.4987352 
1.8128815e+2, 3.3729416e+1, -23888.984, -576341.25, -3853.845, -0.016878424, 0.0026250363, -23862.104, -23862.104, 0.0, 2.500567, 2.4987378 
1.8128815e+2, 3.6228144e+1, -28001.04, -578340.06, -4296.6313, -0.016996691, 0.0018090747, -27967.496, -27967.496, 0.0, 2.5005598, 2.4987376 
1.8128817e+2, 3.8726875e+1, -32114.764, -580339.6, -4739.1406, -0.017104631, 0.0009908536, -32073.799, -32073.799, 0.0, 2.500553, 2.4987376 
1.8128818e+2, 4.1225702e+1, 9064.689, -495119.8, -6725.603, -0.016938377, 0.0021564132, 9154.391, 9154.391, 0.0, 2.5005531, 2.4988837 
1.8128818e+2, 4.3724608e+1, 14352.785, -491129.34, -6573.8975, -0.016489493, 0.0043788636, 14438.266, 14438.266, 0.0, 2.5005608, 2.4988868 
1.8128818e+2, 4.6223518e+1, 18722.67, -489041.94, -6552.6445, -0.016034069, 0.0065963143, 18807.217, 18807.217, 0.0, 2.5005684, 2.4988868 
1.812882e+2, 4.8722428e+1, 23090.693, -486955.44, -6531.172, -0.015572191, 0.008813052, 23174.313, 23174.313, 0.0, 2.5005758, 2.4988868 
1.812882e+2, 5.1221406e+1, 66703.06, -395994.7, -4440.629, -0.015341512, 0.010004832, 66745.68, 66745.68, 0.0, 2.5005755, 2.499043 
1.8128821e+2, 5.3720444e+1, 62518.707, -396103.84, -4114.6616, -0.015556232, 0.008944399, 62555.62, 62555.62, 0.0, 2.5005662, 2.4990473 
1.8128824e+2, 5.6219476e+1, 57122.113, -398724.72, -4331.0493, -0.015760154, 0.00787976, 57163.26, 57163.26, 0.0, 2.500557, 2.4990473 
1.8128826e+2, 5.8718514e+1, 51723.6, -401346.5, -4547.065, -0.015952278, 0.006817291, 51769.23, 51769.23, 0.0, 2.5005476, 2.4990473 
1.8128826e+2, 6.121763e+1, 91366.945, -318299.63, -8400.696, -0.015238575, 0.006494954, 91539.14, 91539.14, 0.0, 2.500547, 2.49919 
1.8128827e+2, 6.3716817e+1, 97142.53, -313230.16, -6909.3594, -0.013534127, 0.0057023824, 97258.83, 97258.83, 0.0, 2.5005543, 2.4991953 
1.8128829e+2, 6.6216004e+1, 101476.586, -311149.97, -6364.326, -0.011822569, 0.0049059778, 101574.73, 101574.73, 0.0, 2.500562, 2.4991953 
1.812883e+2, 6.8715197e+1, 105808.81, -309070.63, -5819.521, -0.010104525, 0.00411303, 105890.42, 105890.42, 0.0, 2.5005693, 2.4991953 
1.812883e+2, 7.121448e+1, 151246.61, -214877.03, -6989.2207, -0.009913633, 0.0048730643, 151379.98, 151379.98, 0.0, 2.5005696, 2.4993567 
1.8128829e+2, 7.3713845e+1, 148284.58, -213498.94, -5633.3184, -0.011378336, 0.005896489, 148372.27, 148372.27, 0.0, 2.5005615, 2.4993632 
1.8128827e+2, 7.6213217e+1, 143555.66, -215782.78, -5854.8696, -0.01283624, 0.006912315, 143651.03, 143651.03, 0.0, 2.5005534, 2.4993632 
1.8128826e+2, 7.8712595e+1, 138824.48, -218067.73, -6076.3115, -0.014286784, 0.0079292385, 138927.9, 138927.9, 0.0, 2.5005453, 2.4993632 
1.8128826e+2, 8.121204e+1, 175282.17, -140922.88, -6949.5645, -0.013574239, 0.0093897525, 175434.84, 175434.84, 0.0, 2.5005436, 2.4994962 
1.8128829e+2, 8.3711547e+1, 180067.52, -135589.78, -4085.8684, -0.010255749, 0.010141377, 180120.39, 180120.39, 0.0, 2.5005486, 2.499503 
1.8128833e+2, 8.621106e+1, 182954.9, -134192.64, -3336.6072, -0.0069246218, 0.010887492, 182990.0, 182990.0, 0.0, 2.5005536, 2.4995031 
1.8128838e+2, 8.8710564e+1, 185839.03, -132797.06, -2587.4067, -0.003583766, 0.011636156, 185860.05, 185860.05, 0.0, 2.5005586, 2.4995031 
1.8128839e+2, 9.121015e+1, 227799.38, -43161.055, -2417.506, -0.0013945241, 0.012985528, 227820.95, 227820.95, 0.0, 2.500556, 2.4996583 
1.8128842e+2, 9.3709815e+1, 223218.4, -41597.965, 239.80638, -0.00087753474, 0.012836282, 223218.63, 223218.63, 0.0, 2.500544, 2.4996667 
1.8128844e+2, 9.620948e+1, 216263.31, -44945.855, 270.0913, -0.0003397277, 0.012659324, 216263.6, 216263.6, 0.0, 2.5005322, 2.4996667 
1.8128847e+2, 9.870914e+1, 209301.25, -48297.105, 301.12836, 0.00022355498, 0.012470335, 209301.61, 209301.61, 0.0, 2.50052, 2.4996667 
1.8378885e+2, 1.24914445e+0, -156969.03, -844554.1, -372.0252, -0.010324174, 0.0002624401, -156968.83, -156968.83, 0.0, 2.5005581, 2.498282 
1.8378885e+2, 3.7474334e+0, -154544.38, -843658.75, -981.41766, -0.010821931, 0.00078737683, -154542.98, -154542.98, 0.0, 2.5005624, 2.4982815 
1.8378884e+2, 6.245722e+0, -151952.92, -842415.1, -1552.8578, -0.011317437, 0.0013123896, -151949.44, -151949.44, 0.0, 2.500567, 2.4982815 
1.8378884e+2, 8.744011e+0, -149362.55, -841172.0, -2124.1443, -0.011810691, 0.0018374783, -149356.02, -149356.02, 0.0, 2.5005715, 2.4982815 
1.8378882e+2, 1.1242376e+1, -106779.305, -752479.2, -4076.4753, -0.0122563755, 0.0024213037, -106753.57, -106753.57, 0.0, 2.5005713, 2.4984336 
1.837888e+2, 1.3740815e+1, -109509.516, -753336.56, -4513.3413, -0.012687548, 0.002665938, -109477.875, -109477.875, 0.0, 2.500566, 2.4984345 
1.8378879e+2, 1.6239254e+1, -112536.13, -754807.75, -4788.3027, -0.013120291, 0.0029098203, -112500.44, -112500.44, 0.0, 2.5005608, 2.4984345 
1.8378878e+2, 1.8737692e+1, -115563.83, -756279.44, -5063.3027, -0.013554553, 0.0031534263, -115523.82, -115523.82, 0.0, 2.5005555, 2.4984345 
1.8378876e+2, 2.1236208e+1, -71744.49, -665736.0, -4691.1406, -0.014002029, 0.003446952, -71707.445, -71707.445, 0.0, 2.5005562, 2.4985895 
1.8378875e+2, 2.3734799e+1, -67709.195, -662969.5, -5316.016, -0.014527248, 0.003121034, -67661.72, -67661.72, 0.0, 2.5005622, 2.4985914 
1.8378873e+2, 2.6233387e+1, -64200.9, -661294.94, -5745.785, -0.015048627, 0.002792264, -64145.613, -64145.613, 0.0, 2.5005682, 2.4985914 
1.8378872e+2, 2.8731978e+1, -60694.004, -659621.06, -6175.2, -0.015565967, 0.0024622716, -60630.34, -60630.34, 0.0, 2.5005744, 2.4985914 
1.8378872e+2, 3.1230637e+1, -21309.363, -577521.4, -4438.879, -0.015730983, 0.0024304583, -21273.94, -21273.94, 0.0, 2.500574, 2.4987323 
1.8378873e+2, 3.372937e+1, -24711.404, -578046.25, -4920.2417, -0.015785612, 0.0018645866, -24667.658, -24667.658, 0.0, 2.500567, 2.4987347 
1.8378873e+2, 3.62281e+1, -28824.22, -580044.0, -5361.2915, -0.01583554, 0.0012945863, -28772.08, -28772.08, 0.0, 2.5005598, 2.4987347 
1.8378873e+2, 3.872683e+1, -32938.707, -582042.6, -5802.0645, -0.015879866, 0.0007234241, -32877.406, -32877.406, 0.0, 2.500553, 2.4987347 
1.8378875e+2, 4.122565e+1, 9091.276, -495022.5, -5582.824, -0.015880266, 0.0019345697, 9153.097, 9153.097, 0.0, 2.5005531, 2.498884 
1.8378875e+2, 4.372456e+1, 14366.58, -491057.88, -5440.2544, -0.015936987, 0.0039809304, 14425.131, 14425.131, 0.0, 2.5005608, 2.498887 
1.8378876e+2, 4.6223468e+1, 18737.398, -488968.13, -5417.234, -0.015992591, 0.0060226484, 18795.195, 18795.195, 0.0, 2.5005682, 2.498887 
1.8378876e+2, 4.8722377e+1, 23106.355, -486879.25, -5393.9937, -0.016046695, 0.008064101, 23163.4, 23163.4, 0.0, 2.5005758, 2.498887 
1.8378878e+2, 5.1221347e+1, 66336.89, -396744.53, -5775.558, -0.015811076, 0.0088269925, 66408.91, 66408.91, 0.0, 2.5005755, 2.4990418 
1.8378879e+2, 5.372038e+1, 62116.14, -396928.8, -5508.9414, -0.015409948, 0.0071036983, 62182.242, 62182.242, 0.0, 2.5005662, 2.4990458 
1.837888e+2, 5.6219405e+1, 56720.164, -399547.53, -5723.567, -0.015002193, 0.005376969, 56791.953, 56791.953, 0.0, 2.500557, 2.4990458 
1.837888e+2, 5.8718437e+1, 51322.27, -402167.16, -5937.82, -0.014587195, 0.0036530595, 51400.004, 51400.004, 0.0, 2.5005476, 2.4990458 
1.8378882e+2, 6.121755e+1, 92377.68, -316200.06, -7276.191, -0.0140620805, 0.0034300734, 92507.22, 92507.22, 0.0, 2.500547, 2.4991937 
1.8378884e+2, 6.371675e+1, 98162.625, -311114.03, -5782.936, -0.013446769, 0.003523913, 98244.32, 98244.32, 0.0, 2.5005543, 2.499199 
1.8378885e+2, 6.621595e+1, 102499.55, -309030.53, -5236.261, -0.012828375, 0.003612808, 102566.164, 102566.164, 0.0, 2.500562, 2.499199 
1.8378885e+2, 6.871515e+1, 106834.65, -306947.9, -4689.814, -0.0122070145, 0.0037040159, 106887.8, 106887.8, 0.0, 2.5005693, 2.499199 
1.8378885e+2, 7.121444e+1, 150872.14, -215710.34, -8167.9917, -0.011838355, 0.004624315, 151054.05, 151054.05, 0.0, 2.5005696, 2.4993553 
1.8378884e+2, 7.37138e+1, 147922.4, -214307.97, -6853.821, -0.011873451, 0.0050087557, 148052.05, 148052.05, 0.0, 2.5005615, 2.4993618 
1.8378884e+2, 7.6213163e+1, 143194.58, -216590.22, -7074.024, -0.01190597, 0.005384569, 143333.61, 143333.61, 0.0, 2.5005534, 2.4993618 
1.8378882e+2, 7.8712535e+1, 138464.47, -218873.58, -7294.117, -0.011934952, 0.0057608727, 138613.3, 138613.3, 0.0, 2.5005453, 2.4993618 
1.8378882e+2, 8.1211966e+1, 176659.11, -138187.1, -6238.653, -0.011397792, 0.0068287547, 176782.69, 176782.69, 0.0, 2.5005438, 2.499501 
1.8378885e+2, 8.371149e+1, 181559.58, -132616.78, -3333.42, -0.009896321, 0.007487076, 181594.95, 181594.95, 0.0, 2.5005488, 2.4995081 
1.8378887e+2, 8.6210996e+1, 184448.92, -131216.56, -2582.5754, -0.008386032, 0.008139242, 184470.05, 184470.05, 0.0, 2.5005538, 2.4995081 
1.837889e+2, 8.8710517e+1, 187335.0, -129817.91, -1831.7917, -0.006869846, 0.008792969, 187345.58, 187345.58, 0.0, 2.5005586, 2.4995081 
1.8378891e+2, 9.1210115e+1, 227954.6, -43058.64, -4174.461, -0.004401045, 0.010588453, 228018.88, 228018.88, 0.0, 2.5005562, 2.4996583 
1.8378896e+2, 9.3709785e+1, 223484.67, -41261.016, -1552.767, -0.0019274681, 0.011358944, 223493.78, 223493.78, 0.0, 2.5005443, 2.4996672 
1.8378899e+2, 9.6209455e+1, 216526.44, -44610.207, -1518.4758, 0.00055321975, 0.012101553, 216535.27, 216535.27, 0.0, 2.5005322, 2.4996672 
1.8378901e+2, 9.870913e+1, 209561.23, -47962.76, -1483.4326, 0.0030493531, 0.012832674, 209569.78, 209569.78, 0.0, 2.5005202, 2.4996672 
1.8628943e+2, 1.2491436e+0, -158037.69, -846773.9, 296.67102, -0.008708926, 0.00036471593, -158037.56, -158037.56, 0.0, 2.5005581, 2.4982781 
1.8628941e+2, 3.7474307e+0, -155615.53, -845882.7, -310.14648, -0.009518161, 0.0010947102, -155615.39, -155615.39, 0.0, 2.5005624, 2.4982777 
1.8628941e+2, 6.245718e+0, -153025.2, -844640.4, -879.95575, -0.0103296675, 0.0018254549, -153024.08, -153024.08, 0.0, 2.500567, 2.4982777 
1.8628941e+2, 8.744005e+0, -150435.95, -843398.6, -1449.6115, -0.011143443, 0.00255695, -150432.92, -150432.92, 0.0, 2.5005715, 2.4982777 
1.862894e+2, 1.1242366e+1, -107292.38, -753550.75, -4842.7915, -0.0118021285, 0.0030291826, -107256.1, -107256.1, 0.0, 2.5005713, 2.4984317 
1.8628938e+2, 1.3740799e+1, -110024.57, -754411.0, -5300.182, -0.012286832, 0.002828607, -109980.98, -109980.98, 0.0, 2.500566, 2.4984326 
1.8628936e+2, 1.6239232e+1, -113051.88, -755882.44, -5573.604, -0.012776605, 0.0026280433, -113003.56, -113003.56, 0.0, 2.5005608, 2.4984326 
1.8628934e+2, 1.8737663e+1, -116080.27, -757354.3, -5847.066, -0.013271468, 0.0024279861, -116026.97, -116026.97, 0.0, 2.5005555, 2.4984326 
1.8628933e+2, 2.1236174e+1, -72537.016, -667371.4, -3766.0095, -0.013617614, 0.0024517346, -72513.17, -72513.17, 0.0, 2.5005562, 2.498587 
1.8628933e+2, 2.373476e+1, -68521.97, -664643.5, -4406.5547, -0.013948622, 0.0020824936, -68489.4, -68489.4, 0.0, 2.5005622, 2.4985886 
1.8628931e+2, 2.6233348e+1, -65016.125, -662970.75, -4834.4873, -0.01428039, 0.0017122589, -64977.04, -64977.04, 0.0, 2.5005682, 2.4985886 
1.8628931e+2, 2.8731933e+1, -61511.67, -661298.56, -5262.0664, -0.014612543, 0.0013425401, -61465.51, -61465.51, 0.0, 2.5005744, 2.4985886 
1.8628931e+2, 3.1230593e+1, -22115.203, -579194.3, -5469.112, -0.014716622, 0.0014221962, -22061.516, -22061.516, 0.0, 2.500574, 2.4987295 
1.862893e+2, 3.3729324e+1, -25534.59, -579752.8, -5987.101, -0.014700178, 0.0010996204, -25469.92, -25469.92, 0.0, 2.500567, 2.4987319 
1.862893e+2, 3.6228055e+1, -29648.168, -581749.56, -6426.415, -0.014683277, 0.00077394675, -29573.375, -29573.375, 0.0, 2.5005598, 2.4987319 
1.862893e+2, 3.8726783e+1, -33763.418, -583747.1, -6865.4517, -0.014665498, 0.0004482086, -33677.73, -33677.73, 0.0, 2.500553, 2.4987319 
1.8628931e+2, 4.1225606e+1, 9110.568, -494940.34, -4446.4077, -0.014817607, 0.0017082978, 9149.788, 9149.788, 0.0, 2.5005531, 2.498884 
1.8628931e+2, 4.372451e+1, 14379.693, -490987.88, -4307.0913, -0.015382411, 0.0035768675, 14416.399, 14416.399, 0.0, 2.5005608, 2.4988873 
1.8628933e+2, 4.622342e+1, 18751.445, -488895.75, -4282.3037, -0.015951661, 0.0054411106, 18787.566, 18787.566, 0.0, 2.5005682, 2.498887 
1.8628934e+2, 4.8722324e+1, 23121.334, -486804.5, -4257.296, -0.016524365, 0.0073055364, 23156.875, 23156.875, 0.0, 2.5005758, 2.498887 
1.8628934e+2, 5.1221293e+1, 65964.516, -397507.25, -7104.336, -0.016285475, 0.0076455316, 66073.39, 66073.39, 0.0, 2.5005753, 2.4990406 
1.8628936e+2, 5.3720313e+1, 61712.816, -397755.38, -6903.7793, -0.01527093, 0.0052573704, 61816.527, 61816.527, 0.0, 2.5005662, 2.4990444 
1.8628937e+2, 5.6219333e+1, 56317.46, -400371.9, -7116.6426, -0.014253901, 0.002866469, 56428.332, 56428.332, 0.0, 2.500557, 2.4990444 
1.8628937e+2, 5.871836e+1, 50920.184, -402989.38, -7329.1333, -0.013234186, 0.00047903784, 51038.496, 51038.496, 0.0, 2.5005476, 2.4990444 
1.8628938e+2, 6.1217475e+1, 93374.47, -314129.44, -6150.7793, -0.012884916, 0.00036483008, 93467.29, 93467.29, 0.0, 2.500547, 2.4991972 
1.8628938e+2, 6.3716686e+1, 99181.836, -308999.72, -4656.711, -0.013361011, 0.0013424298, 99234.95, 99234.95, 0.0, 2.5005543, 2.4992025 
1.862894e+2, 6.6215897e+1, 103521.63, -306912.94, -4108.394, -0.013838229, 0.0023138344, 103562.76, 103562.76, 0.0, 2.500562, 2.4992025 
1.862894e+2, 6.8715113e+1, 107859.61, -304827.06, -3560.3054, -0.014315998, 0.0032864073, 107890.32, 107890.32, 0.0, 2.5005693, 2.4992025 
1.862894e+2, 7.1214396e+1, 150488.28, -216563.22, -9339.357, -0.013769809, 0.0043736473, 150725.75, 150725.75, 0.0, 2.5005696, 2.499354 
1.862894e+2, 7.3713756e+1, 147559.6, -215118.36, -8074.725, -0.0123767, 0.0041175657, 147739.28, 147739.28, 0.0, 2.5005615, 2.4993603 
1.862894e+2, 7.621311e+1, 142832.83, -217399.03, -8293.58, -0.010985241, 0.0038517255, 143023.67, 143023.67, 0.0, 2.5005534, 2.4993603 
1.8628938e+2, 7.871247e+1, 138103.8, -219680.8, -8512.325, -0.009594068, 0.0035857677, 138306.2, 138306.2, 0.0, 2.5005453, 2.4993603 
1.8628938e+2, 8.1211907e+1, 178025.28, -135473.69, -5516.159, -0.009226372, 0.0042657186, 178122.31, 178122.31, 0.0, 2.500544, 2.4995055 
1.862894e+2, 8.371143e+1, 183050.84, -129645.48, -2581.2922, -0.009543504, 0.004828234, 183072.14, 183072.14, 0.0, 2.5005488, 2.4995131 
1.8628941e+2, 8.621094e+1, 185942.13, -128242.19, -1828.8644, -0.00985574, 0.0053838594, 185952.77, 185952.77, 0.0, 2.5005538, 2.4995131 
1.8628941e+2, 8.8710463e+1, 188830.14, -126840.45, -1076.4976, -0.010165913, 0.005940056, 188833.81, 188833.81, 0.0, 2.5005589, 2.4995131 
1.8628944e+2, 9.121007e+1, 228090.22, -42996.93, -5916.4893, -0.007428313, 0.008202393, 228219.28, 228219.28, 0.0, 2.5005565, 2.4996583 
1.8628947e+2, 9.370975e+1, 223750.44, -40925.1, -3345.7, -0.0029968258, 0.009890433, 223792.73, 223792.73, 0.0, 2.5005445, 2.4996676 
1.8628952e+2, 9.6209425e+1, 216789.08, -44275.598, -3307.4028, 0.0014282145, 0.011550074, 216830.97, 216830.97, 0.0, 2.5005324, 2.4996676 
1.8628956e+2, 9.8709106e+1, 209820.73, -47629.457, -3268.3533, 0.00585867, 0.013198771, 209862.22, 209862.22, 0.0, 2.5005205, 2.4996676 
1.8879e+2, 1.2491427e+0, -159713.0, -849286.94, 966.77576, -0.0070910663, 0.00046621283, -159711.64, -159711.64, 0.0, 2.500557, 2.4982743 
1.8879e+2, 3.747428e+0, -157298.44, -848403.75, 366.34244, -0.008211764, 0.0013996931, -157298.23, -157298.23, 0.0, 2.5005615, 2.4982738 
1.8879e+2, 6.245714e+0, -154758.42, -847186.44, -196.25813, -0.009338998, 0.0023345803, -154758.38, -154758.38, 0.0, 2.5005658, 2.4982738 
1.8879e+2, 8.7439984e+0, -152264.47, -845991.3, -756.9766, -0.01047277, 0.0032708743, -152263.66, -152263.66, 0.0, 2.50057, 2.4982738 
1.8878998e+2, 1.1242356e+1, -108543.164, -754988.94, -5585.3384, -0.0113480305, 0.0036361555, -108494.914, -108494.914, 0.0, 2.5005698, 2.4984298 
1.8878995e+2, 1.3740782e+1, -111124.26, -755769.2, -6068.752, -0.01188659, 0.0029883983, -111067.13, -111067.13, 0.0, 2.500565, 2.498431 
1.8878992e+2, 1.6239208e+1, -114042.22, -757187.7, -6341.655, -0.0124334255, 0.0023413454, -113979.695, -113979.695, 0.0, 2.50056, 2.498431 
1.8878989e+2, 1.8737635e+1, -116998.555, -758624.7, -6612.755, -0.012988637, 0.0016955246, -116930.41, -116930.41, 0.0, 2.500555, 2.498431 
1.8878989e+2, 2.1236141e+1, -73697.03, -669193.56, -2822.5095, -0.0132284295, 0.0014526432, -73683.65, -73683.65, 0.0, 2.5005555, 2.498584 
1.8878989e+2, 2.3734725e+1, -69696.64, -666493.75, -3473.3333, -0.013365473, 0.0010377612, -69676.43, -69676.43, 0.0, 2.5005615, 2.4985857 
1.8878989e+2, 2.6233307e+1, -66238.25, -664844.3, -3893.8472, -0.013507694, 0.00062366715, -66212.93, -66212.93, 0.0, 2.5005674, 2.4985857 
1.8878989e+2, 2.873189e+1, -62826.855, -663217.56, -4312.101, -0.013654515, 0.00021177376, -62795.887, -62795.887, 0.0, 2.5005734, 2.4985857 
1.8878989e+2, 3.1230548e+1, -23407.998, -581119.0, -6455.1475, -0.013706855, 0.00041182153, -23333.295, -23333.295, 0.0, 2.5005732, 2.4987266 
1.8878987e+2, 3.372928e+1, -26693.994, -581622.9, -7027.4106, -0.013620816, 0.00033120596, -26605.016, -26605.016, 0.0, 2.5005665, 2.498729 
1.8878987e+2, 3.6228007e+1, -30703.025, -583567.94, -7477.5684, -0.013538324, 0.00024840675, -30601.908, -30601.908, 0.0, 2.5005596, 2.498729 
1.8878986e+2, 3.8726738e+1, -34749.313, -585531.0, -7929.266, -0.013459513, 0.00016659973, -34635.184, -34635.184, 0.0, 2.5005527, 2.498729 
1.8878987e+2, 4.1225556e+1, 8966.501, -494949.28, -3331.3105, -0.013748404, 0.001479048, 8988.522, 8988.522, 0.0, 2.500553, 2.4988842 
1.8878987e+2, 4.372446e+1, 14161.9, -491031.06, -3206.7747, -0.014824133, 0.0031681433, 14182.255, 14182.255, 0.0, 2.5005603, 2.4988873 
1.8878989e+2, 4.6223366e+1, 18410.404, -488996.53, -3202.148, -0.015909707, 0.004853197, 18430.611, 18430.611, 0.0, 2.5005674, 2.4988873 
1.887899e+2, 4.872227e+1, 22607.035, -486987.0, -3201.8232, -0.017003378, 0.0065388894, 22627.152, 22627.152, 0.0, 2.5005748, 2.4988873 
1.8878992e+2, 5.1221234e+1, 65063.063, -398534.97, -8523.593, -0.01676284, 0.006462224, 65219.723, 65219.723, 0.0, 2.5005746, 2.4990392 
1.8878992e+2, 5.372025e+1, 60990.527, -398737.0, -8399.513, -0.015137638, 0.003407568, 61143.94, 61143.94, 0.0, 2.5005655, 2.4990432 
1.8878993e+2, 5.621926e+1, 55764.98, -401269.94, -8615.564, -0.013513959, 0.0003506943, 55927.336, 55927.336, 0.0, 2.5005567, 2.499043 
1.8878993e+2, 5.8718276e+1, 50502.0, -403820.88, -8832.482, -0.011892035, -0.0027021542, 50673.65, 50673.65, 0.0, 2.5005476, 2.499043 
1.8878993e+2, 6.12174e+1, 94334.6, -312098.84, -5136.7266, -0.0117059415, -0.0026981514, 94399.51, 94399.51, 0.0, 2.500547, 2.4992008 
1.8878995e+2, 6.371662e+1, 100012.78, -306977.75, -3640.3232, -0.013275652, -0.0008395412, 100045.336, 100045.336, 0.0, 2.500554, 2.499206 
1.8878995e+2, 6.621584e+1, 104141.46, -304990.94, -3093.0828, -0.014850622, 0.0010114845, 104164.84, 104164.84, 0.0, 2.5005612, 2.499206 
1.8878995e+2, 6.871507e+1, 108219.01, -303028.75, -2551.421, -0.016429415, 0.0028625345, 108234.836, 108234.836, 0.0, 2.5005682, 2.499206 
1.8878995e+2, 7.1214354e+1, 149385.88, -217776.06, -10606.908, -0.015706107, 0.004123277, 149692.05, 149692.05, 0.0, 2.5005686, 2.4993525 
1.8878995e+2, 7.371371e+1, 146668.17, -216183.28, -9356.141, -0.012887096, 0.0032250807, 146909.27, 146909.27, 0.0, 2.5005608, 2.499359 
1.8878996e+2, 7.6213056e+1, 142065.42, -218403.2, -9532.85, -0.010073645, 0.0023159774, 142317.34, 142317.34, 0.0, 2.500553, 2.499359 
1.8878996e+2, 7.871241e+1, 137402.13, -220652.28, -9712.124, -0.007263983, 0.0014062375, 137665.36, 137665.36, 0.0, 2.5005448, 2.499359 
1.8878995e+2, 8.121185e+1, 178963.98, -132981.55, -4721.91, -0.007059836, 0.0017030049, 179035.44, 179035.44, 0.0, 2.5005434, 2.49951 
1.8878995e+2, 8.371136e+1, 183888.22, -126988.74, -1725.7451, -0.009196941, 0.002167102, 183897.8, 183897.8, 0.0, 2.500548, 2.4995182 
1.8878995e+2, 8.621088e+1, 186472.33, -125731.39, -933.43243, -0.011332908, 0.0026234754, 186475.13, 186475.13, 0.0, 2.5005524, 2.4995182 
1.8878995e+2, 8.871041e+1, 188980.5, -124510.625, -146.45578, -0.013470367, 0.0030794248, 188980.56, 188980.56, 0.0, 2.5005567, 2.4995182 
1.8878996e+2, 9.121002e+1, 226794.28, -43652.707, -7379.521, -0.010475072, 0.005829014, 226995.48, 226995.48, 0.0, 2.500554, 2.4996583 
1.8879001e+2, 9.370971e+1, 222741.72, -41200.527, -4724.27, -0.004085188, 0.008431907, 222826.25, 222826.25, 0.0, 2.5005424, 2.4996681 
1.8879007e+2, 9.6209407e+1, 215657.58, -44609.938, -4529.762, 0.0022860256, 0.0110056065, 215736.39, 215736.39, 0.0, 2.5005302, 2.4996681 
1.8879011e+2, 9.870909e+1, 208308.67, -48146.844, -4332.9365, 0.008653808, 0.013568974, 208381.86, 208381.86, 0.0, 2.5005176, 2.4996681 
1.9129059e+2, 1.2491413e+0, -148862.39, -844890.4, 1107.7388, -0.0054561943, 0.00042000032, -148860.63, -148860.63, 0.0, 2.5005765, 2.4982724 
1.9129057e+2, 3.747424e+0, -152695.1, -847018.56, 1079.5454, -0.006730446, 0.0012599573, -152693.42, -152693.42, 0.0, 2.5005703, 2.498272 
1.9129057e+2, 6.2457067e+0, -156355.55, -848787.1, 1087.5479, -0.007996344, 0.0020998567, -156353.83, -156353.83, 0.0, 2.5005639, 2.498272 
1.9129057e+2, 8.743989e+0, -160017.05, -850556.25, 1095.437, -0.009253888, 0.0029396988, -160015.31, -160015.31, 0.0, 2.5005577, 2.498272 
1.9129056e+2, 1.1242345e+1, -116208.516, -759606.94, -3173.7607, -0.010195268, 0.003368173, -116192.86, -116192.86, 0.0, 2.5005577, 2.4984279 
1.9129053e+2, 1.3740772e+1, -112293.26, -757260.3, -3749.3118, -0.010716527, 0.002944081, -112271.46, -112271.46, 0.0, 2.500564, 2.4984288 
1.912905e+2, 1.6239199e+1, -108672.836, -755524.06, -4095.7773, -0.011226914, 0.002516735, -108646.9, -108646.9, 0.0, 2.5005703, 2.4984288 
1.9129047e+2, 1.8737625e+1, -105053.54, -753788.4, -4442.2905, -0.011726558, 0.0020866604, -105023.12, -105023.12, 0.0, 2.5005765, 2.4984288 
1.9129047e+2, 2.1236128e+1, -61349.758, -664002.8, -483.85892, -0.012038546, 0.0017365667, -61349.37, -61349.37, 0.0, 2.5005774, 2.4985824 
1.9129047e+2, 2.3734705e+1, -63397.316, -664231.94, -823.2519, -0.012397079, 0.00089603354, -63396.188, -63396.188, 0.0, 2.5005732, 2.498584 
1.9129047e+2, 2.6233283e+1, -65930.76, -665467.5, -916.4295, -0.012748309, 0.000051870305, -65929.36, -65929.36, 0.0, 2.5005689, 2.498584 
1.9129047e+2, 2.873186e+1, -68465.69, -666703.75, -1009.7068, -0.01309162, -0.00079452555, -68463.984, -68463.984, 0.0, 2.5005646, 2.4985838 
1.9129045e+2, 3.1230515e+1, -28836.098, -584341.3, -3016.7776, -0.013186349, -0.00070134585, -28819.715, -28819.715, 0.0, 2.5005646, 2.4987252 
1.9129045e+2, 3.3729243e+1, -25923.111, -581885.5, -3168.2334, -0.01293333, -0.00055603625, -25905.057, -25905.057, 0.0, 2.5005684, 2.4987276 
1.9129044e+2, 3.6227974e+1, -23682.758, -580823.06, -3153.8418, -0.012673596, -0.00041644028, -23664.904, -23664.904, 0.0, 2.5005722, 2.4987276 
1.9129044e+2, 3.8726708e+1, -21443.867, -579761.4, -3139.4624, -0.012407478, -0.00027938033, -21426.215, -21426.215, 0.0, 2.500576, 2.4987276 
1.9129044e+2, 4.122552e+1, 21193.787, -489630.72, 1698.064, -0.012685118, 0.00095987145, 21199.432, 21199.432, 0.0, 2.5005744, 2.498883 
1.9129045e+2, 4.3724424e+1, 17449.555, -490053.72, 1399.3367, -0.013954692, 0.002281779, 17453.412, 17453.412, 0.0, 2.5005665, 2.4988859 
1.9129047e+2, 4.6223325e+1, 12822.92, -492303.5, 1009.50104, -0.015213691, 0.0035990293, 12824.9375, 12824.9375, 0.0, 2.5005586, 2.4988859 
1.9129047e+2, 4.8722225e+1, 8193.859, -494554.44, 619.8524, -0.01646021, 0.0049163136, 8194.624, 8194.624, 0.0, 2.5005507, 2.4988859 
1.9129048e+2, 5.1221186e+1, 51244.203, -404908.16, -4606.173, -0.016221846, 0.00481167, 51290.71, 51290.71, 0.0, 2.5005505, 2.49904 
1.9129048e+2, 5.3720206e+1, 56388.66, -400675.63, -3927.8525, -0.014431699, 0.0020465849, 56422.414, 56422.414, 0.0, 2.5005574, 2.4990437 
1.912905e+2, 5.621922e+1, 60419.465, -398750.4, -3531.9214, -0.012636209, -0.0007282433, 60446.633, 60446.633, 0.0, 2.5005643, 2.4990437 
1.912905e+2, 5.8718234e+1, 64448.4, -396826.06, -3136.087, -0.010835744, -0.003506424, 64469.72, 64469.72, 0.0, 2.5005713, 2.4990437 
1.912905e+2, 6.1217356e+1, 108072.375, -304929.56, 412.35477, -0.010729274, -0.0034860203, 108072.79, 108072.79, 0.0, 2.5005698, 2.499202 
1.912905e+2, 6.371658e+1, 103137.625, -304912.88, 1157.2834, -0.012678243, -0.0018976806, 103140.91, 103140.91, 0.0, 2.5005589, 2.4992075 
1.912905e+2, 6.621581e+1, 96689.61, -308029.47, 1003.1882, -0.014617106, -0.0003175457, 96692.09, 96692.09, 0.0, 2.500548, 2.4992073 
1.912905e+2, 6.8715024e+1, 90238.84, -311147.38, 849.1504, -0.016544148, 0.0012621788, 90240.64, 90240.64, 0.0, 2.5005367, 2.4992073 
1.912905e+2, 7.121432e+1, 130064.06, -227254.0, -7028.3267, -0.015809888, 0.0023931663, 130202.26, 130202.26, 0.0, 2.5005355, 2.499352 
1.9129051e+2, 7.3713666e+1, 136657.38, -221117.64, -5557.4644, -0.012667152, 0.0014803187, 136743.67, 136743.67, 0.0, 2.5005436, 2.4993587 
1.9129051e+2, 7.6213014e+1, 141386.22, -218845.02, -5476.863, -0.009510292, 0.00056114944, 141469.47, 141469.47, 0.0, 2.5005517, 2.4993587 
1.9129053e+2, 7.871236e+1, 146111.38, -216574.16, -5396.566, -0.0063371626, -0.0003538337, 146191.66, 146191.66, 0.0, 2.5005598, 2.4993587 
1.912905e+2, 8.12118e+1, 188981.63, -126491.52, -1011.7337, -0.006278749, -0.00006726721, 188984.88, 188984.88, 0.0, 2.5005589, 2.4995139 
1.912905e+2, 8.3711326e+1, 184255.66, -124970.23, 1550.5903, -0.009122615, 0.00037161497, 184263.44, 184263.44, 0.0, 2.5005467, 2.4995222 
1.9129048e+2, 8.621085e+1, 177141.63, -128392.2, 1964.6831, -0.011951801, 0.00080231036, 177154.25, 177154.25, 0.0, 2.5005343, 2.4995222 
1.9129047e+2, 8.871038e+1, 170022.75, -131816.52, 2379.0117, -0.0147687, 0.0012321564, 170041.5, 170041.5, 0.0, 2.5005221, 2.4995222 
1.9129048e+2, 9.120999e+1, 207575.11, -52157.902, -4481.108, -0.011778006, 0.0040710345, 207652.39, 207652.39, 0.0, 2.5005205, 2.49966 
1.9129054e+2, 9.3709683e+1, 215241.97, -43797.957, -1599.2917, -0.0049733575, 0.006718722, 215251.83, 215251.83, 0.0, 2.5005286, 2.4996703 
1.9129059e+2, 9.6209383e+1, 219970.97, -41515.137, -1160.9482, 0.0018734767, 0.00933993, 219976.13, 219976.13, 0.0, 2.5005367, 2.4996703 
1.9129065e+2, 9.8709077e+1, 224686.83, -39238.645, -722.399, 0.008780079, 0.011954827, 224688.8, 224688.8, 0.0, 2.5005448, 2.4996703 
1.9379117e+2, 1.24913946e+0, -148850.8, -844866.44, 156.86105, -0.0041820407, 0.00022584814, -148850.77, -148850.77, 0.0, 2.5005765, 2.4982727 
1.9379117e+2, 3.7474182e+0, -152684.4, -846996.8, 128.47693, -0.0053968844, 0.0006774743, -152684.39, -152684.39, 0.0, 2.5005703, 2.498272 
1.9379115e+2, 6.245697e+0, -156344.48, -848764.94, 138.04968, -0.006607978, 0.0011290077, -156344.47, -156344.47, 0.0, 2.5005639, 2.498272 
1.9379114e+2, 8.743976e+0, -160005.63, -850533.56, 147.50911, -0.007815322, 0.0015804481, -160005.6, -160005.6, 0.0, 2.5005577, 2.498272 
1.9379112e+2, 1.1242332e+1, -116841.336, -760923.44, -2223.544, -0.008670949, 0.0022133107, -116833.66, -116833.66, 0.0, 2.5005577, 2.4984255 
1.937911e+2, 1.3740766e+1, -112941.26, -758608.2, -2812.0823, -0.009089153, 0.0026201643, -112929.01, -112929.01, 0.0, 2.500564, 2.4984264 
1.9379109e+2, 1.6239196e+1, -109321.555, -756873.25, -3156.8984, -0.00950032, 0.0030243439, -109306.164, -109306.164, 0.0, 2.5005703, 2.4984264 
1.9379106e+2, 1.873763e+1, -105702.984, -755138.9, -3501.7622, -0.0099045485, 0.0034263376, -105684.1, -105684.1, 0.0, 2.5005765, 2.4984264 
1.9379106e+2, 2.1236132e+1, -61507.645, -664342.5, -1121.6128, -0.0104650855, 0.0031051384, -61505.555, -61505.555, 0.0, 2.5005774, 2.4985816 
1.9379105e+2, 2.37347e+1, -63561.395, -664583.94, -1483.7396, -0.011357471, 0.0014574556, -63557.73, -63557.73, 0.0, 2.5005732, 2.4985833 
1.9379103e+2, 2.6233268e+1, -66095.15, -665819.56, -1575.1069, -0.012246751, -0.00019323404, -66091.01, -66091.01, 0.0, 2.5005689, 2.4985833 
1.9379103e+2, 2.8731838e+1, -68630.38, -667055.94, -1666.5739, -0.01313247, -0.0018454642, -68625.74, -68625.74, 0.0, 2.5005646, 2.4985833 
1.9379102e+2, 3.1230488e+1, -28778.016, -584227.56, -2403.9363, -0.013344633, -0.0020921316, -28767.611, -28767.611, 0.0, 2.5005646, 2.4987254 
1.9379102e+2, 3.3729222e+1, -25888.586, -581820.8, -2588.475, -0.012839167, -0.0017733659, -25876.535, -25876.535, 0.0, 2.5005684, 2.4987276 
1.9379102e+2, 3.6227953e+1, -23648.027, -580758.2, -2572.5488, -0.012331075, -0.0014593306, -23636.148, -23636.148, 0.0, 2.5005722, 2.4987276 
1.9379102e+2, 3.8726684e+1, -21408.932, -579696.2, -2556.635, -0.011820458, -0.0011469844, -21397.225, -21397.225, 0.0, 2.500576, 2.4987276 
1.9379102e+2, 4.1225502e+1, 20515.818, -491058.75, 552.1581, -0.0119473385, -0.000110053625, 20516.416, 20516.416, 0.0, 2.5005744, 2.4988804 
1.9379103e+2, 4.372439e+1, 16742.426, -491542.38, 200.46611, -0.013041804, 0.00065790425, 16742.504, 16742.504, 0.0, 2.5005665, 2.4988835 
1.9379103e+2, 4.6223286e+1, 12116.731, -493790.13, -187.26317, -0.014130341, 0.0014226736, 12116.801, 12116.801, 0.0, 2.5005586, 2.4988835 
1.9379103e+2, 4.8722175e+1, 7488.611, -496039.03, -574.8054, -0.01521155, 0.0021888223, 7489.267, 7489.267, 0.0, 2.5005507, 2.4988832 
1.9379105e+2, 5.1221144e+1, 51980.832, -403407.22, -3526.3884, -0.014970403, 0.0024046153, 52008.137, 52008.137, 0.0, 2.5005505, 2.4990423 
1.9379106e+2, 5.372017e+1, 57150.637, -399123.5, -2882.6504, -0.013394131, 0.0008015965, 57168.848, 57168.848, 0.0, 2.5005574, 2.4990463 
1.9379106e+2, 5.62192e+1, 61183.28, -397195.8, -2485.018, -0.011816724, -0.00081015145, 61196.754, 61196.754, 0.0, 2.5005643, 2.4990463 
1.9379108e+2, 5.8718234e+1, 65214.055, -395269.0, -2087.482, -0.010238258, -0.0024239495, 65223.516, 65223.516, 0.0, 2.5005713, 2.4990463 
1.9379108e+2, 6.1217356e+1, 107851.055, -305449.2, -1170.4065, -0.010122076, -0.0024839612, 107854.37, 107854.37, 0.0, 2.50057, 2.499201 
1.9379108e+2, 6.3716567e+1, 102903.78, -305460.34, -511.00317, -0.011758323, -0.0022662648, 102904.42, 102904.42, 0.0, 2.5005589, 2.4992065 
1.9379106e+2, 6.621578e+1, 96457.125, -308575.6, -663.00867, -0.01338957, -0.0020561526, 96458.21, 96458.21, 0.0, 2.500548, 2.4992063 
1.9379106e+2, 6.871498e+1, 90007.72, -311692.2, -814.9567, -0.015014454, -0.0018457226, 90009.375, 90009.375, 0.0, 2.500537, 2.4992063 
1.9379105e+2, 7.1214265e+1, 130251.53, -226970.4, -5790.8496, -0.014400737, -0.0011172567, 130345.38, 130345.38, 0.0, 2.5005357, 2.4993525 
1.9379106e+2, 7.3713624e+1, 136894.78, -220733.63, -4329.696, -0.011876543, -0.0014227894, 136947.19, 136947.19, 0.0, 2.5005438, 2.4993591 
1.9379106e+2, 7.6212984e+1, 141626.7, -218457.34, -4246.361, -0.009346044, -0.0017353335, 141676.77, 141676.77, 0.0, 2.500552, 2.4993591 
1.9379108e+2, 7.871233e+1, 146354.94, -216182.83, -4163.3306, -0.006806692, -0.002044491, 146402.75, 146402.75, 0.0, 2.50056, 2.4993591 
1.9379106e+2, 8.1211776e+1, 189781.08, -124987.08, -2745.9307, -0.0068744747, -0.0014005703, 189805.03, 189805.03, 0.0, 2.500559, 2.4995162 
1.9379103e+2, 8.37113e+1, 185154.19, -123259.48, -290.81512, -0.009362915, -0.00088780903, 185154.47, 185154.47, 0.0, 2.5005467, 2.499525 
1.9379102e+2, 8.621084e+1, 178039.08, -126682.72, 125.637886, -0.011845235, -0.00038361736, 178039.13, 178039.13, 0.0, 2.5005345, 2.499525 
1.93791e+2, 8.871037e+1, 170919.13, -130108.29, 542.3268, -0.014323494, 0.00011957244, 170920.11, 170920.11, 0.0, 2.5005224, 2.499525 
1.9379102e+2, 9.1209984e+1, 208496.75, -50511.43, -3269.6262, -0.011566257, 0.0027124484, 208538.02, 208538.02, 0.0, 2.5005207, 2.4996626 
1.9379106e+2, 9.370967e+1, 216332.73, -41800.387, -359.1697, -0.0057382383, 0.0046406486, 216333.23, 216333.23, 0.0, 2.5005288, 2.4996736 
1.937911e+2, 9.6209365e+1, 221060.94, -39517.715, 88.12545, 0.00010758798, 0.0065397574, 221060.97, 221060.97, 0.0, 2.500537, 2.4996736 
1.9379117e+2, 9.870905e+1, 225775.98, -37241.38, 535.6263, 0.005989844, 0.008431072, 225777.08, 225777.08, 0.0, 2.500545, 2.4996736 
1.9629176e+2, 1.2491375e+0, -148839.48, -844843.1, -793.49945, -0.0029080466, 0.0000311715, -148838.58, -148838.58, 0.0, 2.5005765, 2.4982727 
1.9629174e+2, 3.7474126e+0, -152674.63, -846976.94, -822.5579, -0.0040638023, 0.00009341793, -152673.66, -152673.66, 0.0, 2.5005703, 2.498272 
1.9629173e+2, 6.2456876e+0, -156334.33, -848744.56, -811.41486, -0.0052204113, 0.00015553621, -156333.38, -156333.38, 0.0, 2.5005639, 2.498272 
1.9629171e+2, 8.743962e+0, -159995.1, -850512.75, -800.38513, -0.0063778735, 0.00021752623, -159994.17, -159994.17, 0.0, 2.5005577, 2.498272 
1.962917e+2, 1.12423204e+1, -117479.06, -762250.2, -1273.2743, -0.0071459985, 0.0010584607, -117476.555, -117476.555, 0.0, 2.5005577, 2.4984233 
1.9629169e+2, 1.3740759e+1, -113590.1, -759957.75, -1874.7816, -0.007460833, 0.0022941588, -113584.664, -113584.664, 0.0, 2.500564, 2.4984243 
1.9629167e+2, 1.6239196e+1, -109971.125, -758224.2, -2217.9482, -0.007772471, 0.00352775, -109963.54, -109963.54, 0.0, 2.5005703, 2.4984243 
1.9629166e+2, 1.8737637e+1, -106353.27, -756491.1, -2561.1624, -0.008080974, 0.0047596986, -106343.19, -106343.19, 0.0, 2.5005765, 2.498424 
1.9629164e+2, 2.1236138e+1, -61674.145, -664700.06, -1756.0883, -0.008895175, 0.0044721975, -61669.03, -61669.03, 0.0, 2.5005774, 2.498581 
1.9629163e+2, 2.3734695e+1, -63726.19, -664937.5, -2144.2644, -0.010322, 0.0020152559, -63718.543, -63718.543, 0.0, 2.5005732, 2.4985828 
1.9629161e+2, 2.6233256e+1, -66260.25, -666173.2, -2233.8213, -0.01174989, -0.00044409858, -66251.94, -66251.94, 0.0, 2.5005689, 2.4985826 
1.962916e+2, 2.8731814e+1, -68795.8, -667409.6, -2323.478, -0.013178574, -0.0029043015, -68786.78, -68786.78, 0.0, 2.5005646, 2.4985826 
1.9629158e+2, 3.1230465e+1, -28727.262, -584129.06, -1791.5334, -0.013501657, -0.0034835646, -28721.484, -28721.484, 0.0, 2.5005646, 2.4987257 
1.962916e+2, 3.37292e+1, -25854.68, -581757.44, -2008.867, -0.012745188, -0.0029933918, -25847.42, -25847.42, 0.0, 2.5005684, 2.4987278 
1.962916e+2, 3.6227933e+1, -23613.916, -580694.56, -1991.4063, -0.011990221, -0.0025070282, -23606.797, -23606.797, 0.0, 2.5005722, 2.4987278 
1.962916e+2, 3.8726667e+1, -21374.615, -579632.3, -1973.9578, -0.011236591, -0.0020215067, -21367.635, -21367.635, 0.0, 2.500576, 2.4987276 
1.9629161e+2, 4.1225478e+1, 19829.777, -492503.6, -590.9881, -0.011212554, -0.0011815241, 19830.459, 19830.459, 0.0, 2.5005746, 2.498878 
1.962916e+2, 4.372436e+1, 16034.711, -493032.3, -998.8263, -0.012135135, -0.00096971524, 16036.671, 16036.671, 0.0, 2.5005665, 2.4988809 
1.962916e+2, 4.6223247e+1, 11409.956, -495278.0, -1384.4492, -0.013056429, -0.0007596881, 11413.739, 11413.739, 0.0, 2.5005586, 2.4988809 
1.962916e+2, 4.872213e+1, 6782.7754, -497524.88, -1769.885, -0.013975549, -0.0005469362, 6788.987, 6788.987, 0.0, 2.5005507, 2.4988809 
1.9629161e+2, 5.12211e+1, 52705.496, -401931.13, -2446.1018, -0.013715277, -0.000002208637, 52718.656, 52718.656, 0.0, 2.5005505, 2.499045 
1.9629163e+2, 5.372014e+1, 57911.984, -397572.7, -1837.6237, -0.012356438, -0.00044578203, 57919.4, 57919.4, 0.0, 2.5005574, 2.499049 
1.9629164e+2, 5.621919e+1, 61946.473, -395642.53, -1438.2898, -0.011000853, -0.00089717977, 61950.992, 61950.992, 0.0, 2.5005643, 2.499049 
1.9629166e+2, 5.8718234e+1, 65979.086, -393713.25, -1039.0524, -0.009648123, -0.0013493259, 65981.43, 65981.43, 0.0, 2.5005713, 2.499049 
1.9629166e+2, 6.1217356e+1, 107621.05, -305986.84, -2749.1833, -0.009516253, -0.0014830051, 107639.32, 107639.32, 0.0, 2.50057, 2.4992 
1.9629164e+2, 6.371655e+1, 102669.4, -306008.94, -2179.544, -0.010842424, -0.0026379891, 102681.02, 102681.02, 0.0, 2.500559, 2.4992054 
1.9629163e+2, 6.621574e+1, 96224.1, -309122.9, -2329.4597, -0.012168783, -0.003800034, 96237.484, 96237.484, 0.0, 2.500548, 2.4992054 
1.9629161e+2, 6.871494e+1, 89776.055, -312238.2, -2479.318, -0.013494235, -0.0049610334, 89791.34, 89791.34, 0.0, 2.500537, 2.4992054 
1.962916e+2, 7.1214217e+1, 130429.53, -226706.52, -4547.2065, -0.012994457, -0.0046270485, 130487.42, 130487.42, 0.0, 2.5005357, 2.4993527 
1.9629161e+2, 7.371358e+1, 137131.58, -220350.88, -3102.1118, -0.011091374, -0.0043274066, 137158.5, 137158.5, 0.0, 2.5005438, 2.4993598 
1.9629163e+2, 7.621294e+1, 141866.6, -218070.94, -3016.0432, -0.009189921, -0.0040355944, 141891.86, 141891.86, 0.0, 2.500552, 2.4993598 
1.9629163e+2, 7.871231e+1, 146597.9, -215792.75, -2930.2795, -0.007287034, -0.0037411957, 146621.6, 146621.6, 0.0, 2.50056, 2.4993598 
1.9629161e+2, 8.121175e+1, 190569.75, -123505.03, -4473.94, -0.0074708634, -0.002734587, 190633.47, 190633.47, 0.0, 2.500559, 2.4995186 
1.9629158e+2, 8.371129e+1, 186052.31, -121549.625, -2132.418, -0.009602967, -0.0021494182, 186067.1, 186067.1, 0.0, 2.500547, 2.499528 
1.9629155e+2, 8.6210823e+1, 178936.11, -124974.13, -1713.6047, -0.011737679, -0.0015732968, 178945.77, 178945.77, 0.0, 2.5005348, 2.499528 
1.9629152e+2, 8.8710356e+1, 171815.08, -128400.96, -1294.5555, -0.013876561, -0.0009983298, 171820.66, 171820.66, 0.0, 2.5005224, 2.499528 
1.9629154e+2, 9.1209966e+1, 209404.81, -48893.16, -2035.0249, -0.011387202, 0.00136041, 209420.84, 209420.84, 0.0, 2.500521, 2.4996653 
1.9629158e+2, 9.3709654e+1, 217422.89, -39804.117, 880.815, -0.0065344367, 0.002565937, 217425.9, 217425.9, 0.0, 2.500529, 2.499677 
1.9629163e+2, 9.620934e+1, 222150.28, -37521.6, 1337.0619, -0.0016877225, 0.0037395633, 222157.17, 222157.17, 0.0, 2.5005372, 2.499677 
1.9629169e+2, 9.870903e+1, 226864.53, -35245.42, 1793.5143, 0.003172083, 0.0049039116, 226876.81, 226876.81, 0.0, 2.5005453, 2.499677 
1.9879235e+2, 1.2491356e+0, -149797.48, -845287.7, -1744.1267, -0.0016329879, -0.00016394563, -149793.11, -149793.11, 0.0, 2.5005748, 2.4982727 
1.9879232e+2, 3.7474066e+0, -153524.33, -847373.06, -1776.2903, -0.0027301586, -0.00049196224, -153519.77, -153519.77, 0.0, 2.5005689, 2.498272 
1.9879231e+2, 6.245678e+0, -157095.9, -849097.9, -1765.8463, -0.0038326005, -0.0008201453, -157091.39, -157091.39, 0.0, 2.5005627, 2.498272 
1.9879228e+2, 8.743949e+0, -160691.23, -850834.25, -1755.7118, -0.0049403138, -0.0011484949, -160686.77, -160686.77, 0.0, 2.5005565, 2.498272 
1.9879226e+2, 1.1242308e+1, -118799.266, -763913.44, -323.04608, -0.0056191753, -0.00009593843, -118799.1, -118799.1, 0.0, 2.5005567, 2.498421 
1.9879226e+2, 1.3740753e+1, -114927.24, -761640.25, -919.13367, -0.0058305715, 0.0019660974, -114925.94, -114925.94, 0.0, 2.500563, 2.498422 
1.9879226e+2, 1.6239196e+1, -111343.73, -759924.7, -1240.8898, -0.006042527, 0.0040266113, -111341.35, -111341.35, 0.0, 2.5005689, 2.498422 
1.9879225e+2, 1.8737642e+1, -107786.19, -758221.6, -1561.3019, -0.006255066, 0.0060860557, -107782.44, -107782.44, 0.0, 2.500575, 2.498422 
1.9879223e+2, 2.1236141e+1, -62612.0, -665443.1, -2317.721, -0.0073280074, 0.0058370694, -62603.09, -62603.09, 0.0, 2.5005763, 2.4985805 
1.987922e+2, 2.3734692e+1, -64553.74, -665611.6, -2739.8745, -0.0092896735, 0.0025691083, -64541.25, -64541.25, 0.0, 2.5005722, 2.4985821 
1.9879219e+2, 2.6233244e+1, -67007.47, -666808.7, -2834.0242, -0.011256399, -0.0007007196, -66994.08, -66994.08, 0.0, 2.500568, 2.4985821 
1.9879216e+2, 2.8731793e+1, -69482.75, -668016.06, -2930.0618, -0.013228131, -0.003970724, -69468.41, -69468.41, 0.0, 2.5005636, 2.4985821 
1.9879214e+2, 3.123044e+1, -29157.818, -584274.7, -1140.3462, -0.01365558, -0.0048751966, -29155.477, -29155.477, 0.0, 2.5005636, 2.4987257 
1.9879216e+2, 3.3729175e+1, -26264.559, -581909.6, -1405.219, -0.012649958, -0.0042157024, -26261.006, -26261.006, 0.0, 2.5005677, 2.4987278 
1.9879217e+2, 3.6227912e+1, -24017.104, -580843.4, -1404.1948, -0.011649871, -0.0035591696, -24013.563, -24013.563, 0.0, 2.5005715, 2.4987278 
1.9879219e+2, 3.8726646e+1, -21795.44, -579789.6, -1406.1199, -0.010654837, -0.002902643, -21791.895, -21791.895, 0.0, 2.5005753, 2.4987278 
1.9879219e+2, 4.1225457e+1, 18732.238, -494160.4, -1773.5531, -0.010479754, -0.0022539848, 18738.371, 18738.371, 0.0, 2.5005739, 2.4988754 
1.9879217e+2, 4.372433e+1, 15037.896, -494663.38, -2275.0798, -0.01123365, -0.0026000324, 15048.052, 15048.052, 0.0, 2.500566, 2.4988782 
1.9879217e+2, 4.6223208e+1, 10497.996, -496866.72, -2695.058, -0.011990791, -0.002946637, 10512.312, 10512.312, 0.0, 2.5005584, 2.4988782 
1.9879216e+2, 4.8722085e+1, 5924.6797, -499086.16, -3116.9502, -0.012750804, -0.0032892914, 5943.9165, 5943.9165, 0.0, 2.5005505, 2.4988782 
1.9879217e+2, 5.1221055e+1, 53260.836, -400556.9, -1555.507, -0.012455098, -0.0024070903, 53266.168, 53266.168, 0.0, 2.5005503, 2.4990473 
1.9879219e+2, 5.3720117e+1, 58455.3, -396129.25, -1022.95215, -0.011317502, -0.0016939057, 58457.605, 58457.605, 0.0, 2.5005572, 2.4990516 
1.9879222e+2, 5.621917e+1, 62405.215, -394238.34, -665.564, -0.01018757, -0.0009877586, 62406.184, 62406.184, 0.0, 2.5005639, 2.4990516 
1.9879223e+2, 5.8718234e+1, 66326.875, -392361.03, -311.9309, -0.009064249, -0.00028106736, 66327.086, 66327.086, 0.0, 2.5005708, 2.4990516 
1.9879223e+2, 6.1217356e+1, 106966.625, -306742.94, -4675.1504, -0.008910759, -0.00048149878, 107019.445, 107019.445, 0.0, 2.5005693, 2.4991992 
1.987922e+2, 6.371653e+1, 102133.9, -306703.63, -4210.291, -0.009929664, -0.0030107864, 102177.26, 102177.26, 0.0, 2.5005586, 2.4992044 
1.9879219e+2, 6.621571e+1, 95772.83, -309776.38, -4370.0723, -0.010953881, -0.005546742, 95819.914, 95819.914, 0.0, 2.5005476, 2.4992044 
1.9879216e+2, 6.87149e+1, 89376.7, -312866.03, -4530.9736, -0.0119825015, -0.008080957, 89427.734, 89427.734, 0.0, 2.5005367, 2.4992044 
1.9879214e+2, 7.1214175e+1, 130403.984, -226554.58, -3677.641, -0.011590154, -0.008133232, 130441.875, 130441.875, 0.0, 2.5005355, 2.4993532 
1.9879216e+2, 7.371354e+1, 137048.56, -220122.14, -2230.1091, -0.010311002, -0.007230533, 137062.48, 137062.48, 0.0, 2.5005434, 2.4993603 
1.9879217e+2, 7.6212907e+1, 141606.86, -217925.31, -2122.0415, -0.009041279, -0.0063366345, 141619.38, 141619.38, 0.0, 2.5005512, 2.4993603 
1.9879219e+2, 7.871228e+1, 146106.84, -215756.56, -2019.8662, -0.00777728, -0.0054409713, 146118.13, 146118.13, 0.0, 2.500559, 2.4993603 
1.9879216e+2, 8.1211734e+1, 190539.73, -122433.18, -6505.0566, -0.008067081, -0.004066464, 190674.88, 190674.88, 0.0, 2.500558, 2.4995213 
1.9879213e+2, 8.3711267e+1, 186243.97, -120179.38, -4268.087, -0.009842239, -0.0034105142, 186303.4, 186303.4, 0.0, 2.500546, 2.4995308 
1.9879209e+2, 8.6210805e+1, 179177.13, -123580.875, -3831.183, -0.011628472, -0.002764124, 179225.6, 179225.6, 0.0, 2.5005338, 2.4995308 
1.9879206e+2, 8.8710344e+1, 172053.95, -127009.5, -3393.7246, -0.013426667, -0.0021189789, 172092.45, 172092.45, 0.0, 2.5005214, 2.4995308 
1.9879206e+2, 9.1209954e+1, 209529.52, -47670.227, -981.48413, -0.011239658, 0.000017445425, 209533.25, 209533.25, 0.0, 2.50052, 2.499668 
1.987921e+2, 9.370964e+1, 217462.67, -38311.188, 2016.2632, -0.007361346, 0.00049713126, 217478.56, 217478.56, 0.0, 2.5005276, 2.4996803 
1.9879214e+2, 9.620932e+1, 221790.78, -36220.836, 2578.3289, -0.0035117562, 0.00094205124, 221816.55, 221816.55, 0.0, 2.500535, 2.4996803 
1.9879219e+2, 9.8709005e+1, 225987.23, -34193.89, 3137.6792, 0.00032825425, 0.0013763508, 226025.06, 226025.06, 0.0, 2.5005422, 2.4996803 
2.0129293e+2, 1.2491361e+0, -155811.05, -848039.5, -2003.9167, -0.0007259734, -0.0001301429, -155805.25, -155805.25, 0.0, 2.5005643, 2.498273 
2.012929e+2, 3.7474084e+0, -154874.42, -847881.1, -1955.164, -0.0016422617, -0.0003907553, -154868.9, -154868.9, 0.0, 2.5005662, 2.4982724 
2.0129289e+2, 6.2456805e+0, -153756.89, -847345.9, -1860.6569, -0.0025523421, -0.0006518025, -153751.89, -153751.89, 0.0, 2.5005682, 2.4982724 
2.0129286e+2, 8.7439525e+0, -152639.97, -846811.0, -1766.2306, -0.0034562147, -0.00091328466, -152635.48, -152635.48, 0.0, 2.50057, 2.4982724 
2.0129284e+2, 1.1242311e+1, -110284.875, -759453.44, 887.82263, -0.004101373, 0.000013272316, -110283.664, -110283.664, 0.0, 2.5005708, 2.4984217 
2.0129284e+2, 1.3740753e+1, -110442.66, -759128.2, 1156.6619, -0.004473868, 0.0017614008, -110440.59, -110440.59, 0.0, 2.50057, 2.4984226 
2.0129284e+2, 1.6239195e+1, -110858.27, -759337.44, 1712.4778, -0.0048421756, 0.0035090551, -110853.75, -110853.75, 0.0, 2.5005693, 2.4984226 
2.0129283e+2, 1.8737638e+1, -111274.5, -759546.94, 2267.9644, -0.0052062953, 0.005256682, -111266.56, -111266.56, 0.0, 2.5005686, 2.4984226 
2.0129283e+2, 2.1236138e+1, -67200.805, -667721.4, 1330.7227, -0.0063165682, 0.004951059, -67197.86, -67197.86, 0.0, 2.5005684, 2.4985802 
2.012928e+2, 2.373469e+1, -66994.54, -666872.25, 993.0745, -0.00812319, 0.0018758192, -66992.9, -66992.9, 0.0, 2.500568, 2.498582 
2.0129277e+2, 2.623324e+1, -67272.28, -667025.5, 1025.06, -0.009925542, -0.0012029643, -67270.53, -67270.53, 0.0, 2.5005674, 2.498582 
2.0129274e+2, 2.8731796e+1, -67551.04, -667179.3, 1056.7234, -0.0117237605, -0.0042835865, -67549.18, -67549.18, 0.0, 2.5005672, 2.498582 
2.0129272e+2, 3.123044e+1, -26914.62, -583081.9, 3672.985, -0.012195802, -0.0051941727, -26890.363, -26890.363, 0.0, 2.5005674, 2.498726 
2.0129274e+2, 3.3729175e+1, -25912.71, -581654.4, 3437.1414, -0.011510872, -0.004733372, -25891.453, -25891.453, 0.0, 2.5005682, 2.498728 
2.0129275e+2, 3.622791e+1, -25520.81, -581490.06, 3504.7092, -0.010823029, -0.004277718, -25498.719, -25498.719, 0.0, 2.5005689, 2.498728 
2.0129275e+2, 3.8726643e+1, -25130.367, -581326.5, 3571.9634, -0.010131597, -0.0038242661, -25107.428, -25107.428, 0.0, 2.5005696, 2.498728 
2.0129277e+2, 4.1225448e+1, 15970.429, -495674.63, 2567.5256, -0.009970156, -0.0032756263, 15983.3125, 15983.3125, 0.0, 2.5005693, 2.498875 
2.0129275e+2, 4.3724328e+1, 15418.299, -494675.78, 2698.7483, -0.010363113, -0.0036402692, 15432.576, 15432.576, 0.0, 2.500567, 2.4988778 
2.0129274e+2, 4.6223202e+1, 14054.715, -495355.66, 2982.6904, -0.010753025, -0.0040150317, 14072.179, 14072.179, 0.0, 2.5005646, 2.4988778 
2.0129274e+2, 4.8722076e+1, 12689.463, -496036.3, 3266.2966, -0.011139886, -0.0043953145, 12710.434, 12710.434, 0.0, 2.5005624, 2.4988778 
2.0129274e+2, 5.122105e+1, 58790.19, -398128.1, 5875.638, -0.010843992, -0.0035353773, 58865.734, 58865.734, 0.0, 2.50056, 2.4990468 
2.0129275e+2, 5.3720105e+1, 58246.355, -396459.1, 5517.6123, -0.010147189, -0.002837021, 58313.3, 58313.3, 0.0, 2.500557, 2.499051 
2.0129278e+2, 5.6219167e+1, 56476.34, -397330.5, 5034.067, -0.009448908, -0.0021475148, 56532.176, 56532.176, 0.0, 2.500554, 2.499051 
2.012928e+2, 5.871822e+1, 54704.156, -398202.9, 4550.2676, -0.008747763, -0.001459183, 54749.867, 54749.867, 0.0, 2.500551, 2.499051 
2.012928e+2, 6.1217344e+1, 95643.34, -312444.78, -1120.0237, -0.008610464, -0.0016698111, 95646.414, 95646.414, 0.0, 2.5005503, 2.4991987 
2.0129277e+2, 6.3716525e+1, 97427.92, -309182.03, -572.0629, -0.009205098, -0.0042382395, 97428.73, 97428.73, 0.0, 2.5005507, 2.499204 
2.0129274e+2, 6.6215706e+1, 97693.625, -309065.6, -563.03015, -0.009796774, -0.0068168375, 97694.41, 97694.41, 0.0, 2.5005512, 2.499204 
2.0129272e+2, 6.871488e+1, 97957.2, -308950.2, -554.3749, -0.010384748, -0.009396963, 97957.95, 97957.95, 0.0, 2.5005517, 2.499204 
2.0129271e+2, 7.121416e+1, 139250.48, -221737.48, 1537.8527, -0.010070776, -0.009422704, 139257.03, 139257.03, 0.0, 2.50055, 2.4993544 
2.0129271e+2, 7.371353e+1, 138465.78, -218801.53, 3111.292, -0.009455414, -0.008456, 138492.88, 138492.88, 0.0, 2.5005453, 2.4993618 
2.0129272e+2, 7.62129e+1, 135589.69, -220197.81, 3409.6106, -0.008836111, -0.007499731, 135622.36, 135622.36, 0.0, 2.5005403, 2.4993618 
2.0129272e+2, 7.871227e+1, 132710.45, -221595.6, 3707.639, -0.008208793, -0.0065430626, 132749.23, 132749.23, 0.0, 2.5005352, 2.4993618 
2.0129271e+2, 8.121172e+1, 176544.02, -129755.984, -2069.3354, -0.008558269, -0.005221632, 176557.98, 176557.98, 0.0, 2.5005345, 2.4995198 
2.0129266e+2, 8.371126e+1, 180594.0, -123334.32, -1111.432, -0.009850727, -0.0047738194, 180598.06, 180598.06, 0.0, 2.5005367, 2.4995298 
2.0129263e+2, 8.6210793e+1, 181833.6, -122735.51, -1863.5786, -0.011129289, -0.00433235, 181845.0, 181845.0, 0.0, 2.5005388, 2.4995298 
2.0129259e+2, 8.8710326e+1, 183067.95, -122139.22, -2615.99, -0.012394404, -0.0038885993, 183090.38, 183090.38, 0.0, 2.500541, 2.4995298 
2.0129259e+2, 9.1209936e+1, 220698.2, -42519.598, -512.64154, -0.010451904, -0.0017848548, 220699.2, 220699.2, 0.0, 2.5005393, 2.4996674 
2.0129263e+2, 9.3709624e+1, 220107.48, -37020.086, 1216.8242, -0.007667394, -0.001274587, 220113.25, 220113.25, 0.0, 2.5005322, 2.4996803 
2.0129266e+2, 9.6209306e+1, 215877.05, -39054.152, 587.8209, -0.0048822234, -0.000788551, 215878.4, 215878.4, 0.0, 2.5005248, 2.4996803 
2.0129271e+2, 9.8708993e+1, 211636.73, -41092.97, -40.67398, -0.0020768635, -0.00030172084, 211636.73, 211636.73, 0.0, 2.5005176, 2.4996803 
2.037935e+2, 1.24913886e+0, -155638.44, -847681.06, -1712.999, -0.00036640622, 0.0001116438, -155634.19, -155634.19, 0.0, 2.5005643, 2.4982736 
2.0379348e+2, 3.7474164e+0, -154704.06, -847527.8, -1666.6824, -0.0009499354, 0.00033453447, -154700.05, -154700.05, 0.0, 2.5005662, 2.498273 
2.0379347e+2, 6.245694e+0, -153586.36, -846992.7, -1571.3164, -0.0015297858, 0.0005568966, -153582.8, -153582.8, 0.0, 2.5005682, 2.498273 
2.0379344e+2, 8.7439716e+0, -152469.28, -846457.9, -1476.0313, -0.0021059574, 0.00077873, -152466.14, -152466.14, 0.0, 2.50057, 2.498273 
2.0379344e+2, 1.1242328e+1, -109243.89, -757298.56, 791.79034, -0.0027748903, 0.0012592061, -109242.93, -109242.93, 0.0, 2.5005708, 2.4984255 
2.0379342e+2, 1.374076e+1, -109404.61, -756981.44, 1046.863, -0.0035320737, 0.001628937, -109402.92, -109402.92, 0.0, 2.50057, 2.4984264 
2.0379342e+2, 1.6239193e+1, -109819.51, -757191.2, 1603.6912, -0.0042867498, 0.0019980278, -109815.54, -109815.54, 0.0, 2.5005693, 2.4984264 
2.037934e+2, 1.8737625e+1, -110235.016, -757401.2, 2160.19, -0.0050389078, 0.0023669254, -110227.805, -110227.805, 0.0, 2.5005686, 2.4984262 
2.0379339e+2, 2.1236125e+1, -67103.48, -667538.5, 1303.0668, -0.005970645, 0.0019067605, -67100.65, -67100.65, 0.0, 2.5005684, 2.4985805 
2.0379338e+2, 2.3734687e+1, -66920.62, -666739.75, 919.3378, -0.0069685015, -0.00005339624, -66919.21, -66919.21, 0.0, 2.500568, 2.4985821 
2.0379335e+2, 2.6233253e+1, -67197.74, -666893.44, 952.3321, -0.0079641165, -0.0020167334, -67196.234, -67196.234, 0.0, 2.5005677, 2.4985821 
2.0379333e+2, 2.8731817e+1, -67475.89, -667047.6, 985.0042, -0.00895777, -0.0039816247, -67474.27, -67474.27, 0.0, 2.5005672, 2.4985821 
2.0379332e+2, 3.1230465e+1, -26744.195, -582771.8, 3809.226, -0.009423547, -0.004611904, -26718.1, -26718.1, 0.0, 2.5005674, 2.4987264 
2.0379333e+2, 3.3729196e+1, -25753.27, -581368.9, 3536.323, -0.0095554665, -0.004705063, -25730.762, -25730.762, 0.0, 2.5005682, 2.4987285 
2.0379333e+2, 3.6227924e+1, -25360.842, -581205.1, 3605.0024, -0.00968678, -0.004802358, -25337.463, -25337.463, 0.0, 2.5005689, 2.4987285 
2.0379333e+2, 3.8726655e+1, -24969.87, -581042.1, 3673.3682, -0.009816749, -0.0049008643, -24945.604, -24945.604, 0.0, 2.5005696, 2.4987283 
2.0379333e+2, 4.122546e+1, 16537.479, -494557.34, 2288.861, -0.009821959, -0.004397018, 16547.729, 16547.729, 0.0, 2.5005693, 2.4988768 
2.0379333e+2, 4.3724343e+1, 15992.968, -493543.53, 2344.2266, -0.009661669, -0.004327409, 16003.753, 16003.753, 0.0, 2.500567, 2.4988797 
2.0379332e+2, 4.6223223e+1, 14629.267, -494224.4, 2629.2585, -0.009500444, -0.004266196, 14642.852, 14642.852, 0.0, 2.5005648, 2.4988797 
2.0379332e+2, 4.8722106e+1, 13263.8955, -494906.1, 2913.9548, -0.009338493, -0.0042085964, 13280.6045, 13280.6045, 0.0, 2.5005624, 2.4988797 
2.0379332e+2, 5.1221067e+1, 57989.055, -399883.9, 5472.3086, -0.009076702, -0.0037202986, 58054.45, 58054.45, 0.0, 2.50056, 2.4990437 
2.0379333e+2, 5.3720117e+1, 57419.383, -398271.0, 5058.149, -0.00899378, -0.0041660694, 57475.523, 57475.523, 0.0, 2.5005572, 2.499048 
2.0379333e+2, 5.621916e+1, 55650.734, -399141.66, 4576.0522, -0.00891204, -0.004619217, 55696.77, 55696.77, 0.0, 2.500554, 2.499048 
2.0379335e+2, 5.8718204e+1, 53879.914, -400013.34, 4093.7017, -0.008830124, -0.0050723366, 53916.832, 53916.832, 0.0, 2.500551, 2.499048 
2.0379335e+2, 6.1217326e+1, 95706.72, -312432.13, -977.9128, -0.008741469, -0.005256117, 95709.06, 95709.06, 0.0, 2.5005503, 2.4991987 
2.0379332e+2, 6.371651e+1, 97535.94, -309078.94, -502.80396, -0.008772055, -0.0066204215, 97536.555, 97536.555, 0.0, 2.5005507, 2.4992042 
2.037933e+2, 6.6215706e+1, 97802.31, -308963.13, -492.78372, -0.008801993, -0.007994066, 97802.914, 97802.914, 0.0, 2.5005512, 2.4992042 
2.0379329e+2, 6.87149e+1, 98066.56, -308848.38, -483.14096, -0.008830702, -0.00936825, 98067.14, 98067.14, 0.0, 2.5005517, 2.4992042 
2.0379327e+2, 7.121418e+1, 139878.77, -220594.34, 884.3267, -0.008557767, -0.008980969, 139880.94, 139880.94, 0.0, 2.5005503, 2.4993563 
2.0379327e+2, 7.3713547e+1, 139146.89, -217550.78, 2368.2727, -0.008608676, -0.00846757, 139162.63, 139162.63, 0.0, 2.5005453, 2.499364 
2.0379326e+2, 7.621291e+1, 136271.63, -218946.98, 2667.9214, -0.008659699, -0.007964795, 136291.67, 136291.67, 0.0, 2.5005405, 2.499364 
2.0379326e+2, 7.871229e+1, 133393.2, -220344.7, 2967.2795, -0.008706679, -0.00746144, 133418.1, 133418.1, 0.0, 2.5005355, 2.499364 
2.0379323e+2, 8.1211734e+1, 175244.75, -132657.0, -1686.8413, -0.009069384, -0.006577601, 175253.98, 175253.98, 0.0, 2.5005348, 2.4995148 
2.0379321e+2, 8.371126e+1, 179360.98, -126100.83, -789.111, -0.009712622, -0.0065768035, 179363.03, 179363.03, 0.0, 2.500537, 2.499525 
2.0379318e+2, 8.6210775e+1, 180601.7, -125502.34, -1539.4741, -0.010346934, -0.006583482, 180609.44, 180609.44, 0.0, 2.500539, 2.499525 
2.0379315e+2, 8.87103e+1, 181837.19, -124906.38, -2290.1023, -0.010972684, -0.0065888204, 181854.28, 181854.28, 0.0, 2.5005412, 2.499525 
2.0379314e+2, 9.120991e+1, 219672.75, -44935.734, -1483.7642, -0.0091949925, -0.0043099755, 219681.06, 219681.06, 0.0, 2.5005395, 2.499663 
2.0379317e+2, 9.37096e+1, 219200.7, -39187.465, 136.96434, -0.0075398767, -0.003023594, 219200.78, 219200.78, 0.0, 2.5005324, 2.4996765 
2.0379318e+2, 9.620929e+1, 214969.6, -41219.527, -487.8431, -0.005895997, -0.0017627374, 214970.52, 214970.52, 0.0, 2.5005252, 2.4996765 
2.037932e+2, 9.8708975e+1, 210728.61, -43256.35, -1112.1421, -0.0042428393, -0.0005020551, 210733.47, 210733.47, 0.0, 2.5005178, 2.4996765 
2.0629407e+2, 1.24914154e+0, -155466.0, -847323.0, -1421.9496, -0.000006802809, 0.00035302842, -155463.08, -155463.08, 0.0, 2.5005643, 2.498274 
2.0629404e+2, 3.7474245e+0, -154534.3, -847175.75, -1378.1499, -0.00025750027, 0.001058618, -154531.56, -154531.56, 0.0, 2.5005662, 2.4982736 
2.0629404e+2, 6.245708e+0, -153416.44, -846640.7, -1281.925, -0.0005070482, 0.0017635853, -153414.08, -153414.08, 0.0, 2.5005682, 2.4982736 
2.0629403e+2, 8.7439907e+0, -152299.19, -846106.0, -1185.7809, -0.0007554465, 0.00246793, -152297.17, -152297.17, 0.0, 2.50057, 2.4982736 
2.0629402e+2, 1.1242345e+1, -108208.195, -755154.7, 696.86255, -0.0014486222, 0.0025051406, -108207.445, -108207.445, 0.0, 2.5005708, 2.498429 
2.06294e+2, 1.3740766e+1, -108367.3, -754836.2, 937.321, -0.0025905482, 0.0014943077, -108365.94, -108365.94, 0.0, 2.50057, 2.49843 
2.0629399e+2, 1.6239189e+1, -108781.47, -755046.44, 1495.1614, -0.0037316454, 0.00048265938, -108778.016, -108778.016, 0.0, 2.5005696, 2.49843 
2.0629397e+2, 1.873761e+1, -109196.26, -755256.94, 2052.6724, -0.004871895, -0.00052934844, -109189.734, -109189.734, 0.0, 2.5005689, 2.49843 
2.0629397e+2, 2.1236111e+1, -67014.516, -667373.06, 1276.4067, -0.0056253527, -0.0011368246, -67011.805, -67011.805, 0.0, 2.5005684, 2.498581 
2.0629396e+2, 2.3734687e+1, -66847.234, -666608.4, 845.82574, -0.0058150743, -0.0019836624, -66846.05, -66846.05, 0.0, 2.5005682, 2.4985824 
2.0629394e+2, 2.6233262e+1, -67123.74, -666762.44, 879.82874, -0.006004583, -0.0028333603, -67122.45, -67122.45, 0.0, 2.5005677, 2.4985824 
2.0629393e+2, 2.8731838e+1, -67401.27, -666917.0, 913.5095, -0.006194302, -0.0036843275, -67399.88, -67399.88, 0.0, 2.5005672, 2.4985824 
2.0629391e+2, 3.1230488e+1, -26581.783, -582478.4, 3948.5596, -0.0066506136, -0.004029541, -26553.738, -26553.738, 0.0, 2.5005674, 2.4987268 
2.0629391e+2, 3.3729213e+1, -25594.307, -581084.4, 3635.7117, -0.007600506, -0.0046785264, -25570.512, -25570.512, 0.0, 2.5005682, 2.498729 
2.0629391e+2, 3.622794e+1, -25201.35, -580921.25, 3705.5027, -0.00855212, -0.0053306795, -25176.645, -25176.645, 0.0, 2.5005689, 2.498729 
2.0629391e+2, 3.872666e+1, -24809.85, -580758.75, 3774.98, -0.009504634, -0.0059830537, -24784.217, -24784.217, 0.0, 2.5005696, 2.4987288 
2.062939e+2, 4.1225472e+1, 17097.822, -493454.0, 2012.7482, -0.009674647, -0.005519304, 17105.758, 17105.758, 0.0, 2.5005693, 2.4988787 
2.062939e+2, 4.3724358e+1, 16567.178, -492412.28, 1989.9492, -0.008962665, -0.005017687, 16574.957, 16574.957, 0.0, 2.5005672, 2.4988816 
2.062939e+2, 4.6223247e+1, 15203.356, -493094.16, 2276.0713, -0.008251868, -0.0045227967, 15213.549, 15213.549, 0.0, 2.5005648, 2.4988816 
2.062939e+2, 4.8722133e+1, 13837.868, -493776.84, 2561.8574, -0.0075426735, -0.004029614, 13850.797, 13850.797, 0.0, 2.5005624, 2.4988816 
2.062939e+2, 5.1221097e+1, 57175.414, -401665.7, 5073.3257, -0.007306585, -0.0039024183, 57231.504, 57231.504, 0.0, 2.5005603, 2.4990406 
2.062939e+2, 5.372013e+1, 56591.87, -400084.03, 4598.673, -0.0078398995, -0.0054948316, 56638.17, 56638.17, 0.0, 2.5005572, 2.499045 
2.062939e+2, 5.6219155e+1, 54824.582, -400953.94, 4118.0254, -0.008377146, -0.007093279, 54861.785, 54861.785, 0.0, 2.5005543, 2.499045 
2.062939e+2, 5.8718187e+1, 53055.13, -401824.9, 3637.1233, -0.008916905, -0.008690495, 53084.207, 53084.207, 0.0, 2.5005512, 2.4990447 
2.062939e+2, 6.12173e+1, 95762.51, -312435.22, -832.14374, -0.008873491, -0.0088426955, 95764.2, 95764.2, 0.0, 2.5005505, 2.4991984 
2.0629388e+2, 6.3716507e+1, 97643.5, -308976.75, -433.3112, -0.008341357, -0.009004615, 97643.96, 97643.96, 0.0, 2.500551, 2.4992042 
2.0629387e+2, 6.621571e+1, 97910.555, -308861.6, -422.30347, -0.0078109335, -0.009175119, 97911.0, 97911.0, 0.0, 2.5005515, 2.4992042 
2.0629385e+2, 6.871491e+1, 98175.484, -308747.47, -411.67322, -0.0072817546, -0.009345175, 98175.9, 98175.9, 0.0, 2.500552, 2.4992042 
2.0629384e+2, 7.1214205e+1, 140499.78, -219466.33, 236.89732, -0.0070462995, -0.00853825, 140499.94, 140499.94, 0.0, 2.5005505, 2.4993582 
2.0629382e+2, 7.371357e+1, 139827.63, -216300.83, 1625.4203, -0.00776414, -0.008479679, 139835.05, 139835.05, 0.0, 2.5005455, 2.499366 
2.062938e+2, 7.6212937e+1, 136953.19, -217696.97, 1926.399, -0.008486209, -0.008432027, 136963.64, 136963.64, 0.0, 2.5005407, 2.4993658 
2.0629379e+2, 7.87123e+1, 134075.58, -219094.63, 2227.0872, -0.009208206, -0.008383612, 134089.63, 134089.63, 0.0, 2.5005357, 2.4993658 
2.0629376e+2, 8.121174e+1, 173937.0, -135575.63, -1298.5874, -0.009584126, -0.007933533, 173942.45, 173942.45, 0.0, 2.500535, 2.4995096 
2.0629375e+2, 8.371125e+1, 178127.45, -128868.414, -466.54904, -0.009577523, -0.008382326, 178128.16, 178128.16, 0.0, 2.5005372, 2.49952 
2.0629373e+2, 8.621077e+1, 179369.28, -128270.266, -1215.1288, -0.009566982, -0.008839801, 179374.08, 179374.08, 0.0, 2.5005393, 2.49952 
2.062937e+2, 8.8710284e+1, 180605.89, -127674.63, -1963.9736, -0.009552762, -0.009296876, 180618.39, 180618.39, 0.0, 2.5005414, 2.49952 
2.062937e+2, 9.1209894e+1, 218631.27, -47385.176, -2442.3179, -0.0079482645, -0.006828066, 218653.69, 218653.69, 0.0, 2.50054, 2.4996586 
2.062937e+2, 9.370959e+1, 218293.47, -41355.78, -943.41547, -0.0074229995, -0.0047682924, 218296.89, 218296.89, 0.0, 2.5005326, 2.4996724 
2.062937e+2, 9.6209276e+1, 214061.69, -43385.85, -1564.027, -0.006920743, -0.00273559, 214071.19, 214071.19, 0.0, 2.5005255, 2.4996727 
2.062937e+2, 9.870897e+1, 209820.03, -45420.67, -2184.1301, -0.00642012, -0.0007040309, 209838.72, 209838.72, 0.0, 2.500518, 2.4996727 
2.0879464e+2, 1.2491443e+0, -156744.38, -847664.6, -1124.7058, 0.00035452444, 0.00059384375, -156742.55, -156742.55, 0.0, 2.500562, 2.4982748 
2.0879464e+2, 3.7474328e+0, -155731.77, -847483.8, -1072.6299, 0.00043634634, 0.0017810143, -155730.11, -155730.11, 0.0, 2.5005639, 2.498274 
2.0879462e+2, 6.2457216e+0, -154555.69, -846920.9, -965.229, 0.00051694893, 0.0029674962, -154554.33, -154554.33, 0.0, 2.500566, 2.498274 
2.0879462e+2, 8.74401e+0, -153406.16, -846370.75, -858.5345, 0.0005963324, 0.004153289, -153405.1, -153405.1, 0.0, 2.500568, 2.498274 
2.0879461e+2, 1.1242361e+1, -108433.016, -753627.3, 642.55725, -0.00012151536, 0.003750102, -108432.375, -108432.375, 0.0, 2.5005686, 2.4984329 
2.0879458e+2, 1.3740773e+1, -108568.66, -753289.7, 862.6444, -0.0016481432, 0.0013568697, -108567.5, -108567.5, 0.0, 2.5005682, 2.4984336 
2.0879456e+2, 1.6239186e+1, -108981.234, -753500.0, 1416.4247, -0.003175531, -0.0010373904, -108978.125, -108978.125, 0.0, 2.5005674, 2.4984336 
2.0879455e+2, 1.8737596e+1, -109410.82, -753718.56, 1969.7125, -0.0047036535, -0.0034322045, -109404.805, -109404.805, 0.0, 2.5005667, 2.4984336 
2.0879453e+2, 2.12361e+1, -68111.18, -667792.56, 1272.2028, -0.005279178, -0.0041798167, -68108.48, -68108.48, 0.0, 2.5005665, 2.4985812 
2.0879453e+2, 2.3734686e+1, -67788.84, -666967.3, 790.77795, -0.0046618306, -0.003915449, -67787.8, -67787.8, 0.0, 2.5005662, 2.4985826 
2.0879452e+2, 2.6233274e+1, -67926.16, -667055.06, 820.2745, -0.004046145, -0.0036536427, -67925.03, -67925.03, 0.0, 2.500566, 2.4985826 
2.0879452e+2, 2.873186e+1, -68088.72, -667155.0, 847.1583, -0.0034326853, -0.0033927993, -68087.516, -68087.516, 0.0, 2.5005658, 2.4985824 
2.0879452e+2, 3.1230515e+1, -27110.91, -582531.7, 4078.188, -0.0038763105, -0.0034482377, -27080.969, -27080.969, 0.0, 2.5005665, 2.4987273 
2.087945e+2, 3.372923e+1, -26079.734, -581112.06, 3694.2583, -0.0056451606, -0.004654738, -26055.146, -26055.146, 0.0, 2.5005672, 2.4987295 
2.0879449e+2, 3.622795e+1, -25669.447, -580941.5, 3734.1648, -0.007417989, -0.005863509, -25644.336, -25644.336, 0.0, 2.500568, 2.4987295 
2.0879447e+2, 3.8726673e+1, -25283.416, -580782.56, 3771.0103, -0.0091938665, -0.007071538, -25257.816, -25257.816, 0.0, 2.5005686, 2.4987292 
2.0879447e+2, 4.1225484e+1, 17101.496, -492630.8, 1589.4896, -0.00952682, -0.0066430178, 17106.453, 17106.453, 0.0, 2.5005686, 2.4988806 
2.0879447e+2, 4.3724376e+1, 16763.355, -491465.2, 1431.5149, -0.008265034, -0.005711399, 16767.387, 16767.387, 0.0, 2.5005665, 2.4988835 
2.0879447e+2, 4.622327e+1, 15541.24, -492079.8, 1662.4965, -0.007006474, -0.004784918, 15546.685, 15546.685, 0.0, 2.5005643, 2.4988835 
2.0879447e+2, 4.8722163e+1, 14286.867, -492709.97, 1891.6244, -0.0057517495, -0.003858265, 14293.925, 14293.925, 0.0, 2.5005624, 2.4988835 
2.0879447e+2, 5.122112e+1, 56274.63, -403510.16, 4312.5933, -0.005532955, -0.0040812683, 56315.08, 56315.08, 0.0, 2.5005603, 2.4990375 
2.0879446e+2, 5.3720134e+1, 55676.047, -401941.25, 3736.34, -0.0066846544, -0.0068223225, 55706.55, 55706.55, 0.0, 2.5005572, 2.4990418 
2.0879446e+2, 5.621915e+1, 53868.754, -402830.47, 3218.8354, -0.007843, -0.009568267, 53891.44, 53891.44, 0.0, 2.500554, 2.4990416 
2.0879444e+2, 5.871817e+1, 52031.074, -403734.3, 2699.5154, -0.009006422, -0.012311846, 52047.063, 52047.063, 0.0, 2.500551, 2.4990416 
2.0879444e+2, 6.1217284e+1, 95590.266, -312560.53, -1201.5819, -0.009004835, -0.012427534, 95593.8, 95593.8, 0.0, 2.5005503, 2.4991984 
2.0879443e+2, 6.37165e+1, 97563.24, -308966.06, -918.9932, -0.007911801, -0.01138876, 97565.32, 97565.32, 0.0, 2.5005507, 2.4992044 
2.0879443e+2, 6.621571e+1, 97836.664, -308848.88, -945.2175, -0.0068227826, -0.010357937, 97838.87, 97838.87, 0.0, 2.5005512, 2.4992044 
2.0879441e+2, 6.871493e+1, 98080.57, -308745.9, -973.48584, -0.005737376, -0.009325729, 98082.9, 98082.9, 0.0, 2.5005517, 2.4992044 
2.087944e+2, 7.1214217e+1, 140877.78, -218466.48, -1069.3531, -0.005535945, -0.00809241, 140880.95, 140880.95, 0.0, 2.5005503, 2.4993598 
2.0879437e+2, 7.371358e+1, 140226.94, -215186.55, 195.59367, -0.0069212867, -0.008489822, 140227.05, 140227.05, 0.0, 2.5005453, 2.499368 
2.0879436e+2, 7.6212955e+1, 137275.8, -216619.94, 474.51035, -0.008314923, -0.008898544, 137276.44, 137276.44, 0.0, 2.5005403, 2.499368 
2.0879433e+2, 7.871231e+1, 134289.25, -218070.39, 751.9718, -0.009712356, -0.009306317, 134290.86, 134290.86, 0.0, 2.500535, 2.499368 
2.087943e+2, 8.1211746e+1, 172039.89, -138788.47, -1629.7028, -0.010101541, -0.00928585, 172048.44, 172048.44, 0.0, 2.500534, 2.4995046 
2.0879428e+2, 8.371125e+1, 176187.83, -131973.83, -826.3818, -0.009444885, -0.010186525, 176190.03, 176190.03, 0.0, 2.5005362, 2.4995153 
2.0879427e+2, 8.6210763e+1, 177264.13, -131456.39, -1535.7476, -0.008789133, -0.011097106, 177271.77, 177271.77, 0.0, 2.5005379, 2.4995153 
2.0879427e+2, 8.8710266e+1, 178293.27, -130961.66, -2250.4373, -0.008134425, -0.012008177, 178309.64, 178309.64, 0.0, 2.5005398, 2.4995153 
2.0879425e+2, 9.120987e+1, 216311.9, -50469.47, -3921.4834, -0.0067115766, -0.009334379, 216369.53, 216369.53, 0.0, 2.500538, 2.4996543 
2.0879424e+2, 9.3709564e+1, 215925.48, -44222.42, -2430.5322, -0.007316424, -0.0065040914, 215948.2, 215948.2, 0.0, 2.5005305, 2.4996686 
2.087942e+2, 9.620926e+1, 211387.1, -46398.14, -2927.7217, -0.007955465, -0.00370273, 211420.34, 211420.34, 0.0, 2.5005226, 2.4996686 
2.0879419e+2, 9.870895e+1, 206731.3, -48630.406, -3432.1401, -0.008606588, -0.00090353325, 206777.4, 206777.4, 0.0, 2.5005147, 2.4996686 
2.112952e+2, 1.2491454e+0, -165689.27, -850870.06, -362.64154, 0.0012500123, 0.0005733822, -165689.08, -165689.08, 0.0, 2.5005453, 2.4982772 
2.112952e+2, 3.747436e+0, -163282.06, -850021.75, 205.60608, 0.0015874662, 0.0017206916, -163282.0, -163282.0, 0.0, 2.5005498, 2.4982767 
2.112952e+2, 6.2457263e+0, -160683.11, -848773.4, 832.8954, 0.0019329364, 0.002868728, -160682.11, -160682.11, 0.0, 2.5005543, 2.4982765 
2.112952e+2, 8.7440175e+0, -158085.27, -847525.5, 1459.7758, 0.002286423, 0.0040174914, -158082.19, -158082.19, 0.0, 2.5005589, 2.4982765 
2.1129519e+2, 1.1242372e+1, -113006.09, -754542.06, 2339.8901, 0.0015937797, 0.003587817, -112997.56, -112997.56, 0.0, 2.5005596, 2.4984357 
2.1129517e+2, 1.3740785e+1, -114709.445, -754965.94, 2300.8447, -0.00013487868, 0.0011773641, -114701.17, -114701.17, 0.0, 2.5005562, 2.4984365 
2.1129516e+2, 1.62392e+1, -116672.3, -755926.9, 2618.1956, -0.0018598842, -0.0012354443, -116661.57, -116661.57, 0.0, 2.5005527, 2.4984365 
2.1129511e+2, 1.8737616e+1, -118636.12, -756888.3, 2935.2126, -0.0035812506, -0.0036501342, -118622.625, -118622.625, 0.0, 2.5005493, 2.4984365 
2.112951e+2, 2.1236119e+1, -76777.11, -671143.06, 3120.7795, -0.004178902, -0.004405183, -76760.73, -76760.73, 0.0, 2.5005507, 2.4985828 
2.112951e+2, 2.3734708e+1, -73169.51, -668753.94, 3072.0098, -0.0034311798, -0.004128732, -73153.664, -73153.664, 0.0, 2.5005562, 2.4985843 
2.112951e+2, 2.6233298e+1, -69989.945, -667250.2, 3576.3567, -0.0026764963, -0.0038544948, -69968.53, -69968.53, 0.0, 2.5005617, 2.4985843 
2.112951e+2, 2.8731886e+1, -66811.98, -665747.1, 4079.7998, -0.0019153568, -0.0035808831, -66784.19, -66784.19, 0.0, 2.5005672, 2.4985843 
2.112951e+2, 3.1230542e+1, -26109.832, -581769.0, 6914.9463, -0.0023346995, -0.003761927, -26023.791, -26023.791, 0.0, 2.500568, 2.498728 
2.1129508e+2, 3.3729258e+1, -28654.871, -582077.25, 6571.3887, -0.004151113, -0.0052571795, -28576.854, -28576.854, 0.0, 2.5005624, 2.49873 
2.1129507e+2, 3.6227974e+1, -31802.553, -583631.25, 6718.1567, -0.005965923, -0.0067576542, -31720.775, -31720.775, 0.0, 2.5005572, 2.49873 
2.1129505e+2, 3.8726693e+1, -34951.797, -585186.06, 6864.214, -0.007778409, -0.008260254, -34866.18, -34866.18, 0.0, 2.5005517, 2.49873 
2.1129504e+2, 4.1225502e+1, 7930.0947, -496723.88, 5369.2393, -0.008203744, -0.007856523, 7987.214, 7987.214, 0.0, 2.5005524, 2.4988813 
2.1129505e+2, 4.3724397e+1, 12267.031, -493293.47, 4916.772, -0.0071338248, -0.0066781417, 12314.844, 12314.844, 0.0, 2.5005584, 2.4988842 
2.1129505e+2, 4.6223295e+1, 15739.052, -491653.38, 4918.642, -0.0060636653, -0.0055074305, 15786.729, 15786.729, 0.0, 2.5005643, 2.4988842 
2.1129505e+2, 4.872219e+1, 19209.277, -490014.13, 4919.7803, -0.0049936892, -0.0043390472, 19256.805, 19256.805, 0.0, 2.5005705, 2.4988842 
2.1129504e+2, 5.122115e+1, 61923.445, -401155.63, 6584.9307, -0.00482052, -0.0045966604, 62017.063, 62017.063, 0.0, 2.5005703, 2.4990368 
2.1129504e+2, 5.3720164e+1, 58692.47, -400833.9, 6715.7397, -0.0058305967, -0.0076837707, 58790.594, 58790.594, 0.0, 2.5005627, 2.4990408 
2.1129502e+2, 5.621917e+1, 54261.855, -402994.7, 6990.916, -0.0068399403, -0.010781511, 54368.715, 54368.715, 0.0, 2.500555, 2.4990408 
2.1129501e+2, 5.871818e+1, 49828.824, -405156.63, 7265.173, -0.007847208, -0.01388246, 49944.805, 49944.805, 0.0, 2.5005476, 2.4990408 
2.11295e+2, 6.1217296e+1, 92882.44, -314407.97, 4867.5503, -0.00793574, -0.014007957, 92940.6, 92940.6, 0.0, 2.5005462, 2.4991972 
2.11295e+2, 6.371651e+1, 97002.0, -309732.06, 4792.3945, -0.007225733, -0.012635066, 97058.46, 97058.46, 0.0, 2.5005503, 2.4992032 
2.1129498e+2, 6.621573e+1, 99416.51, -308590.5, 4471.097, -0.0065148277, -0.011273609, 99465.5, 99465.5, 0.0, 2.5005546, 2.4992032 
2.1129498e+2, 6.871495e+1, 101828.61, -307450.13, 4149.3867, -0.0058023813, -0.009914137, 101870.67, 101870.67, 0.0, 2.5005586, 2.4992032 
2.1129495e+2, 7.121424e+1, 145375.69, -216879.36, 2390.2302, -0.005676487, -0.008524961, 145391.45, 145391.45, 0.0, 2.5005586, 2.4993587 
2.1129492e+2, 7.37136e+1, 144235.77, -213749.7, 2638.3696, -0.006829145, -0.008993759, 144255.22, 144255.22, 0.0, 2.5005527, 2.499367 
2.1129489e+2, 7.6212966e+1, 140773.77, -215430.73, 2005.9368, -0.007986135, -0.009474005, 140785.06, 140785.06, 0.0, 2.5005467, 2.4993668 
2.1129486e+2, 7.8712326e+1, 137308.38, -217113.4, 1372.7911, -0.009142957, -0.009953058, 137313.69, 137313.69, 0.0, 2.5005407, 2.4993668 
2.1129483e+2, 8.1211764e+1, 174457.92, -138135.3, 171.28868, -0.009528227, -0.009924661, 174458.02, 174458.02, 0.0, 2.5005388, 2.4995034 
2.1129483e+2, 8.3711267e+1, 177955.61, -131522.31, 1937.6642, -0.009121622, -0.010737516, 177967.75, 177967.75, 0.0, 2.5005395, 2.4995143 
2.1129481e+2, 8.621077e+1, 178350.0, -131339.48, 2277.5625, -0.008707723, -0.011556353, 178366.75, 178366.75, 0.0, 2.5005403, 2.4995143 
2.112948e+2, 8.8710284e+1, 178739.25, -131159.14, 2617.7231, -0.008286548, -0.012371711, 178761.36, 178761.36, 0.0, 2.500541, 2.4995143 
2.1129479e+2, 9.120988e+1, 217211.02, -50129.664, 961.1247, -0.0071405917, -0.009603978, 217214.47, 217214.47, 0.0, 2.5005398, 2.499654 
2.1129476e+2, 9.370958e+1, 218520.6, -42868.17, 3206.3376, -0.008076229, -0.0068068914, 218559.92, 218559.92, 0.0, 2.5005348, 2.4996688 
2.1129473e+2, 9.6209276e+1, 215654.81, -44252.836, 3598.6204, -0.009030658, -0.0040435563, 215704.63, 215704.63, 0.0, 2.50053, 2.4996688 
2.112947e+2, 9.870897e+1, 212778.2, -45642.707, 3991.1707, -0.0099815875, -0.0012862819, 212839.84, 212839.84, 0.0, 2.500525, 2.4996688 
2.1379577e+2, 1.2491449e+0, -164523.08, -848448.2, 311.93414, 0.002468325, 0.00031573398, -164522.94, -164522.94, 0.0, 2.5005453, 2.4982815 
2.1379577e+2, 3.7474346e+0, -162116.53, -847603.44, 878.7305, 0.0030381875, 0.00094716443, -162115.4, -162115.4, 0.0, 2.5005498, 2.4982808 
2.1379578e+2, 6.245724e+0, -159515.89, -846353.7, 1507.6697, 0.0036112585, 0.0015785454, -159512.58, -159512.58, 0.0, 2.5005543, 2.4982808 
2.1379578e+2, 8.744014e+0, -156916.36, -845104.44, 2136.2, 0.0041875374, 0.002209877, -156909.73, -156909.73, 0.0, 2.5005589, 2.4982808 
2.1379577e+2, 1.1242375e+1, -112398.01, -753289.2, 1854.1786, 0.0035661934, 0.0021427039, -112392.65, -112392.65, 0.0, 2.5005596, 2.498438 
2.1379575e+2, 1.3740803e+1, -114108.49, -753729.5, 1789.4271, 0.0018089118, 0.0009925076, -114103.484, -114103.484, 0.0, 2.5005562, 2.4984386 
2.1379572e+2, 1.6239233e+1, -116071.79, -754693.06, 2108.3884, 0.000051908053, -0.00015984925, -116064.83, -116064.83, 0.0, 2.500553, 2.4984386 
2.1379569e+2, 1.8737663e+1, -118036.055, -755657.1, 2427.0159, -0.0017049046, -0.0013139065, -118026.82, -118026.82, 0.0, 2.5005493, 2.4984386 
2.1379569e+2, 2.123617e+1, -75797.055, -669152.3, 3979.3982, -0.002515434, -0.0019477368, -75770.37, -75770.37, 0.0, 2.5005507, 2.4985864 
2.1379569e+2, 2.3734753e+1, -72194.164, -666777.8, 3895.3733, -0.0022410988, -0.0026869227, -72168.64, -72168.64, 0.0, 2.5005562, 2.4985878 
2.1379568e+2, 2.6233336e+1, -69012.99, -665275.44, 4401.4272, -0.0019642161, -0.0034286936, -68980.51, -68980.51, 0.0, 2.5005617, 2.4985876 
2.1379568e+2, 2.8731915e+1, -65833.42, -663773.75, 4906.5776, -0.0016850854, -0.004171484, -65793.164, -65793.164, 0.0, 2.5005672, 2.4985876 
2.1379568e+2, 3.123057e+1, -25787.44, -581162.06, 6177.2637, -0.0020673687, -0.0048796223, -25718.74, -25718.74, 0.0, 2.500568, 2.498729 
2.1379565e+2, 3.3729285e+1, -28328.87, -581465.9, 5754.931, -0.0031894962, -0.0064301486, -28269.002, -28269.002, 0.0, 2.5005624, 2.4987311 
2.1379563e+2, 3.6228004e+1, -31476.348, -583022.56, 5903.097, -0.0043127034, -0.00798542, -31413.176, -31413.176, 0.0, 2.5005572, 2.498731 
2.1379563e+2, 3.872672e+1, -34625.39, -584580.0, 6050.5522, -0.0054367366, -0.009542241, -34558.83, -34558.83, 0.0, 2.5005517, 2.498731 
2.1379562e+2, 4.122553e+1, 8018.14, -496659.47, 6319.4175, -0.0058984957, -0.009167807, 8097.2573, 8097.2573, 0.0, 2.5005527, 2.4988813 
2.1379562e+2, 4.3724427e+1, 12365.868, -493210.3, 5814.954, -0.0056972424, -0.007951101, 12432.741, 12432.741, 0.0, 2.5005586, 2.4988844 
2.1379562e+2, 4.6223325e+1, 15837.925, -491573.4, 5818.22, -0.0054991995, -0.0067408714, 15904.631, 15904.631, 0.0, 2.5005646, 2.4988842 
2.1379562e+2, 4.8722225e+1, 19308.186, -489937.4, 5820.755, -0.0053043435, -0.005531931, 19374.709, 19374.709, 0.0, 2.5005705, 2.4988842 
2.1379562e+2, 5.1221186e+1, 62505.727, -400082.66, 5534.7515, -0.005204861, -0.0055638202, 62571.94, 62571.94, 0.0, 2.5005705, 2.4990385 
2.137956e+2, 5.37202e+1, 59307.844, -399695.6, 5567.817, -0.005357048, -0.008279901, 59375.375, 59375.375, 0.0, 2.500563, 2.4990427 
2.1379559e+2, 5.6219214e+1, 54877.66, -401858.84, 5844.397, -0.0055115586, -0.0110059595, 54952.434, 54952.434, 0.0, 2.5005553, 2.4990427 
2.1379557e+2, 5.871823e+1, 50445.055, -404023.25, 6120.058, -0.005667643, -0.013734309, 50527.457, 50527.457, 0.0, 2.5005476, 2.4990427 
2.1379557e+2, 6.1217344e+1, 92413.75, -315568.13, 5538.312, -0.005902418, -0.013927596, 92488.92, 92488.92, 0.0, 2.5005465, 2.499195 
2.1379554e+2, 6.3716555e+1, 96546.94, -310866.75, 5418.5737, -0.00642522, -0.013064077, 96618.99, 96618.99, 0.0, 2.5005505, 2.4992013 
2.1379553e+2, 6.6215765e+1, 98961.67, -309727.13, 5098.564, -0.006950368, -0.012211003, 99025.27, 99025.27, 0.0, 2.5005548, 2.499201 
2.1379551e+2, 6.871498e+1, 101374.0, -308588.66, 4778.141, -0.0074767824, -0.011358952, 101429.68, 101429.68, 0.0, 2.5005589, 2.499201 
2.137955e+2, 7.1214265e+1, 144320.38, -219284.95, 1598.8228, -0.0074565, -0.010083476, 144327.4, 144327.4, 0.0, 2.5005589, 2.4993544 
2.1379547e+2, 7.3713624e+1, 143226.53, -216064.81, 1744.3925, -0.0075204642, -0.010286299, 143235.0, 143235.0, 0.0, 2.500553, 2.4993627 
2.1379544e+2, 7.621299e+1, 139767.03, -217745.64, 1113.4249, -0.0075926404, -0.010501235, 139770.5, 139770.5, 0.0, 2.500547, 2.4993627 
2.1379542e+2, 7.871235e+1, 136304.14, -219428.1, 481.74466, -0.007668714, -0.010715466, 136304.8, 136304.8, 0.0, 2.500541, 2.4993627 
2.137954e+2, 8.121178e+1, 175204.42, -136817.92, 357.7659, -0.008024744, -0.01028024, 175204.83, 175204.83, 0.0, 2.500539, 2.4995055 
2.1379536e+2, 8.3711296e+1, 178772.44, -130059.59, 2042.2758, -0.008688461, -0.010506137, 178785.95, 178785.95, 0.0, 2.5005398, 2.4995167 
2.1379535e+2, 8.6210805e+1, 179168.84, -129873.33, 2383.9243, -0.009350157, -0.0107379295, 179187.23, 179187.23, 0.0, 2.5005405, 2.4995167 
2.1379532e+2, 8.8710326e+1, 179560.11, -129689.55, 2725.8352, -0.010009706, -0.010966366, 179584.13, 179584.13, 0.0, 2.5005412, 2.4995167 
2.137953e+2, 9.120993e+1, 218099.78, -48580.656, 347.0663, -0.009208446, -0.008222031, 218100.22, 218100.22, 0.0, 2.50054, 2.4996567 
2.1379527e+2, 9.3709624e+1, 219526.67, -41080.457, 2485.8352, -0.009719672, -0.006207265, 219550.38, 219550.38, 0.0, 2.5005352, 2.4996717 
2.1379524e+2, 9.620931e+1, 216665.53, -42459.5, 2884.0789, -0.010263383, -0.004228832, 216697.63, 216697.63, 0.0, 2.5005302, 2.4996717 
2.1379521e+2, 9.8709005e+1, 213793.58, -43843.746, 3282.59, -0.010817322, -0.0022580088, 213835.39, 213835.39, 0.0, 2.5005252, 2.4996717 
2.1629632e+2, 1.2491443e+0, -163357.08, -846026.75, 986.7414, 0.0036863638, 0.00005754952, -163355.66, -163355.66, 0.0, 2.5005453, 2.4982855 
2.1629633e+2, 3.747433e+0, -160951.77, -845186.7, 1552.0659, 0.0044880877, 0.00017202865, -160948.25, -160948.25, 0.0, 2.5005498, 2.4982848 
2.1629634e+2, 6.2457216e+0, -158349.45, -843935.56, 2182.655, 0.005288212, 0.00028568192, -158342.5, -158342.5, 0.0, 2.5005543, 2.4982848 
2.1629636e+2, 8.744011e+0, -155748.23, -842685.0, 2812.835, 0.0060867365, 0.00039850915, -155736.72, -155736.72, 0.0, 2.5005589, 2.4982848 
2.1629634e+2, 1.12423785e+1, -111796.53, -752050.0, 1368.2155, 0.005540857, 0.0006980079, -111793.61, -111793.61, 0.0, 2.5005596, 2.49844 
2.1629633e+2, 1.3740821e+1, -113508.36, -752494.8, 1278.4646, 0.003756117, 0.00080569077, -113505.805, -113505.805, 0.0, 2.5005562, 2.4984407 
2.162963e+2, 1.6239266e+1, -115472.1, -753461.0, 1599.0361, 0.001968268, 0.0009113951, -115468.09, -115468.09, 0.0, 2.500553, 2.4984407 
2.1629627e+2, 1.8737711e+1, -117436.82, -754427.7, 1919.2738, 0.00017716184, 0.00101558, -117431.03, -117431.03, 0.0, 2.5005496, 2.4984407 
2.1629626e+2, 2.1236221e+1, -74826.31, -667180.94, 4844.663, -0.0008579003, 0.0005100257, -74786.695, -74786.695, 0.0, 2.5005507, 2.4985898 
2.1629626e+2, 2.3734799e+1, -71219.414, -664803.0, 4719.5386, -0.0010566404, -0.0012467072, -71181.89, -71181.89, 0.0, 2.5005562, 2.4985912 
2.1629626e+2, 2.6233375e+1, -68036.64, -663301.94, 5227.3, -0.0012571875, -0.0030064401, -67990.74, -67990.74, 0.0, 2.5005617, 2.498591 
2.1629626e+2, 2.8731948e+1, -64855.47, -661801.7, 5734.1577, -0.0014596941, -0.0047675874, -64800.39, -64800.39, 0.0, 2.5005674, 2.498591 
2.1629626e+2, 3.1230596e+1, -25472.088, -580569.7, 5438.6943, -0.0017959302, -0.005999962, -25418.805, -25418.805, 0.0, 2.500568, 2.49873 
2.1629624e+2, 3.3729318e+1, -28003.34, -580855.5, 4939.2007, -0.0022230647, -0.0076077413, -27959.217, -27959.217, 0.0, 2.5005627, 2.498732 
2.1629623e+2, 3.622803e+1, -31150.615, -582414.8, 5088.7646, -0.0026540293, -0.009219816, -31103.645, -31103.645, 0.0, 2.5005572, 2.498732 
2.1629621e+2, 3.872675e+1, -34299.453, -583974.94, 5237.6177, -0.00308897, -0.010832869, -34249.55, -34249.55, 0.0, 2.500552, 2.4987319 
2.1629621e+2, 4.122556e+1, 8092.017, -496624.5, 7279.214, -0.003598891, -0.010475333, 8196.979, 8196.979, 0.0, 2.5005527, 2.4988813 
2.1629621e+2, 4.3724456e+1, 12464.203, -493128.22, 6713.888, -0.0042658593, -0.009222533, 12553.344, 12553.344, 0.0, 2.5005586, 2.4988844 
2.1629618e+2, 4.6223357e+1, 15936.296, -491494.53, 6718.551, -0.004939373, -0.0079751415, 16025.236, 16025.236, 0.0, 2.5005648, 2.4988844 
2.1629618e+2, 4.8722255e+1, 19406.592, -489861.72, 6722.4814, -0.005619077, -0.006728001, 19495.314, 19495.314, 0.0, 2.5005708, 2.4988842 
2.1629618e+2, 5.1221216e+1, 63083.523, -399019.03, 4485.8804, -0.005587306, -0.0065317284, 63127.066, 63127.066, 0.0, 2.5005705, 2.4990401 
2.1629617e+2, 5.372024e+1, 59922.734, -398558.3, 4420.748, -0.004881527, -0.008878523, 59965.355, 59965.355, 0.0, 2.5005631, 2.4990447 
2.1629615e+2, 5.621926e+1, 55492.977, -400724.03, 4698.7324, -0.0041811904, -0.011234676, 55541.367, 55541.367, 0.0, 2.5005555, 2.4990447 
2.1629615e+2, 5.871828e+1, 51060.8, -402890.9, 4975.798, -0.0034860785, -0.013592202, 51115.332, 51115.332, 0.0, 2.500548, 2.4990444 
2.1629614e+2, 6.12174e+1, 91934.484, -316750.25, 6216.523, -0.003871663, -0.013844074, 92029.02, 92029.02, 0.0, 2.5005465, 2.499193 
2.162961e+2, 6.37166e+1, 96091.12, -312003.0, 6045.1714, -0.0056273197, -0.013492148, 96180.64, 96180.64, 0.0, 2.5005507, 2.4991992 
2.1629608e+2, 6.621581e+1, 98506.08, -310865.3, 5726.4487, -0.007388501, -0.013149812, 98586.164, 98586.164, 0.0, 2.500555, 2.4991992 
2.1629606e+2, 6.8715006e+1, 100918.63, -309728.8, 5407.3135, -0.009153756, -0.012807535, 100989.82, 100989.82, 0.0, 2.500559, 2.499199 
2.1629603e+2, 7.121429e+1, 143257.44, -221706.44, 809.98145, -0.009234734, -0.011641479, 143259.23, 143259.23, 0.0, 2.500559, 2.49935 
2.1629602e+2, 7.3713654e+1, 142216.55, -218381.47, 850.98535, -0.008211174, -0.011580493, 142218.56, 142218.56, 0.0, 2.5005531, 2.4993587 
2.16296e+2, 7.6213014e+1, 138759.55, -220062.1, 221.48325, -0.007199768, -0.011532364, 138759.69, 138759.69, 0.0, 2.5005472, 2.4993587 
2.1629597e+2, 7.8712374e+1, 135299.17, -221744.33, -408.73166, -0.0061963242, -0.011484017, 135299.64, 135299.64, 0.0, 2.5005412, 2.4993587 
2.1629594e+2, 8.1211805e+1, 175939.0, -135525.31, 542.9188, -0.0065194382, -0.010636317, 175939.94, 175939.94, 0.0, 2.5005393, 2.4995077 
2.1629591e+2, 8.3711326e+1, 179588.66, -128598.15, 2146.4788, -0.008256052, -0.010277859, 179603.61, 179603.61, 0.0, 2.50054, 2.499519 
2.1629588e+2, 8.621085e+1, 179987.08, -128408.445, 2489.8772, -0.009995971, -0.009925301, 180007.17, 180007.17, 0.0, 2.5005407, 2.499519 
2.1629585e+2, 8.8710374e+1, 180380.36, -128221.23, 2833.5386, -0.01173887, -0.009569511, 180406.36, 180406.36, 0.0, 2.5005414, 2.499519 
2.1629582e+2, 9.1209984e+1, 218975.42, -47058.88, -261.61908, -0.0112626655, -0.0068324264, 218975.69, 218975.69, 0.0, 2.5005405, 2.499659 
2.162958e+2, 9.370967e+1, 220532.16, -39293.934, 1764.6571, -0.011352952, -0.005603748, 220544.14, 220544.14, 0.0, 2.5005355, 2.4996748 
2.1629576e+2, 9.6209353e+1, 217675.67, -40667.35, 2168.8616, -0.011489726, -0.004414249, 217693.88, 217693.88, 0.0, 2.5005305, 2.4996748 
2.1629573e+2, 9.8709035e+1, 214808.38, -42045.977, 2573.3337, -0.0116504505, -0.0032339091, 214834.16, 214834.16, 0.0, 2.5005257, 2.4996748 
2.1879688e+2, 1.24914385e+0, -163988.6, -844472.6, 1663.2704, 0.0049062064, -0.00020120274, -163984.52, -163984.52, 0.0, 2.5005422, 2.4982898 
2.187969e+2, 3.7474316e+0, -161656.14, -843672.8, 2227.976, 0.00593897, -0.0006047926, -161648.86, -161648.86, 0.0, 2.5005467, 2.498289 
2.1879692e+2, 6.245719e+0, -159175.56, -842479.9, 2859.1743, 0.0069656726, -0.001009961, -159163.61, -159163.61, 0.0, 2.500551, 2.498289 
2.1879694e+2, 8.7440073e+0, -156748.52, -841312.75, 3487.9016, 0.007986315, -0.0014167081, -156730.75, -156730.75, 0.0, 2.500555, 2.498289 
2.1879692e+2, 1.1242381e+1, -113336.375, -751854.2, 877.5544, 0.007520074, -0.0007466875, -113335.164, -113335.164, 0.0, 2.5005558, 2.498442 
2.187969e+2, 1.374084e+1, -114791.04, -752169.8, 758.3555, 0.005708587, 0.00061588065, -114790.13, -114790.13, 0.0, 2.500553, 2.498443 
2.1879686e+2, 1.62393e+1, -116541.51, -753035.7, 1073.0629, 0.0038908904, 0.0019767012, -116539.695, -116539.695, 0.0, 2.50055, 2.498443 
2.1879683e+2, 1.8737759e+1, -118331.96, -753920.8, 1385.1178, 0.0020667873, 0.0033362452, -118328.94, -118328.94, 0.0, 2.500547, 2.498443 
2.1879682e+2, 2.1236272e+1, -75256.17, -665900.4, 5673.896, 0.0007955913, 0.0029658428, -75201.67, -75201.67, 0.0, 2.5005486, 2.498593 
2.1879682e+2, 2.3734842e+1, -71608.54, -663487.4, 5479.6953, 0.00012401099, 0.00018978314, -71557.81, -71557.81, 0.0, 2.500554, 2.4985945 
2.1879682e+2, 2.623341e+1, -68439.52, -661995.1, 5964.4585, -0.0005534188, -0.0025896917, -68379.6, -68379.6, 0.0, 2.5005596, 2.4985943 
2.1879682e+2, 2.8731978e+1, -65315.496, -660524.6, 6445.7476, -0.0012367635, -0.0053709317, -65245.703, -65245.703, 0.0, 2.5005648, 2.4985943 
2.1879682e+2, 3.1230626e+1, -26466.047, -580620.4, 4557.091, -0.0015180558, -0.007124493, -26428.574, -26428.574, 0.0, 2.5005658, 2.498731 
2.187968e+2, 3.3729345e+1, -28650.166, -580715.3, 3956.7188, -0.0012501446, -0.008791342, -28621.809, -28621.809, 0.0, 2.500561, 2.498733 
2.187968e+2, 3.622806e+1, -31514.223, -582140.94, 4080.5234, -0.000988642, -0.0104620475, -31483.984, -31483.984, 0.0, 2.5005562, 2.498733 
2.1879679e+2, 3.872678e+1, -34427.223, -583590.2, 4201.7964, -0.0007340257, -0.0121331345, -34395.08, -34395.08, 0.0, 2.5005512, 2.4987328 
2.1879679e+2, 4.1225588e+1, 7810.43, -496784.06, 7988.831, -0.001303846, -0.011779972, 7936.8794, 7936.8794, 0.0, 2.5005522, 2.4988813 
2.1879677e+2, 4.3724486e+1, 12217.319, -493214.0, 7310.6885, -0.002838447, -0.010493308, 12323.041, 12323.041, 0.0, 2.5005581, 2.4988844 
2.1879677e+2, 4.622339e+1, 15648.807, -491603.2, 7271.543, -0.0043826136, -0.009211141, 15753.024, 15753.024, 0.0, 2.500564, 2.4988844 
2.1879676e+2, 4.8722285e+1, 19041.271, -490011.2, 7229.555, -0.005935772, -0.007928214, 19143.926, 19143.926, 0.0, 2.50057, 2.4988844 
2.1879676e+2, 5.122125e+1, 63272.777, -398150.6, 2990.6301, -0.005965796, -0.0075011672, 63292.16, 63292.16, 0.0, 2.50057, 2.499042 
2.1879674e+2, 5.372028e+1, 60381.41, -397497.94, 2768.8142, -0.0044026356, -0.009479994, 60398.152, 60398.152, 0.0, 2.500563, 2.4990466 
2.1879674e+2, 5.621931e+1, 56121.934, -399584.3, 2989.2295, -0.0028478429, -0.011467637, 56141.543, 56141.543, 0.0, 2.5005558, 2.4990466 
2.1879672e+2, 5.8718336e+1, 51801.55, -401700.03, 3207.7932, -0.001301666, -0.01345577, 51824.242, 51824.242, 0.0, 2.5005484, 2.4990463 
2.187967e+2, 6.121745e+1, 91560.59, -317898.63, 6222.4854, -0.0018425195, -0.0137565695, 91655.13, 91655.13, 0.0, 2.500547, 2.4991908 
2.1879667e+2, 6.3716644e+1, 95631.12, -313142.63, 5942.9565, -0.0048308023, -0.013917866, 95717.51, 95717.51, 0.0, 2.500551, 2.499197 
2.1879664e+2, 6.621584e+1, 97884.78, -312084.7, 5575.085, -0.007827589, -0.014088025, 97960.58, 97960.58, 0.0, 2.5005548, 2.499197 
2.187966e+2, 6.8715036e+1, 100093.86, -311048.22, 5205.8984, -0.010831122, -0.01425728, 100159.766, 100159.766, 0.0, 2.5005586, 2.499197 
2.1879658e+2, 7.121432e+1, 141735.7, -224359.28, -837.9926, -0.011009143, -0.0131959375, 141737.63, 141737.63, 0.0, 2.5005584, 2.4993458 
2.1879657e+2, 7.371368e+1, 140795.45, -220895.55, -915.6323, -0.008899958, -0.012873, 140797.77, 140797.77, 0.0, 2.5005527, 2.4993546 
2.1879655e+2, 7.6213026e+1, 137329.25, -222581.63, -1558.5017, -0.00680662, -0.012563684, 137336.0, 137336.0, 0.0, 2.5005467, 2.4993546 
2.1879654e+2, 7.8712386e+1, 133807.16, -224294.63, -2204.8193, -0.004725006, -0.01225458, 133820.73, 133820.73, 0.0, 2.5005407, 2.4993546 
2.1879649e+2, 8.121183e+1, 175999.06, -134572.95, -177.91463, -0.005011585, -0.010988477, 175999.16, 175999.16, 0.0, 2.5005383, 2.4995096 
2.1879646e+2, 8.3711356e+1, 179440.22, -127598.805, 1365.2178, -0.00782365, -0.010048156, 179446.28, 179446.28, 0.0, 2.5005386, 2.4995215 
2.1879642e+2, 8.6210895e+1, 179473.97, -127582.445, 1724.0614, -0.010644056, -0.009113796, 179483.66, 179483.66, 0.0, 2.5005388, 2.4995215 
2.1879637e+2, 8.871042e+1, 179437.38, -127599.97, 2077.2576, -0.0134722255, -0.008176294, 179451.42, 179451.42, 0.0, 2.5005386, 2.4995215 
2.1879634e+2, 9.121003e+1, 217732.52, -46572.023, -1693.2201, -0.013301397, -0.005430107, 217743.36, 217743.36, 0.0, 2.5005372, 2.4996614 
2.1879631e+2, 9.370972e+1, 219140.38, -38656.664, 277.03513, -0.0129745025, -0.0049909083, 219140.67, 219140.67, 0.0, 2.5005317, 2.4996777 
2.1879628e+2, 9.6209395e+1, 215876.86, -40222.85, 745.0178, -0.01270759, -0.004593818, 215879.03, 215879.03, 0.0, 2.5005262, 2.4996777 
2.1879625e+2, 9.8709077e+1, 212482.1, -41852.246, 1208.5865, -0.0124775395, -0.004207254, 212487.84, 212487.84, 0.0, 2.5005202, 2.4996777 
2.2129744e+2, 1.2491457e+0, -159439.77, -840487.8, 1420.6887, 0.007267607, -0.00021777175, -159436.8, -159436.8, 0.0, 2.5005481, 2.4982936 
2.2129746e+2, 3.7474373e+0, -163764.5, -842906.9, 1917.0103, 0.007825948, -0.00065355026, -163759.08, -163759.08, 0.0, 2.500541, 2.498293 
2.2129747e+2, 6.245729e+0, -167885.67, -844900.94, 2485.0383, 0.008396416, -0.0010896414, -167876.55, -167876.55, 0.0, 2.500534, 2.498293 
2.2129749e+2, 8.7440205e+0, -172008.14, -846895.6, 3052.9219, 0.008979011, -0.0015260451, -171994.34, -171994.34, 0.0, 2.500527, 2.498293 
2.2129749e+2, 1.1242397e+1, -129440.97, -758673.8, 1020.9718, 0.008538912, -0.0008547019, -129439.31, -129439.31, 0.0, 2.5005271, 2.498444 
2.2129746e+2, 1.3740858e+1, -125051.57, -756178.44, 876.11145, 0.007230751, 0.00053780526, -125050.36, -125050.36, 0.0, 2.5005343, 2.498445 
2.2129743e+2, 1.6239321e+1, -120920.72, -754216.94, 1194.0502, 0.0059329094, 0.0019319047, -120918.46, -120918.46, 0.0, 2.5005414, 2.4984448 
2.2129741e+2, 1.8737781e+1, -116791.54, -752256.25, 1511.1421, 0.004645172, 0.0033280733, -116787.945, -116787.945, 0.0, 2.5005486, 2.4984448 
2.212974e+2, 2.1236297e+1, -73003.234, -663195.2, 5730.512, 0.0033947404, 0.0028365103, -72947.6, -72947.6, 0.0, 2.5005505, 2.4985967 
2.212974e+2, 2.3734869e+1, -74743.25, -663372.8, 5599.155, 0.0022229282, -0.00022435703, -74690.0, -74690.0, 0.0, 2.500547, 2.498598 
2.2129738e+2, 2.6233438e+1, -76927.305, -664469.2, 6202.052, 0.0010586489, -0.0032862276, -76861.84, -76861.84, 0.0, 2.500543, 2.498598 
2.2129738e+2, 2.8732008e+1, -79112.695, -665566.2, 6804.024, -0.000098172495, -0.0063474346, -79033.766, -79033.766, 0.0, 2.5005395, 2.4985979 
2.2129738e+2, 3.1230655e+1, -40282.793, -586425.6, 5212.1445, -0.00051237346, -0.008103055, -40233.055, -40233.055, 0.0, 2.5005412, 2.4987328 
2.2129738e+2, 3.3729377e+1, -36252.48, -583505.25, 4871.0747, -0.000010722433, -0.009502631, -36209.125, -36209.125, 0.0, 2.500547, 2.498735 
2.2129737e+2, 3.62281e+1, -32873.82, -581931.2, 5330.479, 0.000496536, -0.010905156, -32822.074, -32822.074, 0.0, 2.500553, 2.498735 
2.2129737e+2, 3.8726822e+1, -29497.145, -580358.06, 5788.6445, 0.001008841, -0.012307111, -29436.322, -29436.322, 0.0, 2.5005589, 2.4987347 
2.2129735e+2, 4.1225636e+1, 12114.228, -494616.0, 9854.607, 0.00045493094, -0.011974712, 12305.803, 12305.803, 0.0, 2.5005596, 2.4988816 
2.2129735e+2, 4.3724528e+1, 9903.318, -494192.7, 9253.283, -0.0013135297, -0.011037916, 10073.116, 10073.116, 0.0, 2.500554, 2.498885 
2.2129734e+2, 4.6223426e+1, 6721.0283, -495779.72, 9368.466, -0.0030799406, -0.010108022, 6895.6304, 6895.6304, 0.0, 2.5005486, 2.4988847 
2.2129732e+2, 4.872232e+1, 3536.606, -497367.78, 9482.535, -0.004843702, -0.009179612, 3716.054, 3716.054, 0.0, 2.5005434, 2.4988847 
2.2129732e+2, 5.122129e+1, 48518.883, -405085.38, 5249.906, -0.0050472803, -0.00870423, 48579.633, 48579.633, 0.0, 2.5005445, 2.4990423 
2.2129731e+2, 5.372032e+1, 53959.625, -400355.63, 4664.386, -0.003597775, -0.010250301, 54007.508, 54007.508, 0.0, 2.5005517, 2.499047 
2.2129731e+2, 5.621935e+1, 58047.637, -398427.44, 4598.5864, -0.0021432664, -0.011808307, 58093.96, 58093.96, 0.0, 2.5005586, 2.499047 
2.212973e+2, 5.8718383e+1, 62133.348, -396500.34, 4531.7813, -0.0006841129, -0.013369758, 62178.12, 62178.12, 0.0, 2.5005658, 2.4990468 
2.2129728e+2, 6.12175e+1, 102102.44, -313534.1, 7290.1333, -0.0012934322, -0.013519829, 102230.26, 102230.26, 0.0, 2.5005658, 2.4991891 
2.2129722e+2, 6.371669e+1, 99184.07, -312090.06, 7197.7603, -0.004339841, -0.013834908, 99310.0, 99310.0, 0.0, 2.5005577, 2.4991956 
2.2129719e+2, 6.621588e+1, 94453.914, -314400.4, 7091.1543, -0.007388183, -0.014159991, 94576.87, 94576.87, 0.0, 2.5005496, 2.4991956 
2.2129716e+2, 6.871508e+1, 89721.055, -316712.1, 6983.648, -0.010436642, -0.014485143, 89841.016, 89841.016, 0.0, 2.5005417, 2.4991956 
2.2129713e+2, 7.1214354e+1, 130871.32, -230679.64, 1802.1497, -0.010728377, -0.013352249, 130880.305, 130880.305, 0.0, 2.500541, 2.4993434 
2.2129712e+2, 7.3713714e+1, 137042.06, -223728.33, 2176.2297, -0.008804741, -0.012740987, 137055.2, 137055.2, 0.0, 2.5005474, 2.4993522 
2.212971e+2, 7.6213074e+1, 140698.98, -221989.22, 2057.9417, -0.006880848, -0.012141098, 140710.66, 140710.66, 0.0, 2.5005536, 2.4993522 
2.2129709e+2, 7.8712434e+1, 144352.19, -220251.9, 1939.3379, -0.00495249, -0.011539027, 144362.5, 144362.5, 0.0, 2.5005598, 2.4993522 
2.2129704e+2, 8.121187e+1, 187614.7, -128923.195, 3121.4868, -0.005306005, -0.0101077575, 187645.48, 187645.48, 0.0, 2.5005584, 2.4995098 
2.21297e+2, 8.3711404e+1, 184514.73, -125020.266, 3837.2947, -0.00813071, -0.009153152, 184562.3, 184562.3, 0.0, 2.5005472, 2.499522 
2.2129695e+2, 8.621093e+1, 178017.28, -128158.49, 3471.1274, -0.010946956, -0.008202435, 178056.63, 178056.63, 0.0, 2.500536, 2.4995217 
2.212969e+2, 8.8710463e+1, 171514.47, -131299.3, 3104.6274, -0.013753899, -0.007246358, 171546.3, 171546.3, 0.0, 2.500525, 2.4995217 
2.2129686e+2, 9.1210073e+1, 209245.9, -49909.258, -428.6182, -0.01377989, -0.0045289826, 209246.61, 209246.61, 0.0, 2.5005217, 2.499663 
2.2129683e+2, 9.3709755e+1, 215628.5, -39466.945, 888.84534, -0.013832213, -0.004248576, 215631.6, 215631.6, 0.0, 2.5005248, 2.4996796 
2.212968e+2, 9.6209437e+1, 217378.19, -38622.313, 816.1629, -0.013907723, -0.003999735, 217380.8, 217380.8, 0.0, 2.5005276, 2.4996796 
2.2129676e+2, 9.870911e+1, 219118.11, -37782.39, 743.8226, -0.013983457, -0.003750184, 219120.27, 219120.27, 0.0, 2.5005307, 2.4996796 
2.2379802e+2, 1.2491498e+0, -158374.84, -838275.9, 352.03235, 0.010529186, 0.0000002824373, -158374.66, -158374.66, 0.0, 2.5005481, 2.4982975 
2.2379802e+2, 3.7474495e+0, -162702.8, -840702.75, 847.92633, 0.009972073, 0.0000006863714, -162701.75, -162701.75, 0.0, 2.500541, 2.4982967 
2.2379802e+2, 6.245749e+0, -166824.44, -842698.94, 1417.9633, 0.0094209, 0.0000008764509, -166821.47, -166821.47, 0.0, 2.500534, 2.4982967 
2.23798e+2, 8.744049e+0, -170947.38, -844695.7, 1987.8556, 0.008875667, 0.000000852551, -170941.52, -170941.52, 0.0, 2.500527, 2.4982967 
2.23798e+2, 1.1242426e+1, -128827.32, -757417.3, 2120.7563, 0.008400979, 0.00034662374, -128820.164, -128820.164, 0.0, 2.5005271, 2.4984462 
2.23798e+2, 1.3740878e+1, -124439.016, -754929.3, 1947.2126, 0.008162966, 0.00064994337, -124433.01, -124433.01, 0.0, 2.5005343, 2.4984472 
2.2379799e+2, 1.623933e+1, -120305.77, -752967.8, 2267.4246, 0.007929944, 0.0009539617, -120297.64, -120297.64, 0.0, 2.5005414, 2.498447 
2.2379799e+2, 1.8737784e+1, -116174.2, -751007.2, 2586.7896, 0.007701694, 0.0012591556, -116163.664, -116163.664, 0.0, 2.5005486, 2.498447 
2.2379798e+2, 2.1236299e+1, -71841.266, -660832.4, 5216.8984, 0.0067263986, 0.00041424442, -71795.06, -71795.06, 0.0, 2.5005507, 2.4986007 
2.2379796e+2, 2.3734878e+1, -73572.82, -660997.9, 5033.7925, 0.0050472887, -0.0022387533, -73529.69, -73529.69, 0.0, 2.500547, 2.4986022 
2.2379795e+2, 2.6233456e+1, -75755.91, -662097.56, 5638.344, 0.0033713141, -0.004893047, -75701.69, -75701.69, 0.0, 2.5005434, 2.498602 
2.2379795e+2, 2.8732032e+1, -77940.32, -663197.94, 6241.9707, 0.0016983628, -0.007547, -77873.76, -77873.76, 0.0, 2.5005395, 2.498602 
2.2379793e+2, 3.123069e+1, -39360.81, -584611.3, 6167.938, 0.0009605485, -0.0088238735, -39291.047, -39291.047, 0.0, 2.5005412, 2.498736 
2.2379793e+2, 3.372942e+1, -35307.6, -581649.6, 5748.989, 0.0013237447, -0.009659239, -35247.113, -35247.113, 0.0, 2.5005472, 2.498738 
2.2379793e+2, 3.6228153e+1, -31927.602, -580078.9, 6210.154, 0.0016882215, -0.010497676, -31857.254, -31857.254, 0.0, 2.500553, 2.498738 
2.2379793e+2, 3.8726884e+1, -28549.588, -578509.06, 6670.08, 0.00205344, -0.011335702, -28468.703, -28468.703, 0.0, 2.5005589, 2.4987378 
2.2379793e+2, 4.1225696e+1, 12424.136, -494117.75, 9108.056, 0.0016020099, -0.0110594155, 12587.854, 12587.854, 0.0, 2.5005596, 2.4988823 
2.2379792e+2, 4.3724588e+1, 10237.115, -493650.34, 8432.235, 0.00020213002, -0.010842024, 10378.184, 10378.184, 0.0, 2.5005543, 2.4988856 
2.237979e+2, 4.6223477e+1, 7055.717, -495240.88, 8548.974, -0.0011997533, -0.010631164, 7201.1763, 7201.1763, 0.0, 2.5005488, 2.4988856 
2.237979e+2, 4.8722363e+1, 3872.1863, -496832.4, 8664.598, -0.0026030692, -0.010421241, 4022.0806, 4022.0806, 0.0, 2.5005434, 2.4988854 
2.2379789e+2, 5.122133e+1, 48502.598, -405315.3, 6370.8027, -0.0030976469, -0.010083285, 48592.016, 48592.016, 0.0, 2.5005448, 2.4990418 
2.2379787e+2, 5.3720367e+1, 53995.03, -400483.75, 5727.601, -0.0026188102, -0.0111773405, 54067.2, 54067.2, 0.0, 2.500552, 2.4990468 
2.2379786e+2, 5.6219405e+1, 58083.297, -398560.34, 5663.4497, -0.0021392195, -0.012282376, 58153.523, 58153.523, 0.0, 2.5005589, 2.4990466 
2.2379786e+2, 5.8718437e+1, 62169.26, -396638.03, 5598.293, -0.0016591677, -0.013389836, 62237.56, 62237.56, 0.0, 2.500566, 2.4990466 
2.2379783e+2, 6.121756e+1, 102044.04, -313888.5, 6149.574, -0.0022591315, -0.0132396165, 102134.945, 102134.945, 0.0, 2.500566, 2.4991884 
2.2379778e+2, 6.3716745e+1, 99165.73, -312366.03, 5975.7207, -0.004260443, -0.013420485, 99252.48, 99252.48, 0.0, 2.500558, 2.499195 
2.2379775e+2, 6.6215944e+1, 94437.664, -314676.66, 5870.7905, -0.0062679145, -0.013610978, 94521.89, 94521.89, 0.0, 2.50055, 2.4991949 
2.2379772e+2, 6.871513e+1, 89706.9, -316988.6, 5764.9595, -0.008279814, -0.013801083, 89788.6, 89788.6, 0.0, 2.500542, 2.4991949 
2.237977e+2, 7.1214414e+1, 130823.336, -231041.25, 2786.7383, -0.008688927, -0.012463797, 130844.8, 130844.8, 0.0, 2.5005412, 2.4993427 
2.2379766e+2, 7.3713773e+1, 137024.1, -224031.55, 3129.7395, -0.008093661, -0.011570041, 137051.22, 137051.22, 0.0, 2.5005476, 2.4993517 
2.2379765e+2, 7.6213133e+1, 140682.08, -222294.05, 3013.5017, -0.0075042276, -0.0106870225, 140707.11, 140707.11, 0.0, 2.5005538, 2.4993515 
2.2379762e+2, 7.8712493e+1, 144336.36, -220558.33, 2896.9485, -0.0069162147, -0.009801196, 144359.36, 144359.36, 0.0, 2.5005603, 2.4993515 
2.2379757e+2, 8.1211936e+1, 187141.31, -130188.26, 1552.0062, -0.0074340166, -0.008472863, 187148.9, 187148.9, 0.0, 2.5005586, 2.4995074 
2.2379753e+2, 8.371146e+1, 184064.33, -126242.555, 2158.843, -0.009241624, -0.008059316, 184079.34, 184079.34, 0.0, 2.5005476, 2.4995196 
2.2379749e+2, 8.6210984e+1, 177571.89, -129375.305, 1795.1226, -0.011048014, -0.007650841, 177582.39, 177582.39, 0.0, 2.5005364, 2.4995196 
2.2379744e+2, 8.8710505e+1, 171074.1, -132510.63, 1431.0695, -0.01285208, -0.007237871, 171080.84, 171080.84, 0.0, 2.5005252, 2.4995196 
2.237974e+2, 9.1210115e+1, 209330.45, -50026.793, 120.74505, -0.012964095, -0.004604944, 209330.52, 209330.52, 0.0, 2.500522, 2.4996629 
2.2379735e+2, 9.37098e+1, 215756.3, -39495.547, 1360.4032, -0.014132654, -0.0039147986, 215763.55, 215763.55, 0.0, 2.500525, 2.4996793 
2.237973e+2, 9.620948e+1, 217508.84, -38645.96, 1293.4468, -0.015337812, -0.0032562637, 217515.38, 217515.38, 0.0, 2.500528, 2.4996793 
2.2379728e+2, 9.8709166e+1, 219251.63, -37801.086, 1226.8323, -0.016557245, -0.002597149, 219257.47, 219257.47, 0.0, 2.500531, 2.4996793 
2.2629862e+2, 1.249154e+0, -157310.19, -836064.44, -716.52325, 0.013791182, 0.00021784469, -157309.44, -157309.44, 0.0, 2.5005481, 2.4983013 
2.2629859e+2, 3.7474617e+0, -161641.9, -838500.3, -220.87451, 0.012119453, 0.0006534472, -161641.84, -161641.84, 0.0, 2.500541, 2.4983006 
2.2629856e+2, 6.245769e+0, -165764.02, -840498.56, 351.17126, 0.010447477, 0.0010889346, -165763.83, -165763.83, 0.0, 2.500534, 2.4983006 
2.2629854e+2, 8.7440777e+0, -169887.4, -842497.44, 923.0723, 0.008775253, 0.0015243067, -169886.14, -169886.14, 0.0, 2.500527, 2.4983006 
2.2629854e+2, 1.12424545e+1, -128218.96, -756171.75, 3223.8376, 0.008259969, 0.0015482276, -128202.41, -128202.41, 0.0, 2.5005271, 2.4984484 
2.2629854e+2, 1.3740899e+1, -123827.31, -753681.9, 3018.9883, 0.00909206, 0.00076013076, -123812.84, -123812.84, 0.0, 2.5005343, 2.4984493 
2.2629856e+2, 1.6239342e+1, -119691.67, -751720.5, 3341.4734, 0.009923832, -0.000028173003, -119674.01, -119674.01, 0.0, 2.5005414, 2.498449 
2.2629857e+2, 1.8737786e+1, -115557.72, -749759.94, 3663.1116, 0.010755041, -0.0008161949, -115536.56, -115536.56, 0.0, 2.5005486, 2.498449 
2.2629857e+2, 2.1236302e+1, -70687.78, -658487.2, 4704.9805, 0.010061064, -0.0020095163, -70650.12, -70650.12, 0.0, 2.5005507, 2.4986045 
2.2629854e+2, 2.3734888e+1, -72403.086, -658624.4, 4469.4336, 0.007876099, -0.0042566364, -72369.01, -72369.01, 0.0, 2.500547, 2.4986062 
2.2629853e+2, 2.6233473e+1, -74585.2, -659727.4, 5075.6396, 0.005689839, -0.0065053776, -74541.18, -74541.18, 0.0, 2.5005434, 2.498606 
2.262985e+2, 2.8732058e+1, -76768.65, -660831.1, 5680.9204, 0.0035021668, -0.008754102, -76713.4, -76713.4, 0.0, 2.5005395, 2.498606 
2.262985e+2, 3.1230724e+1, -38447.152, -582814.25, 7131.1226, 0.0024264997, -0.009545085, -38353.75, -38353.75, 0.0, 2.5005414, 2.498739 
2.262985e+2, 3.3729467e+1, -34363.28, -579795.2, 6628.1626, 0.0026524158, -0.009818045, -34282.746, -34282.746, 0.0, 2.5005472, 2.4987414 
2.262985e+2, 3.6228207e+1, -30981.943, -578227.7, 7091.089, 0.0028753905, -0.01009426, -30890.074, -30890.074, 0.0, 2.5005531, 2.4987411 
2.262985e+2, 3.8726944e+1, -27602.592, -576661.2, 7552.776, 0.0030948026, -0.010370218, -27498.717, -27498.717, 0.0, 2.500559, 2.498741 
2.262985e+2, 4.1225758e+1, 12728.523, -493631.0, 8365.047, 0.0027523898, -0.010146967, 12866.677, 12866.677, 0.0, 2.5005598, 2.498883 
2.2629848e+2, 4.372464e+1, 10570.446, -493109.0, 7612.3726, 0.0017221024, -0.010650623, 10685.47, 10685.47, 0.0, 2.5005543, 2.4988866 
2.2629848e+2, 4.622352e+1, 7389.9395, -494702.97, 7730.6665, 0.00068569754, -0.011160476, 7508.939, 7508.939, 0.0, 2.500549, 2.4988863 
2.2629847e+2, 4.8722407e+1, 4207.3003, -496298.0, 7847.8467, -0.00035622218, -0.011670723, 4330.3228, 4330.3228, 0.0, 2.5005436, 2.4988863 
2.2629845e+2, 5.122137e+1, 48476.023, -405566.63, 7499.2583, -0.0011541147, -0.011461227, 48599.85, 48599.85, 0.0, 2.500545, 2.4990413 
2.2629844e+2, 5.3720415e+1, 54029.83, -400613.13, 6792.056, -0.0016448307, -0.012105274, 54131.273, 54131.273, 0.0, 2.5005522, 2.4990463 
2.2629842e+2, 5.621945e+1, 58118.348, -398694.5, 6729.5527, -0.002138897, -0.012759461, 58217.46, 58217.46, 0.0, 2.500559, 2.4990463 
2.262984e+2, 5.8718497e+1, 62204.563, -396776.97, 6666.044, -0.002636686, -0.013415052, 62301.36, 62301.36, 0.0, 2.5005662, 2.499046 
2.2629839e+2, 6.121761e+1, 101979.23, -314256.28, 5011.609, -0.003221168, -0.01295902, 102039.555, 102039.555, 0.0, 2.5005662, 2.4991877 
2.2629836e+2, 6.371681e+1, 99146.695, -312643.47, 4754.4995, -0.0041781687, -0.013007804, 99201.586, 99201.586, 0.0, 2.5005584, 2.4991944 
2.2629832e+2, 6.6216004e+1, 94420.734, -314954.34, 4651.2446, -0.0051456247, -0.013065909, 94473.57, 94473.57, 0.0, 2.5005503, 2.4991944 
2.2629829e+2, 6.8715197e+1, 89692.06, -317266.5, 4547.0894, -0.0061218212, -0.013123173, 89742.87, 89742.87, 0.0, 2.5005422, 2.4991944 
2.2629826e+2, 7.121448e+1, 130766.9, -231420.44, 3772.3474, -0.0066443607, -0.011575719, 130806.19, 130806.19, 0.0, 2.5005414, 2.499342 
2.2629823e+2, 7.371384e+1, 137005.5, -224336.08, 4083.7014, -0.0073782313, -0.010401253, 137051.64, 137051.64, 0.0, 2.500548, 2.499351 
2.262982e+2, 7.6213205e+1, 140664.56, -222600.16, 3969.514, -0.008124071, -0.0092369765, 140707.94, 140707.94, 0.0, 2.500554, 2.499351 
2.2629817e+2, 7.8712565e+1, 144319.92, -220866.05, 3855.011, -0.008877216, -0.008069269, 144360.61, 144360.61, 0.0, 2.5005605, 2.4993508 
2.2629812e+2, 8.1211996e+1, 186658.86, -131472.16, -18.688944, -0.0095569175, -0.006838031, 186658.86, 186658.86, 0.0, 2.5005589, 2.499505 
2.2629806e+2, 8.371151e+1, 183613.2, -127466.37, 480.21555, -0.0103520965, -0.0069685746, 183613.95, 183613.95, 0.0, 2.500548, 2.4995174 
2.2629802e+2, 8.621103e+1, 177125.78, -130593.65, 118.94191, -0.011153334, -0.007105481, 177125.83, 177125.83, 0.0, 2.5005367, 2.4995174 
2.2629797e+2, 8.8710546e+1, 170633.0, -133723.5, -242.66426, -0.011959229, -0.007238759, 170633.19, 170633.19, 0.0, 2.5005255, 2.4995174 
2.2629793e+2, 9.121015e+1, 209391.44, -50193.34, 663.16095, -0.01212117, -0.004673316, 209393.13, 209393.13, 0.0, 2.5005224, 2.4996624 
2.2629787e+2, 9.370984e+1, 215883.55, -39525.3, 1831.305, -0.014409702, -0.0035769546, 215896.67, 215896.67, 0.0, 2.5005252, 2.499679 
2.2629783e+2, 9.6209526e+1, 217638.95, -38670.76, 1770.0745, -0.016748814, -0.0025125365, 217651.17, 217651.17, 0.0, 2.5005283, 2.4996793 
2.2629778e+2, 9.870922e+1, 219384.58, -37820.93, 1709.1858, -0.019116247, -0.0014476695, 219395.94, 219395.94, 0.0, 2.5005314, 2.4996793 
2.287992e+2, 1.249158e+0, -159236.5, -835296.6, -1790.3588, 0.017056623, 0.0004346934, -159231.77, -159231.77, 0.0, 2.500543, 2.498305 
2.2879915e+2, 3.747474e+0, -163336.9, -837629.0, -1307.1122, 0.01427111, 0.0013040738, -163334.38, -163334.38, 0.0, 2.5005364, 2.4983044 
2.287991e+2, 6.24579e+0, -167262.58, -839534.5, -745.35645, 0.011479456, 0.0021734466, -167261.77, -167261.77, 0.0, 2.5005295, 2.4983044 
2.2879906e+2, 8.744105e+0, -171228.28, -841459.25, -183.71933, 0.00868166, 0.0030428113, -171228.23, -171228.23, 0.0, 2.5005229, 2.4983044 
2.2879906e+2, 1.1242482e+1, -129922.43, -756050.0, 4278.963, 0.00811976, 0.0027484687, -129893.19, -129893.19, 0.0, 2.5005233, 2.4984505 
2.2879909e+2, 1.3740917e+1, -125491.74, -753534.06, 4030.7007, 0.010021264, 0.0008669146, -125465.875, -125465.875, 0.0, 2.5005305, 2.4984515 
2.2879912e+2, 1.6239353e+1, -121358.27, -751575.0, 4341.1616, 0.011917411, -0.00101572, -121328.375, -121328.375, 0.0, 2.5005376, 2.4984512 
2.2879915e+2, 1.8737787e+1, -117262.305, -749634.0, 4645.965, 0.013807923, -0.0028989222, -117228.17, -117228.17, 0.0, 2.5005448, 2.4984512 
2.2879915e+2, 2.1236303e+1, -71744.65, -657222.3, 4075.484, 0.013401324, -0.004435685, -71716.28, -71716.28, 0.0, 2.500547, 2.4986086 
2.2879912e+2, 2.3734897e+1, -73154.75, -657179.5, 3754.6343, 0.010711785, -0.006279129, -73130.62, -73130.62, 0.0, 2.5005438, 2.4986103 
2.2879909e+2, 2.623349e+1, -75087.12, -658166.06, 4327.458, 0.008016665, -0.008124501, -75055.0, -75055.0, 0.0, 2.5005405, 2.49861 
2.2879906e+2, 2.8732085e+1, -77053.2, -659168.9, 4896.491, 0.0053158766, -0.009970128, -77012.016, -77012.016, 0.0, 2.5005372, 2.49861 
2.2879905e+2, 3.123076e+1, -38822.676, -581652.5, 7840.0996, 0.003888171, -0.01026828, -38709.465, -38709.465, 0.0, 2.5005393, 2.4987419 
2.2879906e+2, 3.372951e+1, -34562.496, -578493.44, 7210.9473, 0.003977848, -0.009980942, -34466.918, -34466.918, 0.0, 2.5005455, 2.4987445 
2.2879906e+2, 3.6228257e+1, -31073.943, -576878.25, 7637.4585, 0.0040606423, -0.0096970685, -30967.094, -30967.094, 0.0, 2.5005515, 2.4987442 
2.2879907e+2, 3.8727006e+1, -27619.404, -575279.5, 8060.6113, 0.0041357437, -0.009413067, -27500.791, -27500.791, 0.0, 2.5005574, 2.498744 
2.2879907e+2, 4.1225824e+1, 12247.529, -493531.28, 7220.6587, 0.003908634, -0.009239615, 12350.593, 12350.593, 0.0, 2.5005586, 2.4988837 
2.2879906e+2, 4.3724698e+1, 10402.109, -492809.94, 6370.358, 0.0032483335, -0.010465392, 10482.741, 10482.741, 0.0, 2.5005538, 2.4988873 
2.2879905e+2, 4.6223572e+1, 7446.0723, -494299.7, 6468.934, 0.0025780357, -0.011697054, 7529.4614, 7529.4614, 0.0, 2.5005488, 2.4988873 
2.2879903e+2, 4.872245e+1, 4432.8174, -495817.03, 6563.542, 0.0018984375, -0.012928546, 4518.9194, 4518.9194, 0.0, 2.5005436, 2.498887 
2.2879902e+2, 5.122141e+1, 48427.395, -405844.63, 8131.604, 0.00078499946, -0.012838208, 48572.906, 48572.906, 0.0, 2.5005453, 2.4990408 
2.28799e+2, 5.3720456e+1, 54089.297, -400731.28, 7308.338, -0.0006741205, -0.013034165, 54206.7, 54206.7, 0.0, 2.5005524, 2.499046 
2.2879899e+2, 5.62195e+1, 58167.992, -398822.3, 7199.657, -0.0021404123, -0.013239503, 58281.395, 58281.395, 0.0, 2.5005593, 2.499046 
2.2879897e+2, 5.871855e+1, 62197.242, -396937.16, 7087.904, -0.0036144725, -0.01344519, 62306.637, 62306.637, 0.0, 2.5005665, 2.4990458 
2.2879894e+2, 6.121767e+1, 101882.14, -314648.38, 3190.2502, -0.004177514, -0.01267751, 101906.57, 101906.57, 0.0, 2.5005665, 2.499187 
2.2879891e+2, 6.3716865e+1, 99188.17, -312891.4, 2818.9053, -0.004091526, -0.012595871, 99207.46, 99207.46, 0.0, 2.5005586, 2.499194 
2.287989e+2, 6.621606e+1, 94493.03, -315188.75, 2684.5337, -0.004020053, -0.012523334, 94510.62, 94510.62, 0.0, 2.5005505, 2.4991937 
2.2879885e+2, 6.8715256e+1, 89736.84, -317515.5, 2545.6833, -0.003961328, -0.012449502, 89752.76, 89752.76, 0.0, 2.5005424, 2.4991937 
2.287988e+2, 7.121454e+1, 130634.97, -231847.0, 3942.2986, -0.004593383, -0.010685538, 130677.84, 130677.84, 0.0, 2.5005417, 2.499341 
2.2879878e+2, 7.37139e+1, 136677.73, -224787.89, 4198.6143, -0.006657283, -0.009231514, 136726.5, 136726.5, 0.0, 2.5005476, 2.4993503 
2.2879875e+2, 7.6213264e+1, 140016.78, -223208.11, 4066.4998, -0.008738974, -0.0077873156, 140062.3, 140062.3, 0.0, 2.5005534, 2.4993503 
2.287987e+2, 7.871263e+1, 143272.5, -221668.47, 3936.9194, -0.010833496, -0.006339147, 143314.97, 143314.97, 0.0, 2.500559, 2.4993503 
2.2879866e+2, 8.121206e+1, 184858.19, -133400.25, -2454.5115, -0.011672622, -0.005198655, 184877.11, 184877.11, 0.0, 2.500557, 2.4995027 
2.287986e+2, 8.371157e+1, 181712.31, -129384.55, -2027.0784, -0.011460502, -0.0058756988, 181725.53, 181725.53, 0.0, 2.5005457, 2.499515 
2.2879855e+2, 8.6211073e+1, 175009.86, -132612.42, -2355.798, -0.011261386, -0.006560545, 175027.9, 175027.9, 0.0, 2.500534, 2.499515 
2.2879851e+2, 8.871059e+1, 168221.81, -135881.53, -2690.135, -0.011073544, -0.0072426717, 168245.61, 168245.61, 0.0, 2.5005224, 2.499515 
2.2879846e+2, 9.121019e+1, 206997.03, -51572.84, 469.43674, -0.011249351, -0.00472739, 206997.89, 206997.89, 0.0, 2.5005186, 2.499662 
2.287984e+2, 9.3709886e+1, 212839.72, -41076.387, 1633.5609, -0.014661262, -0.0032282495, 212850.23, 212850.23, 0.0, 2.5005202, 2.499679 
2.2879834e+2, 9.620958e+1, 213637.55, -40679.887, 1630.8286, -0.018137084, -0.0017618745, 213648.0, 213648.0, 0.0, 2.5005217, 2.499679 
2.2879829e+2, 9.870927e+1, 214203.92, -40394.848, 1620.0199, -0.021654064, -0.0002953833, 214214.22, 214214.22, 0.0, 2.5005226, 2.499679 
2.3129973e+2, 1.24915935e+0, -175284.92, -842131.6, -2150.4348, 0.018167567, 0.0004685819, -175277.98, -175277.98, 0.0, 2.5005145, 2.4983072 
2.3129968e+2, 3.747478e+0, -172642.64, -841219.7, -2179.3652, 0.015763741, 0.0014060104, -172635.53, -172635.53, 0.0, 2.5005195, 2.4983063 
2.3129965e+2, 6.2457967e+0, -169783.88, -839856.6, -2127.9717, 0.013369121, 0.0023437925, -169777.11, -169777.11, 0.0, 2.5005243, 2.4983063 
2.3129961e+2, 8.7441146e+0, -166925.97, -838493.94, -2076.8179, 0.010983707, 0.0032819281, -166919.55, -166919.55, 0.0, 2.5005293, 2.4983063 
2.3129961e+2, 1.1242495e+1, -124358.484, -751725.1, 2926.8655, 0.010446035, 0.0029993863, -124344.83, -124344.83, 0.0, 2.500531, 2.498454 
2.3129964e+2, 1.3740933e+1, -125179.875, -751747.3, 3105.0457, 0.011982226, 0.0010770013, -125164.484, -125164.484, 0.0, 2.5005293, 2.498455 
2.3129967e+2, 1.6239372e+1, -126264.336, -752314.2, 3882.3032, 0.013526192, -0.0008437108, -126240.26, -126240.26, 0.0, 2.5005274, 2.4984548 
2.3129968e+2, 1.8737811e+1, -127349.58, -752881.4, 4658.9165, 0.015077652, -0.00276224, -127314.88, -127314.88, 0.0, 2.5005257, 2.4984548 
2.312997e+2, 2.1236329e+1, -83256.82, -661861.9, 3692.5361, 0.014697013, -0.0042906585, -83233.25, -83233.25, 0.0, 2.5005262, 2.4986107 
2.3129967e+2, 2.3734924e+1, -81564.33, -660310.8, 2789.805, 0.012442315, -0.0060962797, -81550.88, -81550.88, 0.0, 2.5005283, 2.4986122 
2.3129964e+2, 2.623352e+1, -80376.17, -659803.1, 2845.8618, 0.010191149, -0.0079010455, -80362.195, -80362.195, 0.0, 2.5005305, 2.4986122 
2.3129962e+2, 2.8732118e+1, -79189.21, -659295.94, 2900.7957, 0.0079433145, -0.009703247, -79174.7, -79174.7, 0.0, 2.5005326, 2.498612 
2.3129961e+2, 3.1230792e+1, -40908.324, -581502.1, 6230.0693, 0.0065036523, -0.010024006, -40836.535, -40836.535, 0.0, 2.5005345, 2.4987445 
2.3129962e+2, 3.372954e+1, -39811.613, -579828.4, 5446.0303, 0.006097353, -0.009833902, -39756.695, -39756.695, 0.0, 2.500535, 2.498747 
2.3129962e+2, 3.6228293e+1, -39483.066, -579744.8, 5801.3604, 0.005693293, -0.00964626, -39420.777, -39420.777, 0.0, 2.5005357, 2.4987469 
2.3129962e+2, 3.8727042e+1, -39155.91, -579661.94, 6155.329, 0.0052907052, -0.009457452, -39085.82, -39085.82, 0.0, 2.5005364, 2.4987466 
2.3129962e+2, 4.1225865e+1, 1031.2917, -497949.16, 4886.3486, 0.0048974417, -0.009225105, 1079.1376, 1079.1376, 0.0, 2.5005383, 2.498886 
2.3129961e+2, 4.3724743e+1, 3225.1506, -495218.5, 4430.2764, 0.0044431835, -0.010261313, 3264.5247, 3264.5247, 0.0, 2.5005403, 2.4988897 
2.3129961e+2, 4.6223626e+1, 4317.47, -494767.4, 5008.1567, 0.003993393, -0.011303356, 4367.72, 4367.72, 0.0, 2.5005422, 2.4988897 
2.312996e+2, 4.8722503e+1, 5407.575, -494317.38, 5584.6997, 0.0035485602, -0.012345054, 5469.9795, 5469.9795, 0.0, 2.5005443, 2.4988894 
2.3129958e+2, 5.122147e+1, 48672.84, -405667.88, 8356.825, 0.002324184, -0.012174368, 48826.496, 48826.496, 0.0, 2.5005455, 2.4990408 
2.3129956e+2, 5.372051e+1, 50144.08, -402501.38, 7725.1284, 0.00037263162, -0.012419114, 50275.883, 50275.883, 0.0, 2.5005455, 2.4990463 
2.3129953e+2, 5.621956e+1, 50030.074, -402620.78, 7872.8354, -0.0015795344, -0.012672651, 50166.965, 50166.965, 0.0, 2.5005453, 2.4990463 
2.3129952e+2, 5.8718604e+1, 49913.91, -402741.2, 8019.4077, -0.0035327694, -0.012925821, 50055.94, 50055.94, 0.0, 2.5005453, 2.499046 
2.312995e+2, 6.1217725e+1, 90654.91, -319622.78, 3694.124, -0.004253087, -0.012121966, 90688.17, 90688.17, 0.0, 2.5005467, 2.499188 
2.3129947e+2, 6.3716924e+1, 94186.79, -314796.13, 3799.7295, -0.0039737113, -0.011949398, 94222.086, 94222.086, 0.0, 2.5005496, 2.4991949 
2.3129945e+2, 6.621612e+1, 95726.984, -314099.28, 4207.5728, -0.0036930263, -0.011787698, 95770.18, 95770.18, 0.0, 2.5005522, 2.4991949 
2.3129942e+2, 6.8715316e+1, 97264.62, -313403.7, 4614.4688, -0.003409317, -0.011626287, 97316.46, 97316.46, 0.0, 2.5005548, 2.4991949 
2.3129937e+2, 7.12146e+1, 137934.31, -228375.11, 6901.63, -0.004138392, -0.009723407, 138064.3, 138064.3, 0.0, 2.5005543, 2.499341 
2.3129933e+2, 7.3713964e+1, 137799.38, -224242.86, 7293.409, -0.006652104, -0.008094209, 137946.25, 137946.25, 0.0, 2.5005496, 2.4993503 
2.3129928e+2, 7.6213336e+1, 135011.77, -225612.0, 7335.127, -0.009166754, -0.006480043, 135160.9, 135160.9, 0.0, 2.5005448, 2.4993503 
2.3129924e+2, 7.87127e+1, 132220.88, -226982.72, 7376.295, -0.0116772, -0.0048669954, 132372.28, 132372.28, 0.0, 2.50054, 2.4993503 
2.3129919e+2, 8.121213e+1, 174626.27, -138844.9, 680.1205, -0.01256992, -0.003661818, 174627.75, 174627.75, 0.0, 2.50054, 2.4995017 
2.3129915e+2, 8.371163e+1, 180808.58, -130321.32, 1228.5759, -0.012098594, -0.0043950174, 180813.44, 180813.44, 0.0, 2.5005445, 2.499514 
2.3129909e+2, 8.6211145e+1, 183507.47, -129027.805, 1065.1378, -0.011622797, -0.005137629, 183511.11, 183511.11, 0.0, 2.5005493, 2.4995139 
2.3129904e+2, 8.871065e+1, 186202.02, -127736.375, 901.52936, -0.011140351, -0.005878966, 186204.61, 186204.61, 0.0, 2.5005538, 2.4995139 
2.3129898e+2, 9.121025e+1, 225113.81, -43330.977, 3570.388, -0.011380403, -0.0034088972, 225161.3, 225161.3, 0.0, 2.50055, 2.4996607 
2.3129892e+2, 9.370994e+1, 221159.25, -37562.31, 4070.244, -0.015175626, -0.0019972692, 221223.28, 221223.28, 0.0, 2.500535, 2.499678 
2.3129885e+2, 9.6209633e+1, 212369.95, -41800.645, 3527.7122, -0.018980106, -0.0006269444, 212418.9, 212418.9, 0.0, 2.50052, 2.499678 
2.3129879e+2, 9.870932e+1, 203566.94, -46045.574, 2986.1504, -0.022771211, 0.00073539384, 203602.66, 203602.66, 0.0, 2.5005047, 2.499678 
2.3380023e+2, 1.2491584e+0, -175179.0, -841912.3, -1408.9539, 0.016919518, 0.0003464319, -175176.03, -175176.03, 0.0, 2.5005145, 2.4983075 
2.3380022e+2, 3.7474748e+0, -172537.64, -841003.8, -1438.2764, 0.016350208, 0.0010396679, -172534.55, -172534.55, 0.0, 2.5005195, 2.4983068 
2.338002e+2, 6.2457913e+0, -169678.48, -839641.44, -1385.5818, 0.015786342, 0.001733401, -169675.61, -169675.61, 0.0, 2.5005243, 2.4983068 
2.3380019e+2, 8.744108e+0, -166820.19, -838279.5, -1333.1271, 0.015227925, 0.002427631, -166817.53, -166817.53, 0.0, 2.5005293, 2.4983065 
2.3380019e+2, 1.1242494e+1, -122892.73, -748698.44, 2682.4204, 0.0147867985, 0.0024865647, -122881.23, -122881.23, 0.0, 2.5005312, 2.4984593 
2.3380019e+2, 1.3740946e+1, -123712.08, -748720.4, 2827.4856, 0.014648042, 0.0015160596, -123699.28, -123699.28, 0.0, 2.5005293, 2.4984603 
2.338002e+2, 1.62394e+1, -124795.15, -749288.25, 3605.9036, 0.014514452, 0.0005473166, -124774.33, -124774.33, 0.0, 2.5005274, 2.49846 
2.338002e+2, 1.8737853e+1, -125879.01, -749856.56, 4383.6772, 0.01438579, -0.00041918104, -125848.21, -125848.21, 0.0, 2.5005257, 2.49846 
2.3380022e+2, 2.1236378e+1, -83098.6, -661593.1, 4077.0154, 0.013788285, -0.0016063098, -83069.87, -83069.87, 0.0, 2.5005264, 2.498611 
2.338002e+2, 2.3734972e+1, -81399.16, -660034.9, 3103.1282, 0.012894202, -0.0037030962, -81382.516, -81382.516, 0.0, 2.5005283, 2.4986126 
2.3380019e+2, 2.6233566e+1, -80208.48, -659529.06, 3160.343, 0.012001128, -0.0057993005, -80191.24, -80191.24, 0.0, 2.5005305, 2.4986126 
2.3380019e+2, 2.873216e+1, -79019.0, -659023.8, 3216.4353, 0.0111086015, -0.007893179, -79001.164, -79001.164, 0.0, 2.5005326, 2.4986124 
2.3380019e+2, 3.123083e+1, -40167.723, -580079.7, 6392.8003, 0.0099866595, -0.008714381, -40092.04, -40092.04, 0.0, 2.5005345, 2.4987469 
2.3380017e+2, 3.3729577e+1, -39046.875, -578364.4, 5538.445, 0.0087548345, -0.009222144, -38990.004, -38990.004, 0.0, 2.5005352, 2.4987495 
2.3380017e+2, 3.6228326e+1, -38715.9, -578284.1, 5894.8867, 0.0075221653, -0.009732341, -38651.504, -38651.504, 0.0, 2.500536, 2.4987493 
2.3380017e+2, 3.872707e+1, -38386.313, -578204.56, 6249.968, 0.006288204, -0.010241372, -38313.96, -38313.96, 0.0, 2.5005364, 2.4987493 
2.3380017e+2, 4.1225892e+1, 2198.0938, -495704.47, 5263.1274, 0.0054756403, -0.009856933, 2253.722, 2253.722, 0.0, 2.5005386, 2.4988897 
2.3380016e+2, 4.3724784e+1, 4453.2524, -492854.22, 4722.387, 0.005139081, -0.009881801, 4498.092, 4498.092, 0.0, 2.5005405, 2.4988937 
2.3380016e+2, 4.6223682e+1, 5547.678, -492406.22, 5301.892, 0.004803322, -0.009912087, 5604.1226, 5604.1226, 0.0, 2.5005424, 2.4988935 
2.3380014e+2, 4.8722577e+1, 6639.889, -491959.28, 5880.06, 0.004468318, -0.009941583, 6709.2236, 6709.2236, 0.0, 2.5005443, 2.4988933 
2.3380013e+2, 5.1221544e+1, 49110.266, -404993.7, 8388.866, 0.0033298437, -0.009529274, 49265.184, 49265.184, 0.0, 2.5005457, 2.499042 
2.3380011e+2, 5.372059e+1, 50611.984, -401770.78, 7705.32, 0.0013408372, -0.010306284, 50743.188, 50743.188, 0.0, 2.5005457, 2.4990475 
2.338001e+2, 5.6219625e+1, 50499.813, -401893.03, 7854.5957, -0.0006534981, -0.011091416, 50636.145, 50636.145, 0.0, 2.5005455, 2.4990473 
2.3380007e+2, 5.8718663e+1, 50385.48, -402016.3, 8002.737, -0.0026530346, -0.011875567, 50527.0, 50527.0, 0.0, 2.5005455, 2.4990473 
2.3380005e+2, 6.121779e+1, 91580.29, -317977.66, 4140.4595, -0.003692577, -0.011324842, 91622.15, 91622.15, 0.0, 2.5005472, 2.4991906 
2.3380002e+2, 6.371699e+1, 95165.77, -313045.47, 4209.041, -0.0039731315, -0.011142299, 95209.164, 95209.164, 0.0, 2.5005498, 2.4991977 
2.338e+2, 6.621619e+1, 96707.33, -312351.5, 4618.5405, -0.0042565074, -0.010970194, 96759.47, 96759.47, 0.0, 2.5005524, 2.4991977 
2.3379996e+2, 6.871539e+1, 98246.32, -311658.75, 5027.0933, -0.004541198, -0.010797793, 98307.96, 98307.96, 0.0, 2.5005553, 2.4991975 
2.337999e+2, 7.121467e+1, 138240.47, -228039.97, 6230.426, -0.005354387, -0.008878812, 138346.4, 138346.4, 0.0, 2.5005546, 2.4993415 
2.3379986e+2, 7.3714036e+1, 138120.81, -223879.55, 6577.1665, -0.0074553397, -0.0072355596, 138240.27, 138240.27, 0.0, 2.5005498, 2.4993508 
2.3379983e+2, 7.62134e+1, 135334.42, -225249.75, 6620.83, -0.009562653, -0.005606751, 135455.95, 135455.95, 0.0, 2.500545, 2.4993508 
2.3379979e+2, 7.871277e+1, 132544.75, -226621.55, 6663.9434, -0.01167112, -0.0039783763, 132668.34, 132668.34, 0.0, 2.5005403, 2.4993508 
2.3379973e+2, 8.1212205e+1, 174593.03, -139230.6, 1359.155, -0.012526421, -0.002606078, 174598.9, 174598.9, 0.0, 2.5005403, 2.4995008 
2.3379968e+2, 8.3711714e+1, 180770.23, -130719.484, 1936.6523, -0.012460047, -0.002987928, 180782.28, 180782.28, 0.0, 2.500545, 2.4995131 
2.3379964e+2, 8.621123e+1, 183470.44, -129425.15, 1774.9463, -0.012395816, -0.0033780907, 183480.5, 183480.5, 0.0, 2.5005496, 2.4995131 
2.3379958e+2, 8.871073e+1, 186166.28, -128132.91, 1613.07, -0.012331012, -0.003766055, 186174.56, 186174.56, 0.0, 2.5005543, 2.4995131 
2.3379952e+2, 9.1210335e+1, 224480.28, -44973.426, 1463.7035, -0.01268292, -0.0013737383, 224488.23, 224488.23, 0.0, 2.5005505, 2.4996579 
2.3379944e+2, 9.371002e+1, 220453.22, -39354.594, 1811.7097, -0.01617314, -0.00052867515, 220465.86, 220465.86, 0.0, 2.5005355, 2.4996746 
2.3379937e+2, 9.620969e+1, 211666.95, -43585.76, 1277.8428, -0.01969393, 0.00027516368, 211673.34, 211673.34, 0.0, 2.5005202, 2.4996746 
2.3379926e+2, 9.8709375e+1, 202866.98, -47823.523, 744.94617, -0.023223383, 0.0010714919, 202869.2, 202869.2, 0.0, 2.5005052, 2.4996746 
2.3630074e+2, 1.24915734e+0, -175073.45, -841693.8, -667.8096, 0.01567147, 0.00022370198, -175072.8, -175072.8, 0.0, 2.5005145, 2.498308 
2.3630074e+2, 3.747472e+0, -172433.64, -840790.0, -696.9286, 0.016936675, 0.0006715858, -172432.92, -172432.92, 0.0, 2.5005195, 2.498307 
2.3630075e+2, 6.245786e+0, -169574.1, -839428.3, -642.93304, 0.018203568, 0.00112011, -169573.47, -169573.47, 0.0, 2.5005243, 2.498307 
2.3630075e+2, 8.7441003e+0, -166715.4, -838067.06, -589.1774, 0.019472146, 0.0015692748, -166714.88, -166714.88, 0.0, 2.5005293, 2.498307 
2.3630075e+2, 1.12424925e+1, -121432.664, -745683.5, 2440.3792, 0.019127795, 0.0019731391, -121423.125, -121423.125, 0.0, 2.5005312, 2.4984646 
2.3630075e+2, 1.3740961e+1, -122245.266, -745695.44, 2550.562, 0.01731379, 0.0019524898, -122234.83, -122234.83, 0.0, 2.5005293, 2.4984653 
2.3630074e+2, 1.623943e+1, -123326.95, -746264.44, 3330.1406, 0.015502343, 0.0019336797, -123309.16, -123309.16, 0.0, 2.5005274, 2.4984653 
2.3630072e+2, 1.8737896e+1, -124409.43, -746833.8, 4109.0747, 0.013693258, 0.0019171772, -124382.305, -124382.305, 0.0, 2.5005257, 2.498465 
2.3630074e+2, 2.1236427e+1, -82946.1, -661336.3, 4465.977, 0.012881155, 0.0010752667, -82911.625, -82911.625, 0.0, 2.5005264, 2.4986115 
2.3630074e+2, 2.373502e+1, -81234.805, -659760.7, 3417.556, 0.013347641, -0.0013143696, -81214.62, -81214.62, 0.0, 2.5005286, 2.498613 
2.3630074e+2, 2.623361e+1, -80041.6, -659256.7, 3475.9292, 0.013812602, -0.0037037227, -80020.74, -80020.74, 0.0, 2.5005307, 2.4986129 
2.3630075e+2, 2.87322e+1, -78849.6, -658753.3, 3533.18, 0.014275327, -0.0060909884, -78828.08, -78828.08, 0.0, 2.5005329, 2.4986129 
2.3630075e+2, 3.123087e+1, -39432.87, -578669.2, 6561.034, 0.013469955, -0.0074086403, -39353.05, -39353.05, 0.0, 2.5005348, 2.4987493 
2.3630074e+2, 3.372961e+1, -38282.863, -576901.9, 5632.2773, 0.011413103, -0.008615979, -38223.973, -38223.973, 0.0, 2.5005355, 2.4987519 
2.3630074e+2, 3.6228353e+1, -37949.457, -576824.94, 5989.8306, 0.009352328, -0.009825763, -37882.887, -37882.887, 0.0, 2.500536, 2.4987519 
2.3630072e+2, 3.8727093e+1, -37617.44, -576748.75, 6346.0234, 0.007287496, -0.01103438, -37542.754, -37542.754, 0.0, 2.5005367, 2.4987516 
2.3630072e+2, 4.1225922e+1, 3357.5361, -493475.1, 5646.007, 0.0060546575, -0.010492184, 3421.689, 3421.689, 0.0, 2.5005386, 2.4988935 
2.363007e+2, 4.3724832e+1, 5680.703, -490491.28, 5015.881, 0.005835887, -0.0095075695, 5731.4043, 5731.4043, 0.0, 2.5005407, 2.4988976 
2.363007e+2, 4.622374e+1, 6777.235, -490046.38, 5597.0103, 0.0056142593, -0.0085280165, 6840.2803, 6840.2803, 0.0, 2.5005426, 2.4988976 
2.3630069e+2, 4.872265e+1, 7871.552, -489602.53, 6176.803, 0.0053891847, -0.00754723, 7948.2334, 7948.2334, 0.0, 2.5005445, 2.4988973 
2.3630069e+2, 5.122162e+1, 49542.273, -404330.75, 8425.913, 0.0043379795, -0.0068868147, 49698.64, 49698.64, 0.0, 2.500546, 2.499043 
2.3630066e+2, 5.372066e+1, 51079.273, -401041.47, 7686.7163, 0.00231162, -0.008197992, 51209.92, 51209.92, 0.0, 2.500546, 2.4990487 
2.3630065e+2, 5.621969e+1, 50968.938, -401166.56, 7837.561, 0.00027520492, -0.009516699, 51104.758, 51104.758, 0.0, 2.5005457, 2.4990485 
2.3630063e+2, 5.871873e+1, 50856.44, -401292.7, 7987.271, -0.0017705435, -0.010833814, 50997.492, 50997.492, 0.0, 2.5005457, 2.4990482 
2.363006e+2, 6.121785e+1, 92497.36, -316349.8, 4590.0405, -0.0031299978, -0.010530439, 92548.88, 92548.88, 0.0, 2.5005474, 2.4991932 
2.3630057e+2, 6.3717055e+1, 96144.23, -311295.94, 4619.4526, -0.003970241, -0.010339668, 96196.59, 96196.59, 0.0, 2.50055, 2.4992006 
2.3630054e+2, 6.6216254e+1, 97687.15, -310604.8, 5030.6084, -0.0048174253, -0.010158997, 97749.12, 97749.12, 0.0, 2.500553, 2.4992006 
2.363005e+2, 6.871546e+1, 99227.5, -309914.94, 5440.818, -0.005670263, -0.009977445, 99299.836, 99299.836, 0.0, 2.5005555, 2.4992003 
2.3630045e+2, 7.121475e+1, 138538.64, -227721.44, 5558.821, -0.0065638735, -0.008035144, 138622.98, 138622.98, 0.0, 2.500555, 2.4993417 
2.3630041e+2, 7.3714113e+1, 138441.72, -223517.33, 5861.591, -0.008252629, -0.0063796593, 138536.63, 138536.63, 0.0, 2.5005503, 2.4993513 
2.3630036e+2, 7.621348e+1, 135656.56, -224888.6, 5907.1997, -0.009953211, -0.004738143, 135753.31, 135753.31, 0.0, 2.5005455, 2.4993513 
2.3630032e+2, 7.8712845e+1, 132868.1, -226261.45, 5952.259, -0.011660306, -0.0030963782, 132966.72, 132966.72, 0.0, 2.5005407, 2.4993513 
2.3630027e+2, 8.121228e+1, 174549.75, -139637.14, 2036.5, -0.012475338, -0.0015514271, 174562.94, 174562.94, 0.0, 2.5005407, 2.4994998 
2.3630023e+2, 8.371179e+1, 180731.53, -131118.4, 2644.8938, -0.012815988, -0.001583426, 180753.95, 180753.95, 0.0, 2.5005453, 2.4995122 
2.3630017e+2, 8.6211306e+1, 183433.03, -129823.26, 2484.92, -0.01316543, -0.0016227367, 183452.73, 183452.73, 0.0, 2.50055, 2.4995122 
2.3630013e+2, 8.8710815e+1, 186130.19, -128530.2, 2324.7756, -0.013520374, -0.0016589259, 186147.36, 186147.36, 0.0, 2.5005546, 2.4995122 
2.3630007e+2, 9.121042e+1, 223829.44, -46651.883, -647.8043, -0.01395406, 0.0006720228, 223830.98, 223830.98, 0.0, 2.5005507, 2.4996548 
2.3629998e+2, 9.371008e+1, 219746.64, -41148.05, -448.27258, -0.017144775, 0.00094738504, 219747.42, 219747.42, 0.0, 2.5005357, 2.4996715 
2.3629987e+2, 9.620975e+1, 210963.42, -45372.047, -973.47455, -0.02038784, 0.0011813293, 210967.11, 210967.11, 0.0, 2.5005207, 2.4996715 
2.3629977e+2, 9.870943e+1, 202166.48, -49602.64, -1497.706, -0.023661608, 0.0014082388, 202175.39, 202175.39, 0.0, 2.5005054, 2.4996715 
2.3880124e+2, 1.2491562e+0, -178269.8, -843069.25, 70.34958, 0.0144295255, 0.00010027183, -178269.8, -178269.8, 0.0, 2.5005088, 2.4983082 
2.3880127e+2, 3.7474686e+0, -175600.8, -842156.44, 35.115944, 0.01752842, 0.0003013897, -175600.8, -175600.8, 0.0, 2.5005138, 2.4983075 
2.388013e+2, 6.245781e+0, -172730.31, -840790.4, 82.71646, 0.02062541, 0.00050327403, -172730.31, -172730.31, 0.0, 2.5005188, 2.4983075 
2.3880133e+2, 8.744094e+0, -169881.5, -839434.75, 129.13666, 0.023720492, 0.0007059246, -169881.47, -169881.47, 0.0, 2.5005236, 2.4983072 
2.3880133e+2, 1.1242492e+1, -123159.164, -744215.94, 2151.3975, 0.02347306, 0.0014577657, -123151.71, -123151.71, 0.0, 2.5005257, 2.4984696 
2.388013e+2, 1.3740975e+1, -123772.92, -744117.75, 2183.3936, 0.019983815, 0.0023844347, -123765.24, -123765.24, 0.0, 2.5005243, 2.4984705 
2.3880127e+2, 1.6239457e+1, -124691.64, -744609.94, 2920.1746, 0.016494647, 0.0033130099, -124677.89, -124677.89, 0.0, 2.5005226, 2.4984703 
2.3880124e+2, 1.873794e+1, -125636.95, -745115.0, 3653.895, 0.013005396, 0.0042439564, -125615.4, -125615.4, 0.0, 2.5005212, 2.4984703 
2.3880126e+2, 2.1236476e+1, -85300.01, -662297.56, 4647.655, 0.0119808735, 0.003750933, -85262.58, -85262.58, 0.0, 2.5005221, 2.498612 
2.3880127e+2, 2.3735066e+1, -83313.35, -660569.56, 3506.305, 0.01380712, 0.001066794, -83292.055, -83292.055, 0.0, 2.5005248, 2.4986136 
2.3880129e+2, 2.6233655e+1, -81882.59, -659954.1, 3549.3567, 0.015629439, -0.0016173624, -81860.805, -81860.805, 0.0, 2.5005274, 2.4986134 
2.3880132e+2, 2.8732243e+1, -80476.6, -659350.6, 3589.827, 0.017446883, -0.004299646, -80454.336, -80454.336, 0.0, 2.5005298, 2.498613 
2.3880132e+2, 3.123091e+1, -40291.785, -578035.94, 6452.312, 0.016956633, -0.0061094672, -40214.375, -40214.375, 0.0, 2.5005322, 2.4987516 
2.388013e+2, 3.3729646e+1, -38916.21, -576113.8, 5420.56, 0.014075253, -0.008017584, -38861.52, -38861.52, 0.0, 2.500533, 2.4987545 
2.3880129e+2, 3.6228383e+1, -38433.305, -575969.25, 5753.773, 0.011187134, -0.009928171, -38371.723, -38371.723, 0.0, 2.500534, 2.4987543 
2.3880127e+2, 3.872712e+1, -37996.117, -575846.7, 6084.6855, 0.008292452, -0.011837566, -37927.29, -37927.29, 0.0, 2.5005348, 2.498754 
2.3880126e+2, 4.1225952e+1, 3578.807, -491708.66, 5653.128, 0.0066383625, -0.01113189, 3643.3223, 3643.3223, 0.0, 2.5005374, 2.4988973 
2.3880126e+2, 4.3724874e+1, 6302.627, -488420.25, 4906.2188, 0.006536859, -0.0091400705, 6351.278, 6351.278, 0.0, 2.5005398, 2.4989016 
2.3880126e+2, 4.6223795e+1, 7668.686, -487849.5, 5464.2905, 0.0064290753, -0.0071529853, 7728.9355, 7728.9355, 0.0, 2.5005424, 2.4989014 
2.3880124e+2, 4.8722717e+1, 8973.987, -487308.03, 6019.0356, 0.006313867, -0.0051641837, 9046.977, 9046.977, 0.0, 2.5005445, 2.4989011 
2.3880124e+2, 5.12217e+1, 49978.242, -403671.8, 7995.059, 0.0053510303, -0.0042489604, 50119.1, 50119.1, 0.0, 2.5005462, 2.499044 
2.3880123e+2, 5.372073e+1, 51616.824, -400276.47, 7190.4746, 0.0032871896, -0.0060954043, 51731.207, 51731.207, 0.0, 2.5005462, 2.4990497 
2.388012e+2, 5.621976e+1, 51501.863, -400407.47, 7335.094, 0.001208946, -0.00794885, 51620.89, 51620.89, 0.0, 2.5005462, 2.4990497 
2.3880118e+2, 5.8718795e+1, 51316.777, -400572.25, 7476.7256, -0.00088237296, -0.009800072, 51440.45, 51440.45, 0.0, 2.500546, 2.4990494 
2.3880115e+2, 6.1217916e+1, 93389.086, -314744.7, 4528.8745, -0.0025623625, -0.009737572, 93439.336, 93439.336, 0.0, 2.5005476, 2.4991958 
2.3880112e+2, 6.371712e+1, 97169.78, -309521.63, 4491.37, -0.003962611, -0.009539751, 97219.38, 97219.38, 0.0, 2.5005505, 2.4992034 
2.3880108e+2, 6.6216326e+1, 98702.84, -308838.63, 4879.734, -0.005373606, -0.009351758, 98761.266, 98761.266, 0.0, 2.5005531, 2.4992034 
2.3880105e+2, 6.871553e+1, 100157.41, -308193.4, 5268.324, -0.0067942883, -0.009162273, 100225.37, 100225.37, 0.0, 2.5005558, 2.4992032 
2.3880099e+2, 7.121482e+1, 138628.45, -227511.03, 4293.9805, -0.007764673, -0.007188918, 138678.81, 138678.81, 0.0, 2.500555, 2.4993422 
2.3880094e+2, 7.3714185e+1, 138360.11, -223344.78, 4566.076, -0.009042015, -0.0055226227, 138417.73, 138417.73, 0.0, 2.5005498, 2.4993517 
2.3880091e+2, 7.6213557e+1, 135305.75, -224847.28, 4625.902, -0.010336458, -0.0038699303, 135365.16, 135365.16, 0.0, 2.5005445, 2.4993517 
2.3880087e+2, 7.871292e+1, 132179.31, -226384.5, 4685.229, -0.011642537, -0.002216297, 132240.52, 132240.52, 0.0, 2.5005393, 2.4993517 
2.3880081e+2, 8.1212354e+1, 173043.81, -140757.53, 2192.625, -0.012414335, -0.00049267284, 173059.14, 173059.14, 0.0, 2.5005386, 2.499499 
2.3880076e+2, 8.3711874e+1, 178707.16, -132467.64, 2896.7844, -0.013164075, -0.00017580332, 178734.13, 178734.13, 0.0, 2.5005422, 2.4995115 
2.3880072e+2, 8.621139e+1, 180820.3, -131455.63, 2803.597, -0.01392904, 0.00013458566, 180845.47, 180845.47, 0.0, 2.500546, 2.4995115 
2.3880066e+2, 8.87109e+1, 182872.11, -130473.16, 2712.2893, -0.014705327, 0.0004489486, 182895.58, 182895.58, 0.0, 2.5005493, 2.4995115 
2.388006e+2, 9.1210496e+1, 219348.11, -50193.52, -3021.2341, -0.015190447, 0.0027353603, 219381.97, 219381.97, 0.0, 2.5005445, 2.4996517 
2.388005e+2, 9.371016e+1, 214628.47, -45058.22, -2910.1953, -0.018086702, 0.0024384481, 214661.08, 214661.08, 0.0, 2.5005286, 2.4996681 
2.3880039e+2, 9.6209824e+1, 205080.95, -49645.02, -3378.9407, -0.021056652, 0.0020995713, 205125.77, 205125.77, 0.0, 2.5005121, 2.4996681 
2.3880027e+2, 9.870949e+1, 195350.17, -54320.08, -3855.479, -0.024078457, 0.0017540551, 195409.7, 195409.7, 0.0, 2.5004954, 2.4996681 
2.4130176e+2, 1.2491574e+0, -176043.19, -841246.25, 760.45184, 0.015603837, 0.0001315563, -176042.31, -176042.31, 0.0, 2.500512, 2.4983099 
2.4130179e+2, 3.7474722e+0, -175399.33, -841315.4, 1130.1775, 0.018899783, 0.0003947294, -175397.4, -175397.4, 0.0, 2.5005133, 2.4983091 
2.4130183e+2, 6.245787e+0, -174531.5, -840918.0, 1583.0281, 0.022201853, 0.00065798406, -174527.73, -174527.73, 0.0, 2.500515, 2.4983091 
2.4130186e+2, 8.7441015e+0, -173664.39, -840520.94, 2035.9106, 0.025510045, 0.00092132005, -173658.17, -173658.17, 0.0, 2.5005164, 2.498309 
2.4130186e+2, 1.1242502e+1, -127994.97, -745832.9, 3115.8018, 0.025338147, 0.0017414849, -127979.26, -127979.26, 0.0, 2.5005167, 2.4984713 
2.4130183e+2, 1.3740987e+1, -128676.7, -745772.1, 2131.2063, 0.021782529, 0.0027491546, -128669.34, -128669.34, 0.0, 2.500515, 2.4984722 
2.413018e+2, 1.6239472e+1, -129638.086, -746290.4, 1887.9968, 0.018232815, 0.0037584999, -129632.305, -129632.305, 0.0, 2.5005133, 2.498472 
2.4130177e+2, 1.8737957e+1, -130600.25, -746809.0, 1643.9731, 0.014688846, 0.00476998, -130595.87, -130595.87, 0.0, 2.500512, 2.498472 
2.4130177e+2, 2.1236496e+1, -89791.31, -663565.7, 3212.1418, 0.013575592, 0.004349371, -89773.33, -89773.33, 0.0, 2.5005136, 2.4986138 
2.413018e+2, 2.3735088e+1, -87021.4, -661446.0, 2497.136, 0.01529397, 0.0017301466, -87010.54, -87010.54, 0.0, 2.5005174, 2.4986155 
2.4130182e+2, 2.623368e+1, -84795.96, -660452.75, 3043.03, 0.017015226, -0.000887776, -84779.875, -84779.875, 0.0, 2.5005212, 2.4986155 
2.4130185e+2, 2.873227e+1, -82571.875, -659460.2, 3587.8694, 0.018738376, -0.0035025047, -82549.56, -82549.56, 0.0, 2.5005252, 2.4986153 
2.4130186e+2, 3.1230938e+1, -43297.56, -578429.06, 6094.9517, 0.01826196, -0.0051934724, -43228.15, -43228.15, 0.0, 2.5005257, 2.498754 
2.4130185e+2, 3.3729678e+1, -44714.4, -577816.0, 5008.4946, 0.015529306, -0.006936227, -44667.348, -44667.348, 0.0, 2.500522, 2.498757 
2.4130182e+2, 3.622842e+1, -47005.3, -579012.5, 5367.222, 0.012801881, -0.008680274, -46951.156, -46951.156, 0.0, 2.500518, 2.4987566 
2.413018e+2, 3.872716e+1, -49297.813, -580209.8, 5724.556, 0.010079788, -0.010421933, -49236.094, -49236.094, 0.0, 2.5005143, 2.4987564 
2.413018e+2, 4.1225997e+1, -7722.084, -495720.4, 6288.1523, 0.008324547, -0.009725326, -7641.071, -7641.071, 0.0, 2.5005164, 2.4989004 
2.413018e+2, 4.3724918e+1, -2495.9478, -491157.13, 5295.6357, 0.007860855, -0.007920961, -2438.5657, -2438.5657, 0.0, 2.500523, 2.498905 
2.413018e+2, 4.6223843e+1, 1383.8505, -489381.56, 5696.031, 0.007401517, -0.0061199623, 1449.952, 1449.952, 0.0, 2.5005298, 2.4989047 
2.4130179e+2, 4.8722768e+1, 5261.138, -487607.2, 6094.7666, 0.006945294, -0.0043158736, 5336.4937, 5336.4937, 0.0, 2.5005367, 2.4989045 
2.4130179e+2, 5.122175e+1, 45965.453, -404107.56, 7257.1387, 0.005885493, -0.0034102276, 46082.44, 46082.44, 0.0, 2.5005379, 2.4990473 
2.4130177e+2, 5.3720784e+1, 44477.973, -402150.2, 7055.383, 0.0039641773, -0.0050969864, 44589.4, 44589.4, 0.0, 2.5005324, 2.4990532 
2.4130175e+2, 5.621983e+1, 41257.71, -403784.3, 7862.856, 0.0020471525, -0.0067908005, 41396.586, 41396.586, 0.0, 2.500527, 2.499053 
2.4130173e+2, 5.871886e+1, 38034.746, -405419.75, 8669.136, 0.00013586711, -0.008482399, 38204.156, 38204.156, 0.0, 2.5005214, 2.499053 
2.413017e+2, 6.121798e+1, 79142.25, -320777.53, 7143.8477, -0.0016899043, -0.008291383, 79269.82, 79269.82, 0.0, 2.5005224, 2.4991977 
2.4130167e+2, 6.371719e+1, 85272.016, -314358.72, 6813.282, -0.0035891235, -0.008009492, 85388.14, 85388.14, 0.0, 2.500529, 2.4992056 
2.4130163e+2, 6.62164e+1, 89192.24, -312523.9, 6927.701, -0.0054850634, -0.007736849, 89311.68, 89311.68, 0.0, 2.500536, 2.4992054 
2.4130158e+2, 6.871561e+1, 93109.8, -310690.38, 7040.858, -0.0073765568, -0.007462032, 93232.53, 93232.53, 0.0, 2.5005426, 2.4992054 
2.4130155e+2, 7.1214896e+1, 133474.88, -228845.67, 4905.8887, -0.008386657, -0.0055497293, 133541.3, 133541.3, 0.0, 2.5005448, 2.4993448 
2.4130149e+2, 7.371426e+1, 134555.92, -223989.39, 5681.7427, -0.009301965, -0.0041256063, 134645.92, 134645.92, 0.0, 2.500542, 2.4993544 
2.4130145e+2, 7.621363e+1, 132896.53, -224821.4, 6265.783, -0.010224286, -0.0027148395, 133006.25, 133006.25, 0.0, 2.5005393, 2.4993544 
2.413014e+2, 7.8713006e+1, 131234.4, -225654.73, 6849.423, -0.011147831, -0.0013026557, 131365.81, 131365.81, 0.0, 2.5005364, 2.4993544 
2.4130136e+2, 8.1212443e+1, 171178.92, -140894.06, 5692.5117, -0.012036078, 0.00043854388, 171282.73, 171282.73, 0.0, 2.5005345, 2.4995008 
2.413013e+2, 8.371196e+1, 174232.64, -133878.28, 6950.5435, -0.01345019, 0.0010436305, 174389.34, 174389.34, 0.0, 2.5005338, 2.4995131 
2.4130124e+2, 8.621148e+1, 173808.63, -134085.17, 7365.003, -0.014868872, 0.0016391539, 173984.7, 173984.7, 0.0, 2.500533, 2.4995131 
2.413012e+2, 8.8711e+1, 173381.52, -134293.56, 7779.1045, -0.016288001, 0.0022355372, 173578.06, 173578.06, 0.0, 2.5005324, 2.4995131 
2.4130112e+2, 9.121059e+1, 212238.27, -53263.473, 1359.4912, -0.01666447, 0.0046589216, 212245.23, 212245.23, 0.0, 2.500532, 2.4996524 
2.4130102e+2, 9.3710256e+1, 216559.2, -43909.0, 2192.7715, -0.018773828, 0.0042798393, 216577.66, 216577.66, 0.0, 2.5005317, 2.4996686 
2.4130091e+2, 9.6209913e+1, 216308.97, -44037.62, 2507.822, -0.02092467, 0.0038544429, 216333.13, 216333.13, 0.0, 2.5005312, 2.4996686 
2.4130079e+2, 9.870958e+1, 216051.69, -44169.633, 2823.6091, -0.02309423, 0.003418628, 216082.33, 216082.33, 0.0, 2.5005307, 2.4996686 
2.438023e+2, 1.2491609e+0, -175193.75, -839481.4, 983.4418, 0.01854076, 0.00032146776, -175192.3, -175192.3, 0.0, 2.500512, 2.498313 
2.4380232e+2, 3.7474826e+0, -174551.45, -839553.44, 1356.6339, 0.02054761, 0.0009651502, -174548.69, -174548.69, 0.0, 2.5005133, 2.498312 
2.4380235e+2, 6.2458044e+0, -173684.53, -839157.75, 1810.649, 0.022557437, 0.0016098294, -173679.61, -173679.61, 0.0, 2.500515, 2.498312 
2.4380237e+2, 8.7441254e+0, -172818.34, -838762.4, 2264.696, 0.024570243, 0.0022555052, -172810.64, -172810.64, 0.0, 2.5005164, 2.498312 
2.4380238e+2, 1.1242525e+1, -128408.336, -746716.3, 2904.7292, 0.02445699, 0.002913337, -128394.695, -128394.695, 0.0, 2.5005167, 2.4984698 
2.4380237e+2, 1.3741001e+1, -129096.1, -746672.56, 1887.411, 0.022354608, 0.0032161062, -129090.336, -129090.336, 0.0, 2.500515, 2.4984705 
2.4380234e+2, 1.6239478e+1, -130055.67, -747191.56, 1645.4083, 0.02025555, 0.0035209034, -130051.29, -130051.29, 0.0, 2.5005136, 2.4984705 
2.4380232e+2, 1.8737954e+1, -131016.04, -747710.94, 1402.5914, 0.018159613, 0.003828181, -131012.84, -131012.84, 0.0, 2.500512, 2.4984703 
2.4380232e+2, 2.1236494e+1, -88731.28, -661419.8, 3865.4297, 0.017089589, 0.0032406326, -88705.195, -88705.195, 0.0, 2.5005136, 2.4986174 
2.4380234e+2, 2.3735093e+1, -85947.87, -659278.25, 3081.9763, 0.017366491, 0.0010304697, -85931.3, -85931.3, 0.0, 2.5005174, 2.4986193 
2.4380235e+2, 2.623369e+1, -83721.1, -658288.3, 3629.3499, 0.017642498, -0.0011776387, -83698.18, -83698.18, 0.0, 2.5005214, 2.498619 
2.4380237e+2, 2.873229e+1, -81495.68, -657299.06, 4175.669, 0.01791679, -0.003381873, -81465.4, -81465.4, 0.0, 2.5005252, 2.4986188 
2.4380238e+2, 3.1230968e+1, -42529.016, -576971.6, 5594.5957, 0.017184207, -0.0043915445, -42470.457, -42470.457, 0.0, 2.500526, 2.4987564 
2.4380237e+2, 3.372972e+1, -43921.45, -576316.44, 4425.1577, 0.0155390855, -0.005185022, -43884.67, -43884.67, 0.0, 2.5005221, 2.4987593 
2.4380235e+2, 3.6228475e+1, -46210.035, -577516.25, 4785.5684, 0.013895242, -0.0059795524, -46166.934, -46166.934, 0.0, 2.5005183, 2.498759 
2.4380234e+2, 3.8727227e+1, -48500.23, -578716.9, 5144.585, 0.012252299, -0.0067714523, -48450.316, -48450.316, 0.0, 2.5005145, 2.4987588 
2.4380234e+2, 4.1226062e+1, -6832.672, -494061.22, 7380.095, 0.010712961, -0.0062493216, -6720.9106, -6720.9106, 0.0, 2.5005167, 2.4989033 
2.4380234e+2, 4.3724975e+1, -1579.3705, -489451.63, 6314.5684, 0.009489984, -0.0057321764, -1497.6543, -1497.6543, 0.0, 2.5005233, 2.4989078 
2.4380234e+2, 4.622389e+1, 2303.8022, -487679.0, 6717.4595, 0.0082641095, -0.0052188863, 2395.8784, 2395.8784, 0.0, 2.50053, 2.4989076 
2.4380234e+2, 4.8722804e+1, 6184.4644, -485907.63, 7118.692, 0.0070345146, -0.0047031105, 6287.423, 6287.423, 0.0, 2.500537, 2.4989073 
2.4380232e+2, 5.122179e+1, 47634.242, -400909.38, 6492.603, 0.005712227, -0.004076065, 47728.2, 47728.2, 0.0, 2.500538, 2.4990528 
2.4380231e+2, 5.372084e+1, 46206.31, -398835.7, 6234.4546, 0.0041399384, -0.005007903, 46293.63, 46293.63, 0.0, 2.5005326, 2.4990587 
2.4380228e+2, 5.621989e+1, 42987.605, -400473.6, 7044.374, 0.0025656773, -0.0059469566, 43099.477, 43099.477, 0.0, 2.5005271, 2.4990587 
2.4380225e+2, 5.871894e+1, 39766.195, -402112.8, 7853.099, 0.000990448, -0.006883961, 39905.72, 39905.72, 0.0, 2.500522, 2.4990585 
2.4380223e+2, 6.1218065e+1, 79596.3, -320131.8, 8167.334, -0.00081742223, -0.006264763, 79763.1, 79763.1, 0.0, 2.5005226, 2.4991987 
2.4380219e+2, 6.3717276e+1, 85741.3, -313689.03, 7841.096, -0.0030985586, -0.005872827, 85895.164, 85895.164, 0.0, 2.5005295, 2.4992065 
2.4380216e+2, 6.621649e+1, 89664.56, -311855.6, 7957.833, -0.005382767, -0.0054907184, 89822.22, 89822.22, 0.0, 2.5005362, 2.4992063 
2.4380213e+2, 6.87157e+1, 93585.164, -310023.44, 8073.3076, -0.0076684156, -0.005107097, 93746.586, 93746.586, 0.0, 2.500543, 2.4992063 
2.4380209e+2, 7.1214986e+1, 134813.03, -226394.98, 4482.822, -0.008682102, -0.003386324, 134868.66, 134868.66, 0.0, 2.5005453, 2.4993489 
2.4380204e+2, 7.371436e+1, 135919.23, -221490.19, 5262.9067, -0.00925158, -0.0024827668, 135996.72, 135996.72, 0.0, 2.5005424, 2.4993587 
2.43802e+2, 7.6213723e+1, 134260.95, -222323.69, 5848.547, -0.009833073, -0.0015920884, 134356.86, 134356.86, 0.0, 2.5005395, 2.4993584 
2.4380195e+2, 7.871309e+1, 132599.95, -223158.52, 6433.7856, -0.01042035, -0.00069934875, 132716.27, 132716.27, 0.0, 2.5005367, 2.4993584 
2.4380189e+2, 8.121253e+1, 172277.39, -138956.84, 5533.5317, -0.011593862, 0.0008609456, 172375.75, 172375.75, 0.0, 2.5005348, 2.4995039 
2.4380183e+2, 8.3712053e+1, 175296.9, -132014.88, 6848.6924, -0.013915431, 0.0016469768, 175449.47, 175449.47, 0.0, 2.500534, 2.4995162 
2.4380176e+2, 8.621158e+1, 174874.44, -132221.33, 7264.0034, -0.01624402, 0.0024236464, 175046.17, 175046.17, 0.0, 2.5005333, 2.4995162 
2.438017e+2, 8.8711095e+1, 174448.86, -132429.3, 7678.956, -0.018575668, 0.0032013012, 174640.89, 174640.89, 0.0, 2.5005326, 2.499516 
2.4380162e+2, 9.12107e+1, 213237.4, -51545.777, 1271.9973, -0.018718483, 0.005889065, 213243.52, 213243.52, 0.0, 2.5005324, 2.4996552 
2.4380153e+2, 9.3710375e+1, 217455.47, -42400.406, 2148.9238, -0.019602532, 0.005835033, 217473.23, 217473.23, 0.0, 2.500532, 2.499671 
2.4380144e+2, 9.621004e+1, 217203.61, -42527.703, 2467.9165, -0.020538624, 0.0057350565, 217227.06, 217227.06, 0.0, 2.5005314, 2.499671 
2.4380134e+2, 9.87097e+1, 216944.72, -42658.395, 2787.6458, -0.021502458, 0.005625286, 216974.64, 216974.64, 0.0, 2.5005312, 2.499671 
2.4630284e+2, 1.2491642e+0, -174344.86, -837717.56, 1205.9879, 0.021477815, 0.00051057554, -174342.67, -174342.67, 0.0, 2.500512, 2.498316 
2.4630286e+2, 3.7474927e+0, -173705.13, -837794.75, 1583.1627, 0.02219583, 0.00153316, -173701.34, -173701.34, 0.0, 2.5005133, 2.498315 
2.4630287e+2, 6.245821e+0, -172839.11, -837400.7, 2038.3424, 0.022913674, 0.0025576563, -172832.86, -172832.86, 0.0, 2.500515, 2.498315 
2.4630287e+2, 8.744149e+0, -171973.83, -837006.94, 2493.5542, 0.023631355, 0.0035840645, -171964.47, -171964.47, 0.0, 2.5005164, 2.498315 
2.4630289e+2, 1.1242549e+1, -128828.01, -747612.8, 2699.0518, 0.023573827, 0.004083368, -128816.234, -128816.234, 0.0, 2.5005167, 2.4984682 
2.4630289e+2, 1.3741016e+1, -129516.91, -747576.0, 1644.3152, 0.0229239, 0.0036787277, -129512.53, -129512.53, 0.0, 2.500515, 2.4984689 
2.4630287e+2, 1.6239482e+1, -130474.67, -748095.7, 1403.5193, 0.022274729, 0.0032764548, -130471.484, -130471.484, 0.0, 2.5005136, 2.4984689 
2.4630287e+2, 1.8737951e+1, -131433.22, -748615.75, 1161.9092, 0.021626055, 0.0028770072, -131431.03, -131431.03, 0.0, 2.500512, 2.4984686 
2.4630287e+2, 2.123649e+1, -87679.375, -659290.9, 4520.7554, 0.020608375, 0.0021265298, -87643.625, -87643.625, 0.0, 2.5005136, 2.4986212 
2.4630289e+2, 2.3735099e+1, -84875.46, -657112.8, 3667.96, 0.019444082, 0.00032338657, -84851.945, -84851.945, 0.0, 2.5005176, 2.498623 
2.4630289e+2, 2.6233703e+1, -82647.36, -656126.2, 4216.8135, 0.018275073, -0.0014769776, -82616.36, -82616.36, 0.0, 2.5005214, 2.4986227 
2.4630289e+2, 2.8732312e+1, -80420.61, -655140.25, 4764.612, 0.017100742, -0.003272788, -80381.11, -80381.11, 0.0, 2.5005255, 2.4986227 
2.4630289e+2, 3.1230998e+1, -41768.004, -575529.8, 5106.0996, 0.016101819, -0.0035957722, -41719.16, -41719.16, 0.0, 2.5005262, 2.4987588 
2.4630289e+2, 3.3729762e+1, -43129.43, -574818.8, 3843.2803, 0.015544475, -0.0034419412, -43101.652, -43101.652, 0.0, 2.5005224, 2.498762 
2.4630289e+2, 3.6228526e+1, -45415.7, -576021.94, 4205.374, 0.014984534, -0.003288974, -45382.37, -45382.37, 0.0, 2.5005186, 2.4987617 
2.4630289e+2, 3.8727295e+1, -47703.574, -577225.9, 4566.073, 0.014421066, -0.0031331342, -47664.207, -47664.207, 0.0, 2.5005147, 2.4987614 
2.4630289e+2, 4.122613e+1, -5950.2075, -492416.47, 8474.241, 0.013108761, -0.0027773418, -5802.631, -5802.631, 0.0, 2.5005167, 2.498906 
2.4630289e+2, 4.3725032e+1, -663.67554, -487747.94, 7335.114, 0.011127126, -0.0035496505, -553.23944, -553.23944, 0.0, 2.5005236, 2.4989107 
2.4630287e+2, 4.6223938e+1, 3222.8716, -485978.3, 7740.5015, 0.009135232, -0.004326387, 3345.317, 3345.317, 0.0, 2.5005302, 2.4989104 
2.4630287e+2, 4.872284e+1, 7106.908, -484209.88, 8144.23, 0.007132783, -0.0051012426, 7241.8726, 7241.8726, 0.0, 2.5005372, 2.4989102 
2.4630286e+2, 5.1221824e+1, 49294.285, -397729.34, 5737.157, 0.0055351676, -0.0047475724, 49367.902, 49367.902, 0.0, 2.5005383, 2.499058 
2.4630284e+2, 5.372089e+1, 47933.867, -395522.8, 5414.82, 0.0043130424, -0.004926539, 47999.973, 47999.973, 0.0, 2.5005329, 2.4990644 
2.4630281e+2, 5.6219953e+1, 44716.72, -397164.5, 6227.185, 0.003082822, -0.005112957, 44804.457, 44804.457, 0.0, 2.5005276, 2.4990642 
2.4630278e+2, 5.8719015e+1, 41496.863, -398807.5, 7038.357, 0.0018449257, -0.0052974937, 41609.344, 41609.344, 0.0, 2.5005221, 2.499064 
2.4630277e+2, 6.1218154e+1, 80042.44, -319502.53, 9190.76, 0.00006027863, -0.0042408938, 80253.74, 80253.74, 0.0, 2.5005229, 2.4991996 
2.4630272e+2, 6.3717365e+1, 86209.7, -313021.2, 8870.156, -0.0026028198, -0.003741239, 86406.69, 86406.69, 0.0, 2.5005298, 2.4992075 
2.463027e+2, 6.6216576e+1, 90136.016, -311189.13, 8989.211, -0.005275407, -0.0032521242, 90337.26, 90337.26, 0.0, 2.5005364, 2.4992073 
2.4630266e+2, 6.8715787e+1, 94059.65, -309358.34, 9107.003, -0.007955321, -0.0027621558, 94265.13, 94265.13, 0.0, 2.5005434, 2.4992073 
2.4630263e+2, 7.121508e+1, 136141.45, -223964.47, 4059.4888, -0.008972119, -0.0012246533, 136187.2, 136187.2, 0.0, 2.5005455, 2.4993527 
2.4630257e+2, 7.371445e+1, 137281.86, -218992.4, 4844.6865, -0.009195959, -0.0008434126, 137347.72, 137347.72, 0.0, 2.5005426, 2.4993627 
2.4630253e+2, 7.621381e+1, 135624.69, -219827.4, 5431.926, -0.009436811, -0.00047470792, 135707.69, 135707.69, 0.0, 2.50054, 2.4993625 
2.4630249e+2, 7.871318e+1, 133964.8, -220663.72, 6018.7637, -0.009688007, -0.00010329812, 134066.92, 134066.92, 0.0, 2.5005372, 2.4993625 
2.4630243e+2, 8.1212616e+1, 173363.95, -137044.39, 5372.849, -0.011145757, 0.0012812887, 173456.92, 173456.92, 0.0, 2.5005352, 2.499507 
2.4630235e+2, 8.371215e+1, 176360.48, -130152.94, 6747.226, -0.014375657, 0.0022466283, 176508.94, 176508.94, 0.0, 2.5005345, 2.499519 
2.4630228e+2, 8.6211675e+1, 175939.55, -130358.97, 7163.3887, -0.017615044, 0.0032027129, 176106.98, 176106.98, 0.0, 2.5005338, 2.499519 
2.463022e+2, 8.87112e+1, 175515.48, -130566.5, 7579.1934, -0.02086011, 0.004159908, 175703.05, 175703.05, 0.0, 2.500533, 2.499519 
2.4630214e+2, 9.121082e+1, 214219.14, -49864.203, 1181.0897, -0.020744884, 0.0071283127, 214224.44, 214224.44, 0.0, 2.5005329, 2.4996579 
2.4630207e+2, 9.371049e+1, 218351.05, -40893.24, 2104.275, -0.0204039, 0.0073963404, 218368.13, 218368.13, 0.0, 2.5005324, 2.4996736 
2.4630198e+2, 9.621016e+1, 218097.58, -41019.21, 2427.21, -0.020125883, 0.0076185153, 218120.31, 218120.31, 0.0, 2.500532, 2.4996734 
2.4630189e+2, 9.8709834e+1, 217837.06, -41148.58, 2750.8816, -0.019884627, 0.007831521, 217866.28, 217866.28, 0.0, 2.5005314, 2.4996734 
2.4880338e+2, 1.2491677e+0, -177411.02, -837845.44, 1408.1737, 0.024422696, 0.0006986771, -177408.02, -177408.02, 0.0, 2.5005052, 2.498319 
2.4880339e+2, 3.7475032e+0, -176692.95, -837890.2, 1750.0818, 0.02385168, 0.0020981315, -176688.33, -176688.33, 0.0, 2.5005069, 2.4983182 
2.4880339e+2, 6.2458384e+0, -175783.44, -837476.3, 2167.3667, 0.023277635, 0.0035003866, -175776.33, -175776.33, 0.0, 2.5005083, 2.498318 
2.4880339e+2, 8.744173e+0, -174912.1, -837080.8, 2585.4788, 0.022700561, 0.004905443, -174901.98, -174901.98, 0.0, 2.50051, 2.498318 
2.4880339e+2, 1.12425715e+1, -132910.95, -750287.4, 2332.5767, 0.022695731, 0.005249821, -132902.14, -132902.14, 0.0, 2.5005105, 2.4984665 
2.488034e+2, 1.3741031e+1, -133344.03, -750125.6, 1213.9755, 0.023497013, 0.004135339, -133341.64, -133341.64, 0.0, 2.5005093, 2.4984674 
2.488034e+2, 1.6239491e+1, -134072.4, -750536.1, 953.9761, 0.0242966, 0.0030235164, -134070.92, -134070.92, 0.0, 2.500508, 2.4984672 
2.4880342e+2, 1.873795e+1, -134826.05, -750958.9, 694.50525, 0.025094172, 0.0019148317, -134825.25, -134825.25, 0.0, 2.5005069, 2.4984672 
2.4880342e+2, 2.1236487e+1, -89408.48, -658516.56, 4927.3296, 0.02413766, 0.0010054235, -89365.82, -89365.82, 0.0, 2.5005088, 2.4986248 
2.4880342e+2, 2.3735102e+1, -86396.83, -656200.4, 3976.4119, 0.021532375, -0.000392779, -86369.08, -86369.08, 0.0, 2.500513, 2.4986267 
2.488034e+2, 2.6233718e+1, -84044.27, -655157.5, 4501.424, 0.018918926, -0.001787559, -84008.79, -84008.79, 0.0, 2.5005174, 2.4986265 
2.488034e+2, 2.873233e+1, -81750.17, -654142.75, 5027.956, 0.016296975, -0.0031771578, -81706.01, -81706.01, 0.0, 2.5005214, 2.4986262 
2.488034e+2, 3.1231028e+1, -43159.74, -575136.9, 4287.163, 0.015021485, -0.002808355, -43125.19, -43125.19, 0.0, 2.5005226, 2.4987612 
2.488034e+2, 3.3729804e+1, -44025.875, -574135.44, 2909.0315, 0.015551075, -0.0017095321, -44009.91, -44009.91, 0.0, 2.5005195, 2.4987643 
2.488034e+2, 3.6228585e+1, -45908.45, -575148.2, 3263.7686, 0.016074514, -0.0006113928, -45888.324, -45888.324, 0.0, 2.5005164, 2.498764 
2.4880342e+2, 3.872736e+1, -47848.953, -576188.9, 3619.6147, 0.016590238, 0.00048990134, -47824.156, -47824.156, 0.0, 2.5005133, 2.4987638 
2.4880342e+2, 4.1226196e+1, -5785.294, -491125.8, 9200.537, 0.0155156525, 0.00068782247, -5610.9434, -5610.9434, 0.0, 2.5005157, 2.4989085 
2.4880342e+2, 4.372509e+1, -360.76233, -486337.88, 7993.7734, 0.012775977, -0.0013751928, -229.30937, -229.30937, 0.0, 2.5005226, 2.4989135 
2.488034e+2, 4.6223983e+1, 3541.6055, -484564.84, 8411.17, 0.010019151, -0.0034432157, 3686.5059, 3686.5059, 0.0, 2.5005295, 2.4989133 
2.488034e+2, 4.8722878e+1, 7355.1743, -482834.6, 8829.882, 0.0072455117, -0.005509887, 7514.1772, 7514.1772, 0.0, 2.5005362, 2.498913 
2.4880339e+2, 5.1221865e+1, 50448.016, -394803.13, 4658.5522, 0.0053596543, -0.005423818, 50496.75, 50496.75, 0.0, 2.5005379, 2.4990633 
2.4880338e+2, 5.372094e+1, 49594.4, -392239.2, 4265.248, 0.0044873254, -0.004851986, 49635.566, 49635.566, 0.0, 2.500533, 2.49907 
2.4880335e+2, 5.622002e+1, 46710.89, -393724.34, 5083.3247, 0.0036013941, -0.0042878166, 46769.55, 46769.55, 0.0, 2.5005283, 2.4990697 
2.4880332e+2, 5.871909e+1, 43725.383, -395258.66, 5902.4805, 0.0027015526, -0.0037218288, 43804.73, 43804.73, 0.0, 2.5005233, 2.4990695 
2.4880329e+2, 6.121824e+1, 80984.35, -318640.1, 9919.59, 0.00094535283, -0.0022182832, 81230.43, 81230.43, 0.0, 2.500524, 2.4992006 
2.4880327e+2, 6.3717455e+1, 86957.555, -312213.03, 9656.885, -0.0020994467, -0.0016127718, 87191.04, 87191.04, 0.0, 2.5005305, 2.4992085 
2.4880324e+2, 6.6216666e+1, 90565.29, -310537.2, 9828.706, -0.005159833, -0.0010185617, 90805.99, 90805.99, 0.0, 2.500537, 2.4992085 
2.4880321e+2, 6.871588e+1, 94072.1, -308909.94, 9998.755, -0.00823305, -0.00042407674, 94320.04, 94320.04, 0.0, 2.5005429, 2.4992082 
2.4880317e+2, 7.121517e+1, 136747.73, -221889.94, 3542.3044, -0.009252494, 0.0009391545, 136782.72, 136782.72, 0.0, 2.5005448, 2.4993567 
2.4880312e+2, 7.3714536e+1, 137870.63, -216861.06, 4379.882, -0.009132051, 0.00079712487, 137924.69, 137924.69, 0.0, 2.5005417, 2.4993668 
2.4880308e+2, 7.6213896e+1, 136057.67, -217773.06, 5014.7725, -0.009033215, 0.0006427454, 136128.73, 136128.73, 0.0, 2.5005386, 2.4993668 
2.4880303e+2, 7.871326e+1, 134145.77, -218732.73, 5648.958, -0.00894889, 0.0004916931, 134236.17, 134236.17, 0.0, 2.5005355, 2.4993665 
2.4880297e+2, 8.1212705e+1, 172809.02, -135933.39, 5314.205, -0.010689536, 0.0017062923, 172900.45, 172900.45, 0.0, 2.5005329, 2.49951 
2.4880289e+2, 8.3712244e+1, 175158.97, -129374.99, 6822.333, -0.014827628, 0.0028495367, 175311.72, 175311.72, 0.0, 2.500531, 2.4995222 
2.488028e+2, 8.6211777e+1, 174017.25, -129928.54, 7309.445, -0.018977316, 0.003983445, 174192.94, 174192.94, 0.0, 2.500529, 2.4995222 
2.4880272e+2, 8.871131e+1, 172784.92, -130525.73, 7793.851, -0.023134917, 0.005118496, 172985.06, 172985.06, 0.0, 2.500527, 2.4995222 
2.4880265e+2, 9.121092e+1, 210609.0, -50413.21, 1471.7799, -0.02273711, 0.008384111, 210617.3, 210617.3, 0.0, 2.5005252, 2.4996605 
2.4880259e+2, 9.37106e+1, 213833.03, -41985.93, 2517.6719, -0.021172129, 0.008971696, 213857.8, 213857.8, 0.0, 2.5005233, 2.499676 
2.4880251e+2, 9.6210283e+1, 212489.16, -42635.098, 2919.3708, -0.019679932, 0.009512924, 212522.56, 212522.56, 0.0, 2.5005212, 2.499676 
2.4880242e+2, 9.870995e+1, 210887.7, -43408.316, 3322.8472, -0.018232057, 0.010045286, 210931.13, 210931.13, 0.0, 2.5005183, 2.499676 
2.513039e+2, 1.2491691e+0, -174165.63, -835468.44, 1205.732, 0.026717022, 0.00075560965, -174163.42, -174163.42, 0.0, 2.5005097, 2.4983208 
2.513039e+2, 3.7475073e+0, -175937.39, -836715.3, 1300.9893, 0.025470957, 0.0022675823, -175934.83, -175934.83, 0.0, 2.500507, 2.4983199 
2.5130388e+2, 6.2458456e+0, -177478.31, -837480.8, 1466.3333, 0.02423506, 0.0037805608, -177475.06, -177475.06, 0.0, 2.5005045, 2.4983199 
2.5130388e+2, 8.744184e+0, -179020.4, -838246.8, 1631.3214, 0.023009332, 0.005294544, -179016.38, -179016.38, 0.0, 2.5005019, 2.4983199 
2.513039e+2, 1.12425834e+1, -137567.22, -752578.3, 1794.9817, 0.022948708, 0.0057255635, -137561.97, -137561.97, 0.0, 2.5005023, 2.4984665 
2.513039e+2, 1.3741043e+1, -135568.44, -751234.5, 1130.8125, 0.024304688, 0.0046648136, -135566.36, -135566.36, 0.0, 2.5005054, 2.4984674 
2.513039e+2, 1.6239502e+1, -133845.36, -750461.44, 1365.4052, 0.025664292, 0.0036048447, -133842.33, -133842.33, 0.0, 2.5005085, 2.4984672 
2.5130394e+2, 1.8737963e+1, -132123.06, -749688.7, 1599.3741, 0.027027173, 0.0025461477, -132118.92, -132118.92, 0.0, 2.5005114, 2.498467 
2.5130394e+2, 2.1236503e+1, -87411.34, -656314.06, 5848.1826, 0.026241971, 0.0017748271, -87351.234, -87351.234, 0.0, 2.500511, 2.4986274 
2.5130394e+2, 2.3735122e+1, -89760.92, -656565.8, 4623.8926, 0.023386048, 0.0006218616, -89723.2, -89723.2, 0.0, 2.500506, 2.4986293 
2.5130394e+2, 2.6233745e+1, -92720.164, -658078.9, 4934.739, 0.020542014, -0.00053045456, -92677.09, -92677.09, 0.0, 2.500501, 2.4986293 
2.513039e+2, 2.8732362e+1, -95681.69, -659593.7, 5244.5986, 0.017709613, -0.001680408, -95632.914, -95632.914, 0.0, 2.5004961, 2.498629 
2.513039e+2, 3.1231064e+1, -57235.77, -580631.2, 4885.96, 0.016339554, -0.0012370471, -57190.164, -57190.164, 0.0, 2.500497, 2.498764 
2.5130394e+2, 3.3729842e+1, -53008.313, -577127.25, 3544.7896, 0.016945507, -0.00023079201, -52984.34, -52984.34, 0.0, 2.5005026, 2.4987674 
2.5130394e+2, 3.622862e+1, -49768.418, -575667.5, 4032.4678, 0.017557226, 0.000776201, -49737.5, -49737.5, 0.0, 2.5005083, 2.4987671 
2.5130394e+2, 3.8727403e+1, -46530.184, -574208.56, 4518.7974, 0.01817292, 0.0017877704, -46491.49, -46491.49, 0.0, 2.500514, 2.498767 
2.5130394e+2, 4.122624e+1, -5688.684, -489654.34, 10118.908, 0.017085435, 0.0020615356, -5477.207, -5477.207, 0.0, 2.5005143, 2.4989119 
2.5130394e+2, 4.372514e+1, -7874.0635, -488476.75, 8909.158, 0.014176996, 0.00024350495, -7708.967, -7708.967, 0.0, 2.5005083, 2.4989169 
2.5130394e+2, 4.622404e+1, -11526.055, -490337.94, 9388.998, 0.0112793185, -0.0015756978, -11342.018, -11342.018, 0.0, 2.500502, 2.4989166 
2.5130394e+2, 4.8722938e+1, -15180.251, -492199.88, 9867.336, 0.0083929915, -0.003389714, -14976.229, -14976.229, 0.0, 2.500496, 2.4989164 
2.513039e+2, 5.122193e+1, 28305.107, -403770.84, 5923.17, 0.006327835, -0.0032044197, 28386.291, 28386.291, 0.0, 2.5004978, 2.499067 
2.5130388e+2, 5.372101e+1, 35831.805, -397095.1, 4917.36, 0.0052366275, -0.0026942699, 35887.652, 35887.652, 0.0, 2.5005076, 2.499074 
2.5130385e+2, 5.622009e+1, 41385.36, -394510.22, 5172.7905, 0.00415542, -0.0021867207, 41446.74, 41446.74, 0.0, 2.5005171, 2.4990737 
2.5130385e+2, 5.8719164e+1, 46936.19, -391926.66, 5426.536, 0.003083733, -0.0016722584, 47003.28, 47003.28, 0.0, 2.500527, 2.4990735 
2.5130382e+2, 6.121832e+1, 84402.95, -315161.56, 9034.956, 0.0013646751, -0.00019269019, 84607.15, 84607.15, 0.0, 2.500528, 2.4992046 
2.513038e+2, 6.371754e+1, 82130.01, -312653.53, 9509.366, -0.001484699, 0.00039904178, 82358.93, 82358.93, 0.0, 2.5005202, 2.4992127 
2.5130376e+2, 6.621675e+1, 77556.19, -314920.44, 10418.596, -0.004331817, 0.0009833404, 77832.56, 77832.56, 0.0, 2.5005124, 2.4992125 
2.5130373e+2, 6.871597e+1, 72979.734, -317188.63, 11326.957, -0.007173564, 0.0015718864, 73308.29, 73308.29, 0.0, 2.5005047, 2.4992125 
2.513037e+2, 7.1215266e+1, 114706.93, -230669.06, 5746.503, -0.008320334, 0.0029555573, 114802.516, 114802.516, 0.0, 2.5005047, 2.4993608 
2.5130364e+2, 7.371464e+1, 122763.87, -222284.42, 6420.448, -0.008749639, 0.0028260374, 122883.3, 122883.3, 0.0, 2.5005138, 2.4993708 
2.513036e+2, 7.6214004e+1, 127973.81, -219814.55, 6839.5825, -0.009182143, 0.0026828723, 128108.27, 128108.27, 0.0, 2.5005229, 2.4993708 
2.5130355e+2, 7.871337e+1, 133181.08, -217345.95, 7258.0107, -0.00961036, 0.0025419751, 133331.3, 133331.3, 0.0, 2.500532, 2.4993708 
2.513035e+2, 8.1212825e+1, 174521.84, -133241.36, 5830.717, -0.01139348, 0.0036080875, 174632.28, 174632.28, 0.0, 2.5005338, 2.4995143 
2.513034e+2, 8.371235e+1, 175072.33, -127596.13, 7431.0366, -0.015053824, 0.004400042, 175254.66, 175254.66, 0.0, 2.5005288, 2.4995263 
2.5130332e+2, 8.6211884e+1, 172245.16, -128966.16, 7949.96, -0.018709114, 0.0051785186, 172454.83, 172454.83, 0.0, 2.500524, 2.4995263 
2.5130323e+2, 8.8711417e+1, 169414.33, -130337.93, 8469.154, -0.022355936, 0.0059542884, 169653.42, 169653.42, 0.0, 2.5005193, 2.4995263 
2.5130317e+2, 9.121104e+1, 207394.0, -50602.36, 2729.4773, -0.02197741, 0.009240636, 207422.88, 207422.88, 0.0, 2.5005183, 2.4996636 
2.513031e+2, 9.3710726e+1, 214237.03, -40630.324, 3629.2275, -0.021276273, 0.010217901, 214288.7, 214288.7, 0.0, 2.5005229, 2.4996786 
2.5130302e+2, 9.62104e+1, 216890.56, -39357.816, 3757.1194, -0.020591017, 0.011134506, 216945.64, 216945.64, 0.0, 2.5005274, 2.4996786 
2.5130293e+2, 9.871009e+1, 219535.34, -38089.523, 3886.3057, -0.019890586, 0.012028132, 219593.95, 219593.95, 0.0, 2.500532, 2.4996784 
2.5380442e+2, 1.24916926e+0, -173852.4, -834818.44, 801.02924, 0.0276921, 0.0007034743, -173851.44, -173851.44, 0.0, 2.5005097, 2.498322 
2.5380442e+2, 3.7475076e+0, -175624.81, -836067.94, 902.41925, 0.026410598, 0.0021111753, -175623.58, -175623.58, 0.0, 2.500507, 2.498321 
2.5380442e+2, 6.2458456e+0, -177164.4, -836832.0, 1069.3458, 0.02513451, 0.0035198804, -177162.67, -177162.67, 0.0, 2.5005045, 2.498321 
2.538044e+2, 8.7441844e+0, -178705.17, -837596.6, 1235.9166, 0.023863833, 0.0049295896, -178702.86, -178702.86, 0.0, 2.5005019, 2.4983208 
2.5380442e+2, 1.1242589e+1, -137110.8, -751650.7, 2283.8296, 0.023658633, 0.0056952843, -137102.31, -137102.31, 0.0, 2.5005026, 2.4984682 
2.5380442e+2, 1.3741058e+1, -135105.14, -750295.75, 1583.4269, 0.02475555, 0.0054104608, -135101.06, -135101.06, 0.0, 2.5005054, 2.4984689 
2.5380445e+2, 1.6239527e+1, -133382.42, -749526.44, 1819.4541, 0.02585309, 0.005127496, -133377.05, -133377.05, 0.0, 2.5005085, 2.4984689 
2.5380445e+2, 1.8737996e+1, -131660.47, -748757.56, 2054.8577, 0.026950931, 0.004846883, -131653.64, -131653.64, 0.0, 2.5005116, 2.4984686 
2.5380448e+2, 2.1236542e+1, -86752.336, -655018.44, 5147.453, 0.02645217, 0.0045034774, -86705.71, -86705.71, 0.0, 2.5005112, 2.4986296 
2.5380445e+2, 2.3735164e+1, -89108.58, -655290.25, 3865.5676, 0.024501346, 0.0034458092, -89082.19, -89082.19, 0.0, 2.5005062, 2.4986315 
2.5380445e+2, 2.623379e+1, -92066.48, -656806.5, 4178.446, 0.022557126, 0.0023895565, -92035.56, -92035.56, 0.0, 2.5005012, 2.4986315 
2.5380445e+2, 2.8732413e+1, -95027.05, -658325.3, 4490.6445, 0.020619083, 0.0013363784, -94991.25, -94991.25, 0.0, 2.5004961, 2.4986312 
2.5380445e+2, 3.1231108e+1, -56224.715, -578659.2, 5824.111, 0.019350382, 0.0012906672, -56159.797, -56159.797, 0.0, 2.500497, 2.4987674 
2.5380445e+2, 3.372988e+1, -51975.78, -575118.94, 4396.7173, 0.019171687, 0.0012435357, -51938.832, -51938.832, 0.0, 2.5005028, 2.4987707 
2.5380445e+2, 3.6228654e+1, -48734.098, -573663.5, 4886.334, 0.018993113, 0.001197305, -48688.617, -48688.617, 0.0, 2.5005085, 2.4987705 
2.5380445e+2, 3.8727424e+1, -45494.035, -572208.8, 5374.811, 0.01881315, 0.0011557086, -45439.19, -45439.19, 0.0, 2.5005143, 2.4987702 
2.5380448e+2, 4.1226274e+1, -4634.6035, -487675.84, 9252.479, 0.01748683, 0.0017051218, -4457.441, -4457.441, 0.0, 2.5005145, 2.498915 
2.5380445e+2, 4.3725193e+1, -6787.982, -486440.97, 7976.5977, 0.014985131, 0.0015208763, -6655.368, -6655.368, 0.0, 2.5005085, 2.4989202 
2.5380445e+2, 4.6224108e+1, -10438.244, -488307.28, 8459.07, 0.012487533, 0.0013347466, -10288.552, -10288.552, 0.0, 2.5005023, 2.49892 
2.5380445e+2, 4.872303e+1, -14090.223, -490173.34, 8940.171, 0.009994268, 0.0011530466, -13922.397, -13922.397, 0.0, 2.5004961, 2.4989197 
2.5380445e+2, 5.1222026e+1, 29000.781, -402583.06, 7403.3047, 0.007876607, 0.001750004, 29127.738, 29127.738, 0.0, 2.5004983, 2.499069 
2.5380442e+2, 5.37211e+1, 36546.4, -395877.94, 6372.1094, 0.0061781625, 0.001432351, 36640.277, 36640.277, 0.0, 2.5005078, 2.499076 
2.538044e+2, 5.6220174e+1, 42103.887, -393294.72, 6630.35, 0.0044814907, 0.0011101337, 42204.832, 42204.832, 0.0, 2.5005176, 2.4990757 
2.5380436e+2, 5.871925e+1, 47658.656, -390712.78, 6886.9053, 0.0027866147, 0.00079283386, 47766.824, 47766.824, 0.0, 2.5005271, 2.4990754 
2.5380436e+2, 6.121839e+1, 86334.734, -311464.5, 7869.8013, 0.0011035514, 0.0017716397, 86490.37, 86490.37, 0.0, 2.5005283, 2.4992108 
2.5380433e+2, 6.3717616e+1, 84105.08, -308873.5, 8339.454, -0.0010138899, 0.002202517, 84281.97, 84281.97, 0.0, 2.5005205, 2.499219 
2.538043e+2, 6.6216844e+1, 79532.99, -311143.47, 9251.0205, -0.0031354562, 0.002625489, 79751.93, 79751.93, 0.0, 2.5005128, 2.499219 
2.5380427e+2, 6.871607e+1, 74958.27, -313414.72, 10161.719, -0.0052580824, 0.003052239, 75223.98, 75223.98, 0.0, 2.500505, 2.4992187 
2.538042e+2, 7.121536e+1, 115809.43, -228724.16, 7012.83, -0.006644711, 0.00458208, 115952.12, 115952.12, 0.0, 2.5005052, 2.4993641 
2.5380418e+2, 7.371474e+1, 123851.54, -220375.17, 7784.51, -0.008361167, 0.004910435, 124027.49, 124027.49, 0.0, 2.5005143, 2.499374 
2.5380412e+2, 7.6214117e+1, 129064.41, -217904.05, 8205.643, -0.0100867385, 0.0052254307, 129258.36, 129258.36, 0.0, 2.500523, 2.499374 
2.538041e+2, 7.8713495e+1, 134274.6, -215434.2, 8626.068, -0.011813509, 0.0055430527, 134487.23, 134487.23, 0.0, 2.5005322, 2.499374 
2.53804e+2, 8.1212944e+1, 175848.83, -130847.66, 5040.798, -0.013433992, 0.006436029, 175931.66, 175931.66, 0.0, 2.500534, 2.4995182 
2.5380394e+2, 8.371247e+1, 176362.06, -125278.3, 6710.097, -0.015371973, 0.006345296, 176511.25, 176511.25, 0.0, 2.5005293, 2.49953 
2.5380385e+2, 8.6212e+1, 173533.17, -126650.414, 7231.598, -0.017311247, 0.006242842, 173707.28, 173707.28, 0.0, 2.5005245, 2.49953 
2.538038e+2, 8.8711524e+1, 170700.64, -128024.28, 7753.371, -0.019248748, 0.006139903, 170901.73, 170901.73, 0.0, 2.5005195, 2.49953 
2.538037e+2, 9.1211146e+1, 208166.25, -49393.17, 3233.8208, -0.0192069, 0.009159125, 208206.84, 208206.84, 0.0, 2.5005188, 2.4996655 
2.538036e+2, 9.371083e+1, 214838.05, -39767.09, 4333.9966, -0.021298839, 0.0105419615, 214911.8, 214911.8, 0.0, 2.5005233, 2.4996798 
2.5380352e+2, 9.621053e+1, 217487.33, -38493.063, 4468.384, -0.02342455, 0.0118674375, 217565.3, 217565.3, 0.0, 2.5005279, 2.4996798 
2.538034e+2, 9.8710215e+1, 220127.84, -37223.25, 4604.0654, -0.025550302, 0.013173009, 220210.19, 220210.19, 0.0, 2.5005324, 2.4996798 
2.5630495e+2, 1.24916926e+0, -173539.84, -834169.7, 396.3211, 0.02866665, 0.00065057096, -173539.61, -173539.61, 0.0, 2.5005097, 2.498323 
2.5630492e+2, 3.7475076e+0, -175313.9, -835424.06, 503.9706, 0.027348654, 0.0019524643, -175313.52, -175313.52, 0.0, 2.500507, 2.4983222 
2.5630492e+2, 6.245846e+0, -176852.17, -836186.7, 672.47986, 0.026031317, 0.0032553603, -176851.48, -176851.48, 0.0, 2.5005045, 2.498322 
2.563049e+2, 8.7441844e+0, -178391.6, -836949.9, 840.63324, 0.024714638, 0.004559259, -178390.53, -178390.53, 0.0, 2.5005019, 2.498322 
2.5630492e+2, 1.1242594e+1, -136659.98, -750734.75, 2774.8887, 0.024372064, 0.005660936, -136647.44, -136647.44, 0.0, 2.5005026, 2.4984696 
2.5630492e+2, 1.3741072e+1, -134643.53, -749360.44, 2036.7401, 0.025210653, 0.0061491393, -134636.78, -134636.78, 0.0, 2.5005054, 2.4984705 
2.5630495e+2, 1.6239549e+1, -132921.17, -748595.0, 2274.202, 0.02604684, 0.0066402727, -132912.77, -132912.77, 0.0, 2.5005085, 2.4984703 
2.5630495e+2, 1.8738027e+1, -131199.94, -747830.7, 2511.2292, 0.026880356, 0.0071348376, -131189.72, -131189.72, 0.0, 2.5005116, 2.4984703 
2.5630498e+2, 2.1236582e+1, -86103.02, -653743.0, 4456.5854, 0.026653716, 0.007227469, -86068.04, -86068.04, 0.0, 2.5005112, 2.4986317 
2.5630498e+2, 2.3735209e+1, -88457.52, -654017.3, 3108.4802, 0.025608439, 0.0062629995, -88440.44, -88440.44, 0.0, 2.5005062, 2.4986336 
2.5630495e+2, 2.6233834e+1, -91414.08, -655536.8, 3423.3906, 0.024564553, 0.005300661, -91393.305, -91393.305, 0.0, 2.5005012, 2.4986336 
2.5630495e+2, 2.873246e+1, -94373.69, -657059.56, 3737.9248, 0.023521392, 0.00434211, -94348.86, -94348.86, 0.0, 2.5004961, 2.4986334 
2.5630498e+2, 3.1231156e+1, -55219.152, -576698.6, 6766.5806, 0.022369035, 0.0038101631, -55131.367, -55131.367, 0.0, 2.5004973, 2.4987707 
2.5630498e+2, 3.3729923e+1, -50944.344, -573112.8, 5250.21, 0.021407224, 0.0027075964, -50891.56, -50891.56, 0.0, 2.500503, 2.498774 
2.5630498e+2, 3.6228687e+1, -47700.87, -571661.75, 5741.7656, 0.020439778, 0.0016060623, -47637.957, -47637.957, 0.0, 2.5005088, 2.4987738 
2.5630498e+2, 3.872745e+1, -44459.043, -570211.44, 6232.4155, 0.019465577, 0.00050922047, -44385.17, -44385.17, 0.0, 2.5005143, 2.4987736 
2.5630498e+2, 4.1226304e+1, -3589.731, -485716.5, 8398.287, 0.017876836, 0.0013408392, -3443.4834, -3443.4834, 0.0, 2.5005147, 2.4989183 
2.5630498e+2, 4.3725243e+1, -5702.88, -484407.22, 7045.726, 0.015784051, 0.0027881267, -5599.201, -5599.201, 0.0, 2.5005088, 2.4989235 
2.5630495e+2, 4.6224183e+1, -9351.413, -486278.66, 7530.832, 0.013688923, 0.0042327405, -9232.528, -9232.528, 0.0, 2.5005026, 2.4989233 
2.5630495e+2, 4.8723117e+1, -13000.924, -488148.3, 8014.781, 0.011591114, 0.0056810277, -12865.769, -12865.769, 0.0, 2.5004964, 2.498923 
2.5630495e+2, 5.122212e+1, 29688.531, -401411.75, 8884.494, 0.009431614, 0.0066998545, 29871.553, 29871.553, 0.0, 2.5004985, 2.499071 
2.5630492e+2, 5.372119e+1, 37260.055, -394662.75, 7828.3696, 0.0071271514, 0.005552181, 37401.895, 37401.895, 0.0, 2.500508, 2.4990778 
2.563049e+2, 5.622026e+1, 42821.477, -392081.16, 8089.42, 0.004816114, 0.0043978537, 42971.895, 42971.895, 0.0, 2.5005178, 2.4990776 
2.563049e+2, 5.8719325e+1, 48380.504, -389500.22, 8348.944, 0.0024991487, 0.0032464478, 48539.633, 48539.633, 0.0, 2.5005274, 2.4990773 
2.5630486e+2, 6.121847e+1, 88258.875, -307783.38, 6709.7085, 0.0008371543, 0.0037295758, 88372.516, 88372.516, 0.0, 2.5005286, 2.499217 
2.5630483e+2, 6.37177e+1, 86079.31, -305095.2, 7170.5605, -0.00054768194, 0.003997633, 86210.71, 86210.71, 0.0, 2.500521, 2.4992254 
2.563048e+2, 6.621693e+1, 81508.97, -307368.25, 8084.4644, -0.001942828, 0.0042572273, 81676.97, 81676.97, 0.0, 2.500513, 2.4992251 
2.5630477e+2, 6.8716156e+1, 76935.984, -309642.6, 8997.499, -0.0033454648, 0.0045201313, 77145.29, 77145.29, 0.0, 2.5005054, 2.4992251 
2.5630474e+2, 7.121546e+1, 116901.14, -226801.69, 8278.572, -0.0049627135, 0.0062061115, 117100.42, 117100.42, 0.0, 2.5005057, 2.4993672 
2.5630468e+2, 7.3714846e+1, 124938.5, -218467.42, 9149.165, -0.007968278, 0.0069904565, 125182.086, 125182.086, 0.0, 2.5005145, 2.499377 
2.5630462e+2, 7.6214224e+1, 130154.28, -215995.03, 9572.296, -0.010988988, 0.0077615776, 130418.79, 130418.79, 0.0, 2.5005236, 2.499377 
2.563046e+2, 7.8713614e+1, 135367.39, -213523.94, 9994.721, -0.014016384, 0.008535684, 135653.47, 135653.47, 0.0, 2.5005326, 2.499377 
2.5630453e+2, 8.121307e+1, 177161.52, -128483.664, 4248.925, -0.0154680135, 0.009260649, 177220.58, 177220.58, 0.0, 2.5005345, 2.499522 
2.5630447e+2, 8.3712584e+1, 177651.13, -122961.88, 5989.158, -0.015684286, 0.008285072, 177770.39, 177770.39, 0.0, 2.5005298, 2.499534 
2.563044e+2, 8.621211e+1, 174820.52, -124336.086, 6513.237, -0.015908284, 0.007299436, 174962.25, 174962.25, 0.0, 2.5005248, 2.499534 
2.5630435e+2, 8.871163e+1, 171986.27, -125712.055, 7037.5874, -0.016137201, 0.0063155377, 172152.53, 172152.53, 0.0, 2.50052, 2.499534 
2.5630426e+2, 9.121125e+1, 208916.06, -48230.594, 3744.5205, -0.0164257, 0.0090948045, 208970.58, 208970.58, 0.0, 2.500519, 2.4996672 
2.5630414e+2, 9.371095e+1, 215438.38, -38905.285, 5037.4287, -0.02131241, 0.010879731, 215538.11, 215538.11, 0.0, 2.5005238, 2.499681 
2.5630403e+2, 9.621064e+1, 218083.4, -37629.74, 5178.3115, -0.026250863, 0.012610159, 218188.22, 218188.22, 0.0, 2.5005283, 2.499681 
2.563039e+2, 9.8710334e+1, 220719.67, -36358.406, 5320.489, -0.03120457, 0.014323756, 220829.73, 220829.73, 0.0, 2.5005329, 2.499681 
2.5880548e+2, 1.24916926e+0, -177518.53, -835595.3, -35.355602, 0.02964923, 0.00059680594, -177518.52, -177518.52, 0.0, 2.5005023, 2.4983242 
2.5880545e+2, 3.747508e+0, -179133.67, -836778.6, 21.836372, 0.028293721, 0.0017911694, -179133.67, -179133.67, 0.0, 2.5005002, 2.4983232 
2.5880545e+2, 6.245846e+0, -180543.52, -837478.56, 134.57164, 0.026934378, 0.0029865361, -180543.48, -180543.48, 0.0, 2.5004978, 2.4983232 
2.5880542e+2, 8.7441844e+0, -181988.98, -838195.6, 246.12337, 0.0255712, 0.004182906, -181988.89, -181988.89, 0.0, 2.5004952, 2.4983232 
2.5880542e+2, 1.1242598e+1, -140004.22, -751660.1, 3025.9539, 0.025098387, 0.0056215795, -139989.25, -139989.25, 0.0, 2.500496, 2.4984713 
2.5880545e+2, 1.3741086e+1, -137820.61, -750184.56, 2224.3953, 0.025678687, 0.0068794964, -137812.53, -137812.53, 0.0, 2.5004992, 2.4984722 
2.5880545e+2, 1.6239575e+1, -135977.08, -749364.0, 2444.3223, 0.026253823, 0.008141369, -135967.33, -135967.33, 0.0, 2.5005026, 2.498472 
2.5880548e+2, 1.8738061e+1, -134166.11, -748560.56, 2669.293, 0.026823586, 0.009407717, -134154.52, -134154.52, 0.0, 2.5005057, 2.4984717 
2.5880548e+2, 2.123662e+1, -88647.445, -654024.25, 3450.9382, 0.02685437, 0.009944229, -88626.38, -88626.38, 0.0, 2.5005057, 2.4986339 
2.588055e+2, 2.373525e+1, -90604.31, -654096.25, 1988.3826, 0.026714372, 0.009070837, -90597.3, -90597.3, 0.0, 2.5005014, 2.4986358 
2.588055e+2, 2.623388e+1, -93212.78, -655451.25, 2271.3105, 0.026570829, 0.008200242, -93203.61, -93203.61, 0.0, 2.500497, 2.4986355 
2.588055e+2, 2.8732508e+1, -95865.26, -656829.94, 2559.7727, 0.026422756, 0.0073341476, -95853.58, -95853.58, 0.0, 2.5004926, 2.4986355 
2.588055e+2, 3.1231204e+1, -56100.17, -575654.6, 7277.6367, 0.025401361, 0.0063191582, -55998.25, -55998.25, 0.0, 2.5004942, 2.4987738 
2.588055e+2, 3.3729962e+1, -51575.96, -571908.0, 5680.639, 0.023657678, 0.0041598626, -51513.95, -51513.95, 0.0, 2.5005002, 2.4987774 
2.588055e+2, 3.6228716e+1, -48163.656, -570380.2, 6192.3896, 0.021902854, 0.0020017119, -48090.24, -48090.24, 0.0, 2.5005062, 2.4987772 
2.588055e+2, 3.8727474e+1, -44805.203, -568878.44, 6710.666, 0.020136278, -0.00015167665, -44719.29, -44719.29, 0.0, 2.5005121, 2.498777 
2.588055e+2, 4.1226333e+1, -3669.0251, -484308.8, 7203.995, 0.018261366, 0.0009688255, -3561.0735, -3561.0735, 0.0, 2.500513, 2.4989216 
2.588055e+2, 4.372529e+1, -5322.1616, -482709.28, 5792.4873, 0.016578745, 0.0040449435, -5251.887, -5251.887, 0.0, 2.5005076, 2.4989269 
2.5880548e+2, 4.622425e+1, -8622.87, -484418.5, 6315.1963, 0.0148878405, 0.0071176393, -8539.064, -8539.064, 0.0, 2.500502, 2.4989266 
2.5880548e+2, 4.872321e+1, -11989.221, -486155.72, 6843.767, 0.013187524, 0.010193369, -11890.464, -11890.464, 0.0, 2.5004964, 2.4989264 
2.5880545e+2, 5.1222223e+1, 30441.23, -400213.56, 10182.981, 0.010996615, 0.011644546, 30681.875, 30681.875, 0.0, 2.5004988, 2.4990728 
2.5880545e+2, 5.3721285e+1, 38058.95, -393399.53, 9187.118, 0.008087315, 0.009665458, 38254.48, 38254.48, 0.0, 2.5005085, 2.4990797 
2.5880542e+2, 5.622034e+1, 43557.44, -390851.38, 9538.93, 0.0051633436, 0.00767766, 43766.8, 43766.8, 0.0, 2.500518, 2.4990795 
2.5880542e+2, 5.87194e+1, 48973.582, -388341.72, 9892.73, 0.0022260947, 0.0056909467, 49197.258, 49197.258, 0.0, 2.5005276, 2.4990792 
2.588054e+2, 6.121855e+1, 90045.56, -304170.72, 5720.1943, 0.0005701007, 0.0056843036, 90128.55, 90128.55, 0.0, 2.5005288, 2.4992232 
2.5880536e+2, 6.371778e+1, 88080.91, -301295.38, 6244.9863, -0.00008254891, 0.005788, 88181.04, 88181.04, 0.0, 2.5005214, 2.4992316 
2.5880533e+2, 6.621701e+1, 83591.34, -303533.06, 7242.883, -0.0007511451, 0.00588265, 83726.81, 83726.81, 0.0, 2.5005138, 2.4992316 
2.588053e+2, 6.8716246e+1, 79019.79, -305810.22, 8244.668, -0.0014333124, 0.0059801983, 79196.34, 79196.34, 0.0, 2.500506, 2.4992313 
2.5880527e+2, 7.121556e+1, 117860.98, -224949.4, 10049.997, -0.0032718517, 0.007832704, 118155.36, 118155.36, 0.0, 2.5005057, 2.4993703 
2.5880522e+2, 7.371495e+1, 125441.17, -216831.64, 11124.285, -0.0075679207, 0.0090713855, 125802.34, 125802.34, 0.0, 2.500514, 2.4993804 
2.5880516e+2, 7.621434e+1, 130111.836, -214621.89, 11652.532, -0.011884977, 0.010296792, 130505.26, 130505.26, 0.0, 2.500522, 2.49938 
2.588051e+2, 7.8713727e+1, 134694.27, -212454.64, 12179.582, -0.0162139, 0.011525505, 135121.06, 135121.06, 0.0, 2.50053, 2.49938 
2.5880504e+2, 8.121319e+1, 176152.27, -127251.086, 4374.748, -0.017490275, 0.012088096, 176215.34, 176215.34, 0.0, 2.500531, 2.4995258 
2.58805e+2, 8.37127e+1, 176203.53, -121954.91, 6292.2954, -0.01598632, 0.010226384, 176336.27, 176336.27, 0.0, 2.5005252, 2.4995377 
2.5880492e+2, 8.621222e+1, 172860.1, -123577.34, 6925.1133, -0.014496237, 0.00835608, 173021.78, 173021.78, 0.0, 2.5005195, 2.4995377 
2.588049e+2, 8.871174e+1, 169430.1, -125241.48, 7559.97, -0.013017402, 0.0064896354, 169623.92, 169623.92, 0.0, 2.5005138, 2.4995377 
2.588048e+2, 9.1211355e+1, 204975.19, -49354.543, 5592.589, -0.013629105, 0.00905634, 205098.1, 205098.1, 0.0, 2.5005116, 2.499669 
2.5880465e+2, 9.371106e+1, 210234.06, -40832.023, 7145.107, -0.021310095, 0.0112396795, 210437.25, 210437.25, 0.0, 2.500514, 2.4996824 
2.588045e+2, 9.621076e+1, 211556.61, -40190.023, 7364.25, -0.029059937, 0.013370874, 211771.86, 211771.86, 0.0, 2.5005164, 2.4996824 
2.5880435e+2, 9.871046e+1, 212698.83, -39634.867, 7581.6045, -0.03683931, 0.015488246, 212926.42, 212926.42, 0.0, 2.5005183, 2.4996824 
2.6130596e+2, 1.24917015e+0, -182140.33, -837520.94, -134.05437, 0.029505923, 0.0006475746, -182140.3, -182140.3, 0.0, 2.5004942, 2.4983249 
2.6130596e+2, 3.7475103e+0, -181979.69, -837853.06, -47.133224, 0.028928738, 0.0019433642, -181979.69, -181979.69, 0.0, 2.500495, 2.498324 
2.6130593e+2, 6.2458503e+0, -181575.9, -837678.75, 91.9572, 0.028359476, 0.0032400084, -181575.89, -181575.89, 0.0, 2.5004957, 2.498324 
2.6130593e+2, 8.7441903e+0, -181172.86, -837504.9, 230.73798, 0.02779814, 0.004537507, -181172.78, -181172.78, 0.0, 2.5004964, 2.4983237 
2.6130593e+2, 1.1242608e+1, -138867.89, -749418.5, 3693.8857, 0.027417006, 0.006073625, -138845.55, -138845.55, 0.0, 2.5004961, 2.4984748 
2.6130596e+2, 1.37411e+1, -139515.58, -749290.94, 3600.4482, 0.027345091, 0.007428719, -139494.33, -139494.33, 0.0, 2.5004945, 2.498476 
2.6130596e+2, 1.6239594e+1, -140476.83, -749811.94, 4555.7773, 0.027280498, 0.008785431, -140442.77, -140442.77, 0.0, 2.500493, 2.4984758 
2.6130596e+2, 1.8738085e+1, -141440.8, -750336.5, 5511.021, 0.027223058, 0.010144274, -141390.92, -141390.92, 0.0, 2.5004914, 2.4984756 
2.61306e+2, 2.1236649e+1, -96660.62, -657558.2, 6233.689, 0.02717297, 0.010795086, -96591.34, -96591.34, 0.0, 2.5004916, 2.4986346 
2.61306e+2, 2.3735279e+1, -95503.09, -656102.9, 4361.1245, 0.027569259, 0.010049473, -95469.164, -95469.164, 0.0, 2.5004926, 2.4986367 
2.61306e+2, 2.6233912e+1, -94963.98, -655927.94, 4304.0347, 0.02797107, 0.009306176, -94930.96, -94930.96, 0.0, 2.5004938, 2.4986365 
2.61306e+2, 2.873254e+1, -94427.57, -655757.06, 4247.108, 0.028377239, 0.008566916, -94395.44, -94395.44, 0.0, 2.5004947, 2.4986362 
2.6130602e+2, 3.123124e+1, -55026.594, -573772.8, 9345.889, 0.027466286, 0.0076988526, -54858.273, -54858.273, 0.0, 2.5004945, 2.498777 
2.6130602e+2, 3.3730003e+1, -55351.883, -572324.7, 7544.896, 0.02530331, 0.0057173986, -55241.793, -55241.793, 0.0, 2.5004923, 2.4987805 
2.6130602e+2, 3.6228764e+1, -56749.375, -573098.1, 7918.3555, 0.023146205, 0.0037374757, -56627.973, -56627.973, 0.0, 2.50049, 2.4987803 
2.61306e+2, 3.8727528e+1, -58148.938, -573873.4, 8291.449, 0.020994673, 0.0017626637, -58015.668, -58015.668, 0.0, 2.5004878, 2.49878 
2.6130602e+2, 4.122639e+1, -17019.1, -489014.97, 8357.101, 0.019014524, 0.002942169, -16871.176, -16871.176, 0.0, 2.5004883, 2.4989254 
2.61306e+2, 4.3725353e+1, -14108.7705, -485161.0, 6883.701, 0.017591119, 0.005961383, -14008.197, -14008.197, 0.0, 2.5004907, 2.498931 
2.61306e+2, 4.622431e+1, -12804.183, -484635.03, 7419.117, 0.016173352, 0.008982756, -12687.552, -12687.552, 0.0, 2.500493, 2.4989307 
2.6130596e+2, 4.8723274e+1, -11498.794, -484104.94, 7953.9697, 0.014759702, 0.012012724, -11364.966, -11364.966, 0.0, 2.5004954, 2.4989305 
2.6130596e+2, 5.122229e+1, 29443.773, -399329.44, 12140.672, 0.012611895, 0.013563365, 29787.262, 29787.262, 0.0, 2.5004957, 2.4990757 
2.6130596e+2, 5.3721356e+1, 30165.512, -395795.28, 11184.435, 0.009417205, 0.011822625, 30458.979, 30458.979, 0.0, 2.5004935, 2.4990828 
2.6130593e+2, 5.622042e+1, 28830.734, -396528.84, 11589.552, 0.0062248325, 0.01008117, 29146.275, 29146.275, 0.0, 2.5004914, 2.4990826 
2.6130593e+2, 5.8719486e+1, 27495.172, -397261.28, 11993.796, 0.0030366397, 0.008348853, 27833.568, 27833.568, 0.0, 2.5004892, 2.4990826 
2.613059e+2, 6.121864e+1, 69221.05, -312012.88, 6863.365, 0.0012458268, 0.008394891, 69344.57, 69344.57, 0.0, 2.5004907, 2.499228 
2.6130587e+2, 6.371787e+1, 74841.01, -305435.75, 6698.3975, 0.000605479, 0.008314398, 74958.96, 74958.96, 0.0, 2.5004961, 2.4992366 
2.6130584e+2, 6.621711e+1, 77994.0, -303981.56, 6987.534, -0.00003425264, 0.008227655, 78121.78, 78121.78, 0.0, 2.5005016, 2.4992366 
2.613058e+2, 6.871635e+1, 81144.97, -302528.7, 7275.61, -0.000671159, 0.00814677, 81282.89, 81282.89, 0.0, 2.500507, 2.4992363 
2.6130578e+2, 7.121566e+1, 120097.58, -222199.17, 9027.701, -0.0025377567, 0.009936024, 120335.51, 120335.51, 0.0, 2.5005078, 2.499374 
2.6130572e+2, 7.3715055e+1, 120759.66, -217424.6, 9999.225, -0.007003571, 0.011180494, 121055.05, 121055.05, 0.0, 2.500504, 2.499384 
2.6130566e+2, 7.6214457e+1, 118604.87, -218503.0, 10338.013, -0.011477596, 0.012409276, 118921.6, 118921.6, 0.0, 2.5005004, 2.499384 
2.613056e+2, 7.8713846e+1, 116447.93, -219582.44, 10676.341, -0.015950281, 0.0136392815, 116786.8, 116786.8, 0.0, 2.5004969, 2.4993837 
2.6130554e+2, 8.12133e+1, 158040.36, -134482.31, 2350.464, -0.017301558, 0.014197976, 158059.23, 158059.23, 0.0, 2.5004983, 2.4995291 
2.613055e+2, 8.371282e+1, 166114.4, -125396.29, 3856.7483, -0.015804872, 0.012299319, 166165.44, 166165.44, 0.0, 2.5005064, 2.4995408 
2.6130545e+2, 8.621234e+1, 170929.19, -123088.57, 3948.7026, -0.014305721, 0.010385933, 170982.2, 170982.2, 0.0, 2.5005147, 2.4995408 
2.6130542e+2, 8.871186e+1, 175741.5, -120782.04, 4040.7795, -0.012801442, 0.008470474, 175796.55, 175796.55, 0.0, 2.500523, 2.4995408 
2.6130533e+2, 9.1211486e+1, 213463.63, -44656.293, 1273.0425, -0.013500719, 0.010967361, 213469.89, 213469.89, 0.0, 2.5005255, 2.4996703 
2.6130518e+2, 9.371118e+1, 215867.7, -37705.22, 2596.6704, -0.021665443, 0.012916309, 215894.28, 215894.28, 0.0, 2.5005233, 2.4996834 
2.6130503e+2, 9.6210885e+1, 214633.81, -38303.23, 2408.9626, -0.029864565, 0.014806645, 214656.75, 214656.75, 0.0, 2.5005212, 2.4996834 
2.613049e+2, 9.871058e+1, 213377.33, -38912.133, 2221.7668, -0.038056567, 0.016677843, 213396.89, 213396.89, 0.0, 2.500519, 2.4996834 
2.6380643e+2, 1.24917224e+0, -181877.63, -836976.06, -32.965134, 0.027534932, 0.00080584944, -181877.63, -181877.63, 0.0, 2.5004942, 2.4983258 
2.6380646e+2, 3.7475166e+0, -181718.14, -837312.4, 59.261486, 0.028524771, 0.0024180557, -181718.14, -181718.14, 0.0, 2.500495, 2.4983249 
2.6380646e+2, 6.245861e+0, -181313.63, -837138.44, 199.61383, 0.029518703, 0.0040309397, -181313.58, -181313.58, 0.0, 2.5004957, 2.4983249 
2.6380646e+2, 8.744205e+0, -180909.88, -836964.9, 339.65652, 0.03051673, 0.0056445003, -180909.69, -180909.69, 0.0, 2.5004964, 2.4983246 
2.638065e+2, 1.1242625e+1, -137062.81, -745691.4, 3474.0066, 0.03043851, 0.00707364, -137042.98, -137042.98, 0.0, 2.5004961, 2.4984813 
2.638065e+2, 1.3741118e+1, -137715.13, -745577.2, 3355.7563, 0.029401468, 0.007916553, -137696.6, -137696.6, 0.0, 2.5004945, 2.4984822 
2.6380646e+2, 1.6239613e+1, -138675.72, -746100.6, 4312.647, 0.0283684, 0.008761371, -138645.1, -138645.1, 0.0, 2.500493, 2.4984822 
2.6380646e+2, 1.8738106e+1, -139639.48, -746628.44, 5269.613, 0.02733914, 0.009608581, -139593.73, -139593.73, 0.0, 2.5004914, 2.498482 
2.638065e+2, 2.123667e+1, -96703.21, -657715.7, 6454.255, 0.02692378, 0.010079528, -96628.96, -96628.96, 0.0, 2.5004916, 2.4986343 
2.638065e+2, 2.3735303e+1, -95538.69, -656252.5, 4509.943, 0.027570821, 0.009495458, -95502.414, -95502.414, 0.0, 2.5004928, 2.4986362 
2.638065e+2, 2.6233935e+1, -94998.24, -656081.25, 4453.957, 0.02822054, 0.008913996, -94962.89, -94962.89, 0.0, 2.5004938, 2.4986362 
2.6380652e+2, 2.8732568e+1, -94460.63, -655914.3, 4398.205, 0.028871765, 0.008336844, -94426.18, -94426.18, 0.0, 2.5004947, 2.498636 
2.6380652e+2, 3.1231275e+1, -54208.13, -572202.9, 9051.862, 0.02806748, 0.008193867, -54049.996, -54049.996, 0.0, 2.5004947, 2.4987795 
2.6380652e+2, 3.3730054e+1, -54529.113, -570754.2, 7194.5767, 0.025863511, 0.0075115184, -54428.86, -54428.86, 0.0, 2.5004923, 2.498783 
2.6380652e+2, 3.6228833e+1, -55924.703, -571531.9, 7569.5376, 0.023661945, 0.006830335, -55813.598, -55813.598, 0.0, 2.5004902, 2.4987829 
2.6380652e+2, 3.8727608e+1, -57322.813, -572312.3, 7944.4033, 0.02146251, 0.006153884, -57200.29, -57200.29, 0.0, 2.5004878, 2.4987826 
2.6380652e+2, 4.122647e+1, -15841.504, -486760.66, 8778.973, 0.019578192, 0.007168854, -15677.901, -15677.901, 0.0, 2.5004885, 2.4989293 
2.638065e+2, 4.3725422e+1, -12924.181, -482902.25, 7236.3315, 0.018360823, 0.008561819, -12812.788, -12812.788, 0.0, 2.500491, 2.4989347 
2.638065e+2, 4.6224374e+1, -11616.337, -482379.3, 7773.2446, 0.017145405, 0.009955616, -11488.02, -11488.02, 0.0, 2.5004933, 2.4989345 
2.638065e+2, 4.872332e+1, -10308.03, -481852.97, 8309.887, 0.015930526, 0.011356549, -10161.633, -10161.633, 0.0, 2.5004957, 2.4989343 
2.638065e+2, 5.1222336e+1, 30429.652, -397538.4, 11820.781, 0.013903712, 0.01266907, 30755.902, 30755.902, 0.0, 2.500496, 2.4990788 
2.6380646e+2, 5.3721416e+1, 31166.775, -393981.8, 10854.882, 0.010741713, 0.012133097, 31443.742, 31443.742, 0.0, 2.5004938, 2.499086 
2.6380646e+2, 5.6220496e+1, 29835.273, -394717.78, 11261.523, 0.0075782365, 0.011594997, 30133.781, 30133.781, 0.0, 2.5004916, 2.4990857 
2.6380643e+2, 5.8719575e+1, 28502.842, -395452.94, 11667.499, 0.0044152187, 0.011064503, 28823.695, 28823.695, 0.0, 2.5004895, 2.4990854 
2.638064e+2, 6.121874e+1, 70052.42, -310595.4, 7652.7646, 0.0023755704, 0.011619242, 70206.22, 70206.22, 0.0, 2.500491, 2.4992304 
2.6380637e+2, 6.3717973e+1, 75672.414, -304024.84, 7530.6436, 0.0011682775, 0.011307174, 75821.71, 75821.71, 0.0, 2.5004964, 2.499239 
2.6380634e+2, 6.621721e+1, 78827.52, -302572.66, 7821.0347, -0.000041659332, 0.010988113, 78987.836, 78987.836, 0.0, 2.5005019, 2.4992387 
2.638063e+2, 6.871645e+1, 81980.38, -301122.3, 8110.386, -0.0012518299, 0.010674373, 82152.0, 82152.0, 0.0, 2.5005076, 2.4992387 
2.6380628e+2, 7.121576e+1, 121074.86, -220524.23, 8408.315, -0.0029761472, 0.0121458145, 121281.7, 121281.7, 0.0, 2.500508, 2.4993768 
2.6380622e+2, 7.3715156e+1, 121722.52, -215781.95, 9455.519, -0.0065756254, 0.012950637, 121987.22, 121987.22, 0.0, 2.5005045, 2.4993865 
2.638062e+2, 7.6214546e+1, 119568.09, -216861.69, 9795.728, -0.010186778, 0.013740001, 119853.07, 119853.07, 0.0, 2.500501, 2.4993865 
2.6380613e+2, 7.8713936e+1, 117411.516, -217942.45, 10135.478, -0.01379994, 0.0145310825, 117717.56, 117717.56, 0.0, 2.500497, 2.4993863 
2.6380607e+2, 8.1213397e+1, 158645.86, -133608.28, 3433.2524, -0.01548327, 0.01519815, 158686.19, 158686.19, 0.0, 2.5004985, 2.4995306 
2.63806e+2, 8.371293e+1, 166639.7, -124687.29, 5116.7915, -0.015566538, 0.014000474, 166729.55, 166729.55, 0.0, 2.5005069, 2.4995418 
2.6380593e+2, 8.6212456e+1, 171452.97, -122380.82, 5210.1616, -0.015650759, 0.01278888, 171545.33, 171545.33, 0.0, 2.5005152, 2.4995418 
2.638059e+2, 8.871198e+1, 176263.77, -120075.53, 5303.655, -0.01573309, 0.0115758525, 176358.66, 176358.66, 0.0, 2.5005236, 2.4995418 
2.638058e+2, 9.121161e+1, 213618.2, -44751.63, 788.4533, -0.016366571, 0.014120262, 213620.61, 213620.61, 0.0, 2.500526, 2.49967 
2.6380566e+2, 9.37113e+1, 215911.11, -38024.227, 2297.3696, -0.022969244, 0.015230666, 215931.9, 215931.9, 0.0, 2.5005238, 2.4996824 
2.6380554e+2, 9.621098e+1, 214678.39, -38620.957, 2114.5012, -0.029617764, 0.016281692, 214696.05, 214696.05, 0.0, 2.5005217, 2.4996824 
2.638054e+2, 9.871067e+1, 213439.55, -39220.637, 1932.4507, -0.03626908, 0.017314509, 213454.33, 213454.33, 0.0, 2.5005195, 2.4996824 
2.663069e+2, 1.24917425e+0, -181615.55, -836432.5, 68.50832, 0.025563931, 0.0009633193, -181615.55, -181615.55, 0.0, 2.5004942, 2.4983268 
2.6630694e+2, 3.7475225e+0, -181458.19, -836775.06, 165.91917, 0.028120771, 0.0028903324, -181458.16, -181458.16, 0.0, 2.500495, 2.4983258 
2.6630697e+2, 6.245871e+0, -181052.95, -836601.44, 307.53342, 0.030677877, 0.0048178458, -181052.81, -181052.81, 0.0, 2.5004957, 2.4983256 
2.6630697e+2, 8.7442195e+0, -180648.47, -836428.1, 448.83804, 0.033235244, 0.0067458586, -180648.16, -180648.16, 0.0, 2.5004964, 2.4983256 
2.66307e+2, 1.1242642e+1, -135263.89, -741977.1, 3257.2883, 0.03345958, 0.008071554, -135246.4, -135246.4, 0.0, 2.5004961, 2.4984877 
2.6630697e+2, 1.3741137e+1, -135916.19, -741866.6, 3111.8562, 0.03145796, 0.008399793, -135900.22, -135900.22, 0.0, 2.5004947, 2.4984887 
2.6630697e+2, 1.6239631e+1, -136876.14, -742392.44, 4070.3083, 0.029456967, 0.008730211, -136848.78, -136848.78, 0.0, 2.500493, 2.4984884 
2.6630697e+2, 1.8738127e+1, -137839.75, -742923.6, 5028.9946, 0.027456434, 0.009063283, -137797.95, -137797.95, 0.0, 2.5004914, 2.4984884 
2.6630697e+2, 2.1236692e+1, -96752.19, -657886.5, 6681.3945, 0.026673181, 0.009357467, -96672.65, -96672.65, 0.0, 2.5004919, 2.498634 
2.6630697e+2, 2.3735327e+1, -95575.664, -656404.94, 4659.99, 0.027572127, 0.0089324545, -95536.945, -95536.945, 0.0, 2.5004928, 2.498636 
2.66307e+2, 2.6233962e+1, -95033.88, -656237.4, 4605.108, 0.028470917, 0.00851032, -94996.09, -94996.09, 0.0, 2.5004938, 2.4986358 
2.66307e+2, 2.8732595e+1, -94495.07, -656074.5, 4550.5254, 0.029368361, 0.008092769, -94458.2, -94458.2, 0.0, 2.500495, 2.4986355 
2.6630703e+2, 3.123131e+1, -53397.47, -570649.1, 8765.837, 0.028665155, 0.00868058, -53248.957, -53248.957, 0.0, 2.500495, 2.4987822 
2.66307e+2, 3.3730102e+1, -53707.516, -569186.2, 6845.8354, 0.026421746, 0.009295144, -53616.617, -53616.617, 0.0, 2.5004926, 2.4987857 
2.66307e+2, 3.6228898e+1, -55101.203, -569968.06, 7222.299, 0.024177317, 0.009910453, -54999.914, -54999.914, 0.0, 2.5004904, 2.4987855 
2.66307e+2, 3.872769e+1, -56497.848, -570753.56, 7598.9365, 0.021931572, 0.010530117, -56385.586, -56385.586, 0.0, 2.500488, 2.4987853 
2.66307e+2, 4.1226554e+1, -14670.666, -484520.4, 9206.814, 0.020140918, 0.011387786, -14490.325, -14490.325, 0.0, 2.5004888, 2.4989328 
2.66307e+2, 4.3725494e+1, -11740.612, -480645.63, 7590.491, 0.01913094, 0.0111521445, -11617.771, -11617.771, 0.0, 2.5004911, 2.4989383 
2.66307e+2, 4.622443e+1, -10429.514, -480125.72, 8128.9023, 0.018119244, 0.010915925, -10288.871, -10288.871, 0.0, 2.5004935, 2.498938 
2.66307e+2, 4.8723367e+1, -9118.375, -479603.28, 8667.371, 0.01710451, 0.010685385, -8958.757, -8958.757, 0.0, 2.500496, 2.4989378 
2.66307e+2, 5.1222384e+1, 31408.68, -395761.6, 11506.495, 0.015192007, 0.011765832, 31718.4, 31718.4, 0.0, 2.5004961, 2.4990816 
2.6630697e+2, 5.372148e+1, 32167.18, -392170.13, 10526.685, 0.012063616, 0.012432418, 32428.158, 32428.158, 0.0, 2.500494, 2.4990888 
2.6630694e+2, 5.6220573e+1, 30838.95, -392908.5, 10934.851, 0.008930025, 0.013095381, 31120.938, 31120.938, 0.0, 2.5004919, 2.4990885 
2.6630694e+2, 5.871967e+1, 29509.709, -393646.25, 11342.583, 0.0057931715, 0.013764418, 29813.525, 29813.525, 0.0, 2.5004897, 2.4990883 
2.663069e+2, 6.121884e+1, 70874.04, -309198.2, 8445.329, 0.0035042348, 0.014837521, 71061.6, 71061.6, 0.0, 2.5004914, 2.4992325 
2.6630688e+2, 6.371807e+1, 76503.13, -302615.38, 8363.904, 0.0017303204, 0.014292135, 76687.56, 76687.56, 0.0, 2.5004969, 2.499241 
2.6630685e+2, 6.621731e+1, 79660.36, -301165.2, 8655.55, -0.00004949025, 0.013738874, 79856.984, 79856.984, 0.0, 2.5005023, 2.499241 
2.6630682e+2, 6.8716544e+1, 82815.13, -299717.28, 8946.168, -0.0018325937, 0.0131904, 83024.234, 83024.234, 0.0, 2.5005078, 2.4992409 
2.663068e+2, 7.1215856e+1, 122043.77, -218866.69, 7792.868, -0.0034160072, 0.014351379, 122221.81, 122221.81, 0.0, 2.5005085, 2.4993794 
2.6630673e+2, 7.3715246e+1, 122684.81, -214140.52, 8912.248, -0.006149282, 0.014714687, 122920.46, 122920.46, 0.0, 2.500505, 2.4993892 
2.663067e+2, 7.6214635e+1, 120530.74, -215221.58, 9253.88, -0.008897666, 0.015062643, 120785.6, 120785.6, 0.0, 2.5005012, 2.4993892 
2.6630664e+2, 7.8714037e+1, 118374.52, -216303.67, 9595.052, -0.011651406, 0.015412813, 118649.38, 118649.38, 0.0, 2.5004976, 2.499389 
2.6630658e+2, 8.121349e+1, 159234.64, -132769.03, 4519.236, -0.0136656845, 0.01619603, 159304.56, 159304.56, 0.0, 2.500499, 2.4995317 
2.6630652e+2, 8.371303e+1, 167164.45, -123979.445, 6376.731, -0.015328066, 0.015696902, 167304.05, 167304.05, 0.0, 2.5005074, 2.499543 
2.6630646e+2, 8.621257e+1, 171976.2, -121674.22, 6471.517, -0.016994823, 0.015184541, 172118.75, 172118.75, 0.0, 2.5005157, 2.4995427 
2.663064e+2, 8.87121e+1, 176785.48, -119370.18, 6566.4263, -0.01866293, 0.014671386, 176931.02, 176931.02, 0.0, 2.5005238, 2.4995427 
2.663063e+2, 9.121173e+1, 213748.25, -44897.95, 310.30594, -0.019235376, 0.01729231, 213748.63, 213748.63, 0.0, 2.5005264, 2.4996696 
2.663062e+2, 9.371141e+1, 215953.89, -38344.582, 1997.418, -0.024273382, 0.017560415, 215969.58, 215969.58, 0.0, 2.5005243, 2.4996817 
2.6630607e+2, 9.621109e+1, 214716.75, -38942.72, 1818.9087, -0.029368619, 0.017767902, 214729.8, 214729.8, 0.0, 2.5005221, 2.4996817 
2.6630595e+2, 9.871077e+1, 213473.48, -39543.8, 1641.2172, -0.034476563, 0.017958103, 213484.14, 213484.14, 0.0, 2.50052, 2.4996817 
2.6880738e+2, 1.2491763e+0, -185494.5, -837891.7, 139.7757, 0.02360458, 0.0011198159, -185494.47, -185494.47, 0.0, 2.500487, 2.4983275 
2.6880744e+2, 3.7475288e+0, -185225.75, -838187.2, 181.79866, 0.027727067, 0.0033597278, -185225.69, -185225.69, 0.0, 2.500488, 2.4983265 
2.6880747e+2, 6.2458813e+0, -184737.63, -837974.06, 266.04727, 0.031846274, 0.0056000147, -184737.52, -184737.52, 0.0, 2.500489, 2.4983265 
2.6880753e+2, 8.744234e+0, -184282.61, -837776.94, 351.89575, 0.0359622, 0.007840675, -184282.42, -184282.42, 0.0, 2.5004897, 2.4983265 
2.6880753e+2, 1.1242659e+1, -137245.08, -740100.4, 2764.9363, 0.036488418, 0.00906645, -137232.39, -137232.39, 0.0, 2.5004897, 2.498494 
2.688075e+2, 1.3741155e+1, -137698.27, -739889.9, 2502.8257, 0.033522867, 0.008877682, -137687.88, -137687.88, 0.0, 2.5004885, 2.4984949 
2.688075e+2, 1.623965e+1, -138491.28, -740337.5, 3381.167, 0.030554803, 0.008691387, -138472.28, -138472.28, 0.0, 2.5004873, 2.4984949 
2.6880747e+2, 1.8738148e+1, -139316.63, -740805.1, 4265.355, 0.027584068, 0.008508041, -139286.39, -139286.39, 0.0, 2.500486, 2.4984946 
2.6880747e+2, 2.1236713e+1, -99871.49, -659547.9, 6353.155, 0.02643021, 0.008628698, -99799.38, -99799.38, 0.0, 2.5004866, 2.4986336 
2.6880747e+2, 2.373535e+1, -98388.74, -657897.56, 4249.6855, 0.027581414, 0.008360336, -98356.47, -98356.47, 0.0, 2.500488, 2.4986358 
2.688075e+2, 2.6233986e+1, -97588.664, -657609.2, 4204.5054, 0.028729824, 0.008095149, -97557.09, -97557.09, 0.0, 2.5004897, 2.4986355 
2.688075e+2, 2.8732622e+1, -96824.1, -657341.6, 4168.0503, 0.029874217, 0.0078348685, -96793.11, -96793.11, 0.0, 2.5004911, 2.4986353 
2.6880753e+2, 3.1231344e+1, -54614.06, -570082.1, 7972.7734, 0.02926607, 0.009159066, -54490.773, -54490.773, 0.0, 2.5004916, 2.4987848 
2.6880753e+2, 3.3730152e+1, -54589.29, -568437.56, 6008.726, 0.0269844, 0.011068025, -54519.035, -54519.035, 0.0, 2.5004897, 2.4987884 
2.688075e+2, 3.622896e+1, -55704.168, -569089.4, 6421.309, 0.024698518, 0.012977368, -55623.863, -55623.863, 0.0, 2.500488, 2.498788 
2.688075e+2, 3.8727772e+1, -56862.844, -569765.2, 6843.9253, 0.022408085, 0.0148908, -56771.535, -56771.535, 0.0, 2.5004861, 2.4987879 
2.688075e+2, 4.1226637e+1, -14443.411, -482738.56, 9289.231, 0.020708594, 0.015598864, -14259.22, -14259.22, 0.0, 2.5004873, 2.4989367 
2.688075e+2, 4.3725562e+1, -11218.428, -478701.5, 7668.427, 0.019906633, 0.0137332985, -11092.671, -11092.671, 0.0, 2.5004902, 2.4989421 
2.688075e+2, 4.6224487e+1, -9674.788, -478073.34, 8290.665, 0.019099487, 0.011865777, -9528.089, -9528.089, 0.0, 2.500493, 2.498942 
2.688075e+2, 4.8723412e+1, -8178.862, -477466.5, 8922.049, 0.018285917, 0.010002592, -8009.2983, -8009.2983, 0.0, 2.5004957, 2.4989417 
2.688075e+2, 5.122243e+1, 32294.432, -394029.75, 11201.099, 0.016480695, 0.010857603, 32588.523, 32588.523, 0.0, 2.5004964, 2.4990845 
2.6880747e+2, 5.372154e+1, 33216.17, -390324.78, 10326.063, 0.013386492, 0.012724423, 33467.777, 33467.777, 0.0, 2.5004945, 2.4990919 
2.6880747e+2, 5.622065e+1, 31968.398, -391027.72, 10866.691, 0.010283629, 0.014586125, 32247.379, 32247.379, 0.0, 2.5004923, 2.4990916 
2.6880744e+2, 5.871976e+1, 30660.883, -391758.3, 11415.157, 0.007173976, 0.01645245, 30969.133, 30969.133, 0.0, 2.5004902, 2.4990914 
2.688074e+2, 6.1218935e+1, 71812.0, -307746.97, 9785.213, 0.0046353117, 0.018053886, 72064.1, 72064.1, 0.0, 2.5004919, 2.4992347 
2.6880738e+2, 6.371817e+1, 77404.76, -301158.88, 9897.356, 0.0022950845, 0.017273968, 77663.34, 77663.34, 0.0, 2.5004973, 2.4992435 
2.6880735e+2, 6.6217405e+1, 80440.11, -299770.0, 10350.545, -0.000054060278, 0.016485166, 80721.68, 80721.68, 0.0, 2.5005026, 2.4992433 
2.6880732e+2, 6.8716645e+1, 83403.086, -298417.6, 10808.056, -0.002409334, 0.015700622, 83708.78, 83708.78, 0.0, 2.5005078, 2.4992433 
2.688073e+2, 7.121596e+1, 122544.77, -217433.66, 8374.882, -0.0038532168, 0.016559007, 122750.945, 122750.945, 0.0, 2.500508, 2.499382 
2.6880726e+2, 7.371535e+1, 122953.3, -212819.98, 9733.217, -0.0057208077, 0.016479423, 123235.2, 123235.2, 0.0, 2.500504, 2.4993918 
2.688072e+2, 7.6214737e+1, 120483.87, -214054.16, 10250.672, -0.00760659, 0.016384454, 120797.664, 120797.664, 0.0, 2.5005, 2.4993918 
2.6880717e+2, 7.8714126e+1, 117930.0, -215329.0, 10771.8545, -0.009500759, 0.016292173, 118277.81, 118277.81, 0.0, 2.5004954, 2.4993918 
2.688071e+2, 8.1213593e+1, 157861.31, -132889.45, 7485.9775, -0.011844322, 0.01719946, 158053.92, 158053.92, 0.0, 2.5004961, 2.499533 
2.6880702e+2, 8.371313e+1, 165066.56, -124523.54, 9655.366, -0.015084089, 0.017396312, 165388.13, 165388.13, 0.0, 2.5005033, 2.499544 
2.6880693e+2, 8.6212677e+1, 169113.34, -122587.17, 9895.259, -0.01833133, 0.0175805, 169448.64, 169448.64, 0.0, 2.5005102, 2.499544 
2.6880687e+2, 8.871223e+1, 173070.89, -120693.78, 10137.728, -0.021582836, 0.017764544, 173420.33, 173420.33, 0.0, 2.500517, 2.499544 
2.6880682e+2, 9.1211855e+1, 208798.22, -47521.188, 2288.015, -0.022098273, 0.020490803, 208818.64, 208818.64, 0.0, 2.500518, 2.499669 
2.688067e+2, 9.371152e+1, 210075.64, -41508.73, 4278.9316, -0.025568472, 0.019912682, 210148.4, 210148.4, 0.0, 2.5005145, 2.499681 
2.6880658e+2, 9.621119e+1, 207756.45, -42627.203, 4240.173, -0.02910594, 0.019272193, 207828.23, 207828.23, 0.0, 2.5005105, 2.499681 
2.6880646e+2, 9.871086e+1, 205213.86, -43853.258, 4206.2095, -0.032664753, 0.018615304, 205284.88, 205284.88, 0.0, 2.5005062, 2.499681 
2.713079e+2, 1.2491777e+0, -189668.45, -838583.2, 779.02765, 0.025000209, 0.0011107954, -189667.52, -189667.52, 0.0, 2.5004785, 2.4983306 
2.7130792e+2, 3.747533e+0, -188603.6, -838493.75, 1608.2715, 0.028527258, 0.0033339986, -188599.61, -188599.61, 0.0, 2.500481, 2.4983296 
2.7130795e+2, 6.2458885e+0, -187284.05, -837873.6, 2473.924, 0.032063108, 0.005559352, -187274.64, -187274.64, 0.0, 2.500483, 2.4983296 
2.7130798e+2, 8.7442434e+0, -185965.52, -837253.94, 3339.0522, 0.03560776, 0.007786856, -185948.39, -185948.39, 0.0, 2.5004854, 2.4983294 
2.71308e+2, 1.1242672e+1, -139438.22, -740286.44, 5051.6484, 0.0361085, 0.009109132, -139395.75, -139395.75, 0.0, 2.500485, 2.498496 
2.7130798e+2, 1.3741173e+1, -141239.55, -740714.06, 3672.5444, 0.033690643, 0.00913137, -141217.05, -141217.05, 0.0, 2.5004814, 2.498497 
2.7130795e+2, 1.6239673e+1, -143351.16, -741783.56, 3463.497, 0.03127917, 0.009157467, -143331.11, -143331.11, 0.0, 2.5004778, 2.4984968 
2.7130795e+2, 1.8738173e+1, -145467.02, -742859.94, 3255.0303, 0.028873881, 0.009187891, -145449.28, -145449.28, 0.0, 2.5004742, 2.4984968 
2.7130795e+2, 2.1236745e+1, -106577.45, -661411.3, 5976.322, 0.027795605, 0.0094081815, -106513.086, -106513.086, 0.0, 2.5004737, 2.4986367 
2.7130795e+2, 2.3735382e+1, -105087.77, -659732.1, 4812.772, 0.028461657, 0.009127007, -105046.016, -105046.016, 0.0, 2.5004752, 2.4986389 
2.7130798e+2, 2.623402e+1, -104249.945, -659403.6, 5755.762, 0.02913247, 0.00885083, -104190.28, -104190.28, 0.0, 2.5004766, 2.4986386 
2.7130798e+2, 2.8732657e+1, -103416.05, -659081.44, 6699.33, 0.029806994, 0.008581372, -103335.29, -103335.29, 0.0, 2.5004783, 2.4986386 
2.71308e+2, 3.1231385e+1, -61231.742, -571927.3, 10615.059, 0.02912711, 0.010089173, -61011.2, -61011.2, 0.0, 2.5004787, 2.4987879 
2.7130798e+2, 3.3730203e+1, -61221.43, -570260.0, 8592.609, 0.027255287, 0.012384149, -61076.426, -61076.426, 0.0, 2.5004768, 2.4987915 
2.7130798e+2, 3.622902e+1, -62312.492, -570874.0, 9013.152, 0.025387498, 0.0146841025, -62152.805, -62152.805, 0.0, 2.5004752, 2.4987912 
2.7130798e+2, 3.8727838e+1, -63406.883, -571492.56, 9434.343, 0.023523115, 0.016992709, -63231.76, -63231.76, 0.0, 2.5004733, 2.498791 
2.7130798e+2, 4.122671e+1, -21129.963, -484812.13, 12418.477, 0.021905502, 0.017818457, -20797.605, -20797.605, 0.0, 2.5004747, 2.4989393 
2.7130798e+2, 4.372563e+1, -17380.195, -480498.63, 10136.089, 0.020764882, 0.015776845, -17158.457, -17158.457, 0.0, 2.5004783, 2.4989448 
2.7130798e+2, 4.6224555e+1, -15261.34, -479568.4, 10135.947, 0.019626677, 0.013738603, -15040.175, -15040.175, 0.0, 2.500482, 2.4989445 
2.7130798e+2, 4.8723483e+1, -13143.608, -478638.28, 10136.67, 0.018489966, 0.011710077, -12922.976, -12922.976, 0.0, 2.500486, 2.4989445 
2.7130798e+2, 5.1222503e+1, 27385.46, -395135.03, 11072.794, 0.01660906, 0.012650334, 27675.441, 27675.441, 0.0, 2.5004866, 2.4990873 
2.7130798e+2, 5.3721625e+1, 27755.617, -391673.6, 9721.577, 0.013749976, 0.01485901, 27980.822, 27980.822, 0.0, 2.5004838, 2.4990947 
2.7130795e+2, 5.622074e+1, 26015.215, -392590.9, 9802.063, 0.01089054, 0.01706646, 26244.613, 26244.613, 0.0, 2.500481, 2.4990945 
2.7130792e+2, 5.8719856e+1, 24273.703, -393507.75, 9882.544, 0.008032318, 0.019282414, 24507.344, 24507.344, 0.0, 2.5004778, 2.4990942 
2.713079e+2, 6.121903e+1, 64646.81, -310270.28, 8861.724, 0.0054793395, 0.021097217, 64856.152, 64856.152, 0.0, 2.5004785, 2.4992368 
2.713079e+2, 6.371827e+1, 69954.88, -303806.84, 8469.425, 0.0028094514, 0.020347882, 70146.7, 70146.7, 0.0, 2.5004835, 2.4992456 
2.7130786e+2, 6.6217506e+1, 72776.78, -302507.9, 8357.4795, 0.000139391, 0.019590205, 72962.805, 72962.805, 0.0, 2.5004883, 2.4992454 
2.7130783e+2, 6.871674e+1, 75595.39, -301212.44, 8245.036, -0.002527794, 0.018837586, 75775.72, 75775.72, 0.0, 2.5004933, 2.4992454 
2.7130777e+2, 7.1216065e+1, 116109.055, -218912.17, 4270.956, -0.003922676, 0.019667704, 116163.49, 116163.49, 0.0, 2.5004952, 2.4993856 
2.7130774e+2, 7.3715454e+1, 118844.26, -213189.64, 5459.1196, -0.0053717513, 0.019438602, 118933.99, 118933.99, 0.0, 2.5004952, 2.4993954 
2.713077e+2, 7.6214844e+1, 118797.89, -213247.39, 5720.938, -0.006826142, 0.019193202, 118896.43, 118896.43, 0.0, 2.5004952, 2.4993954 
2.7130765e+2, 7.871424e+1, 118748.96, -213306.38, 5982.0425, -0.008276015, 0.018949999, 118856.695, 118856.695, 0.0, 2.5004952, 2.4993954 
2.713076e+2, 8.1213707e+1, 158012.5, -132000.55, 3306.8862, -0.010684842, 0.01989416, 158050.2, 158050.2, 0.0, 2.5004954, 2.4995348 
2.7130753e+2, 8.371326e+1, 162368.89, -125102.54, 5362.946, -0.014504644, 0.020292334, 162468.9, 162468.9, 0.0, 2.5004978, 2.4995456 
2.7130747e+2, 8.621281e+1, 163714.72, -124464.1, 5320.1714, -0.018319108, 0.020678231, 163812.9, 163812.9, 0.0, 2.5005002, 2.4995456 
2.7130738e+2, 8.8712347e+1, 165056.92, -123827.42, 5277.858, -0.022125123, 0.021064598, 165153.31, 165153.31, 0.0, 2.5005023, 2.4995456 
2.7130732e+2, 9.1211975e+1, 202526.31, -49919.46, -3086.161, -0.02258319, 0.023806067, 202564.03, 202564.03, 0.0, 2.5005066, 2.4996703 
2.713072e+2, 9.3711644e+1, 210500.8, -40808.688, -723.17346, -0.025569702, 0.022828462, 210502.89, 210502.89, 0.0, 2.5005147, 2.4996822 
2.713071e+2, 9.6211314e+1, 215167.39, -38557.43, -582.71204, -0.0285779, 0.02178481, 215168.73, 215168.73, 0.0, 2.5005226, 2.4996822 
2.7130696e+2, 9.8710984e+1, 219822.42, -36311.742, -440.71774, -0.03156018, 0.020722816, 219823.17, 219823.17, 0.0, 2.5005307, 2.4996822 
2.7380842e+2, 1.249179e+0, -188056.36, -835235.5, 1117.2748, 0.028625889, 0.000957202, -188054.44, -188054.44, 0.0, 2.5004785, 2.4983363 
2.7380842e+2, 3.747537e+0, -186992.83, -835151.8, 1951.5667, 0.029609397, 0.0028726042, -186986.95, -186986.95, 0.0, 2.500481, 2.4983354 
2.7380842e+2, 6.245895e+0, -185672.0, -834532.06, 2818.85, 0.03059694, 0.004789338, -185659.77, -185659.77, 0.0, 2.500483, 2.4983354 
2.7380845e+2, 8.744253e+0, -184352.19, -833912.75, 3685.609, 0.031588517, 0.006707403, -184331.28, -184331.28, 0.0, 2.5004854, 2.4983351 
2.7380845e+2, 1.1242687e+1, -139804.22, -741060.2, 4542.827, 0.031774525, 0.008313621, -139769.9, -139769.9, 0.0, 2.500485, 2.4984946 
2.7380845e+2, 1.3741195e+1, -141610.47, -741502.56, 3128.8296, 0.031348478, 0.0092264805, -141594.14, -141594.14, 0.0, 2.5004816, 2.4984956 
2.7380845e+2, 1.6239703e+1, -143721.0, -742574.25, 2921.5137, 0.030924832, 0.010142571, -143706.75, -143706.75, 0.0, 2.500478, 2.4984953 
2.7380845e+2, 1.873821e+1, -145835.78, -743652.94, 2714.731, 0.03050332, 0.011062349, -145823.45, -145823.45, 0.0, 2.5004745, 2.4984953 
2.7380845e+2, 2.1236786e+1, -104747.12, -657679.7, 6233.4863, 0.029928433, 0.011630893, -104676.85, -104676.85, 0.0, 2.5004737, 2.4986432 
2.7380845e+2, 2.373543e+1, -103262.43, -656018.2, 5036.946, 0.029473776, 0.011167917, -103216.53, -103216.53, 0.0, 2.5004752, 2.4986453 
2.7380845e+2, 2.6234072e+1, -102422.21, -655691.9, 5981.4043, 0.029020226, 0.010708885, -102357.555, -102357.555, 0.0, 2.5004768, 2.498645 
2.7380845e+2, 2.8732717e+1, -101586.43, -655372.9, 6926.5093, 0.028567066, 0.010255484, -101499.805, -101499.805, 0.0, 2.5004783, 2.4986448 
2.7380848e+2, 3.1231445e+1, -60326.68, -570153.1, 10418.383, 0.027693652, 0.011430278, -60113.867, -60113.867, 0.0, 2.5004787, 2.4987907 
2.7380848e+2, 3.373026e+1, -60324.207, -568511.25, 8320.234, 0.026693802, 0.013272957, -60188.023, -60188.023, 0.0, 2.500477, 2.4987943 
2.7380848e+2, 3.6229074e+1, -61412.195, -569127.9, 8742.159, 0.02569499, 0.015119683, -61261.715, -61261.715, 0.0, 2.5004754, 2.4987943 
2.7380848e+2, 3.872789e+1, -62503.316, -569748.7, 9164.633, 0.024696141, 0.016974015, -62337.79, -62337.79, 0.0, 2.5004735, 2.498794 
2.7380848e+2, 4.1226766e+1, -20924.26, -484574.56, 13001.771, 0.023172528, 0.01813713, -20559.947, -20559.947, 0.0, 2.500475, 2.4989395 
2.7380848e+2, 4.3725705e+1, -17187.512, -480297.6, 10697.588, 0.021234892, 0.017231725, -16940.535, -16940.535, 0.0, 2.5004785, 2.498945 
2.7380848e+2, 4.622464e+1, -15065.098, -479369.0, 10698.649, 0.019296218, 0.016328702, -14818.706, -14818.706, 0.0, 2.5004823, 2.4989448 
2.7380848e+2, 4.8723575e+1, -12944.731, -478442.44, 10700.537, 0.017356053, 0.015434447, -12698.885, -12698.885, 0.0, 2.5004861, 2.4989445 
2.7380848e+2, 5.1222605e+1, 27795.836, -394517.3, 10658.114, 0.015261744, 0.016715884, 28064.648, 28064.648, 0.0, 2.5004869, 2.4990883 
2.7380845e+2, 5.3721714e+1, 28151.11, -391096.0, 9282.559, 0.012861689, 0.018463014, 28356.535, 28356.535, 0.0, 2.500484, 2.4990954 
2.7380842e+2, 5.622083e+1, 26414.465, -392014.56, 9364.539, 0.010458395, 0.020208072, 26623.941, 26623.941, 0.0, 2.5004811, 2.4990954 
2.7380842e+2, 5.871994e+1, 24676.58, -392932.9, 9446.557, 0.008053034, 0.021960756, 24890.158, 24890.158, 0.0, 2.5004783, 2.4990952 
2.738084e+2, 6.121912e+1, 64762.938, -310337.84, 9535.329, 0.005707076, 0.023663934, 65005.18, 65005.18, 0.0, 2.500479, 2.4992366 
2.7380836e+2, 6.371836e+1, 70055.09, -303912.03, 9213.107, 0.0029432988, 0.023161575, 70281.93, 70281.93, 0.0, 2.5004838, 2.4992452 
2.7380836e+2, 6.6217595e+1, 72877.914, -302615.2, 9102.607, 0.00017540823, 0.022651376, 73098.445, 73098.445, 0.0, 2.5004888, 2.4992452 
2.7380833e+2, 6.8716836e+1, 75697.69, -301321.34, 8991.549, -0.0025932542, 0.022146769, 75912.01, 75912.01, 0.0, 2.5004935, 2.499245 
2.738083e+2, 7.1216154e+1, 116970.08, -217482.44, 4179.268, -0.0040208367, 0.02317374, 117022.29, 117022.29, 0.0, 2.5004957, 2.499388 
2.7380824e+2, 7.3715556e+1, 119684.125, -211806.86, 5460.359, -0.00543873, 0.02303992, 119774.05, 119774.05, 0.0, 2.5004957, 2.4993978 
2.738082e+2, 7.621495e+1, 119638.445, -211865.72, 5723.861, -0.0068667694, 0.022889353, 119737.25, 119737.25, 0.0, 2.5004957, 2.4993975 
2.7380818e+2, 7.871434e+1, 119590.22, -211925.81, 5986.6484, -0.008295074, 0.022740887, 119698.29, 119698.29, 0.0, 2.5004957, 2.4993975 
2.738081e+2, 8.1213814e+1, 158390.98, -131606.34, 3499.9036, -0.010563384, 0.023628859, 158433.22, 158433.22, 0.0, 2.500496, 2.4995353 
2.73808e+2, 8.371336e+1, 162668.72, -124866.91, 5721.7847, -0.014069367, 0.02376949, 162782.53, 162782.53, 0.0, 2.5004983, 2.4995458 
2.7380794e+2, 8.6212903e+1, 164010.72, -124231.33, 5681.4785, -0.017575964, 0.023897927, 164122.67, 164122.67, 0.0, 2.5005004, 2.4995456 
2.7380788e+2, 8.871245e+1, 165349.1, -123597.49, 5641.6333, -0.021080496, 0.024027282, 165459.2, 165459.2, 0.0, 2.5005028, 2.4995456 
2.7380782e+2, 9.1212076e+1, 203328.92, -48711.547, -2066.4756, -0.021547165, 0.026713038, 203345.86, 203345.86, 0.0, 2.500507, 2.4996722 
2.738077e+2, 9.3711746e+1, 211208.92, -39798.83, 506.58936, -0.025113204, 0.02577682, 211209.94, 211209.94, 0.0, 2.5005152, 2.4996836 
2.7380762e+2, 9.6211416e+1, 215885.2, -37540.996, 649.68524, -0.028715577, 0.024772953, 215886.88, 215886.88, 0.0, 2.5005233, 2.4996836 
2.7380753e+2, 9.8711085e+1, 220554.31, -35286.617, 793.90314, -0.032304868, 0.02375006, 220556.77, 220556.77, 0.0, 2.5005312, 2.4996836 
2.763089e+2, 1.2491803e+0, -186444.97, -831889.2, 1456.1266, 0.032251716, 0.00080277905, -186441.67, -186441.67, 0.0, 2.5004785, 2.498342 
2.763089e+2, 3.7475413e+0, -185383.75, -831813.4, 2295.3767, 0.030691978, 0.0024087213, -185375.6, -185375.6, 0.0, 2.500481, 2.498341 
2.763089e+2, 6.2459016e+0, -184061.64, -831193.94, 3164.2908, 0.029131508, 0.004015176, -184046.17, -184046.17, 0.0, 2.500483, 2.498341 
2.763089e+2, 8.7442625e+0, -182740.55, -830574.94, 4032.6804, 0.027570305, 0.005622144, -182715.45, -182715.45, 0.0, 2.5004854, 2.4983408 
2.763089e+2, 1.1242702e+1, -140176.11, -741846.2, 4034.1619, 0.027440986, 0.0075159133, -140149.06, -140149.06, 0.0, 2.5004852, 2.4984932 
2.763089e+2, 1.3741216e+1, -141983.0, -742294.3, 2585.8645, 0.029008148, 0.009316541, -141971.86, -141971.86, 0.0, 2.5004816, 2.4984941 
2.7630892e+2, 1.6239733e+1, -144092.45, -743368.3, 2380.2803, 0.030573737, 0.01111976, -144083.0, -144083.0, 0.0, 2.500478, 2.4984941 
2.7630892e+2, 1.8738247e+1, -146206.14, -744449.2, 2175.1816, 0.032137398, 0.012926026, -146198.23, -146198.23, 0.0, 2.5004745, 2.498494 
2.7630892e+2, 2.123683e+1, -102926.414, -653968.06, 6499.1025, 0.032057304, 0.013846886, -102849.77, -102849.77, 0.0, 2.5004737, 2.4986494 
2.7630892e+2, 2.3735477e+1, -101438.46, -652307.2, 5262.357, 0.03048278, 0.013199609, -101388.195, -101388.195, 0.0, 2.5004754, 2.4986515 
2.7630892e+2, 2.6234126e+1, -100595.87, -651983.06, 6208.284, 0.028905751, 0.01255519, -100525.97, -100525.97, 0.0, 2.5004768, 2.4986513 
2.7630892e+2, 2.8732774e+1, -99758.21, -651667.3, 7154.9277, 0.027325794, 0.011915314, -99665.47, -99665.47, 0.0, 2.5004783, 2.498651 
2.7630892e+2, 3.1231502e+1, -59428.32, -568392.9, 10223.573, 0.026261413, 0.012764951, -59223.043, -59223.043, 0.0, 2.500479, 2.4987938 
2.7630892e+2, 3.3730316e+1, -59428.105, -566764.75, 8049.183, 0.026134308, 0.014153298, -59300.43, -59300.43, 0.0, 2.500477, 2.4987974 
2.7630892e+2, 3.622913e+1, -60513.016, -567384.0, 8472.49, 0.026005225, 0.015544696, -60371.438, -60371.438, 0.0, 2.5004754, 2.4987972 
2.7630895e+2, 3.8727942e+1, -61600.906, -568007.1, 8896.236, 0.025872666, 0.016942648, -61444.668, -61444.668, 0.0, 2.5004737, 2.498797 
2.7630895e+2, 4.1226825e+1, -20723.594, -484347.44, 13595.241, 0.02443507, 0.018445687, -20325.27, -20325.27, 0.0, 2.500475, 2.4989398 
2.7630895e+2, 4.3725774e+1, -16995.766, -480098.5, 11260.26, 0.021700146, 0.018674538, -16722.137, -16722.137, 0.0, 2.5004787, 2.4989452 
2.7630895e+2, 4.622472e+1, -14869.792, -479171.56, 11262.524, 0.0189608, 0.018904747, -14596.759, -14596.759, 0.0, 2.5004826, 2.498945 
2.7630892e+2, 4.872367e+1, -12746.446, -478247.84, 11265.716, 0.016216984, 0.019142779, -12473.961, -12473.961, 0.0, 2.5004864, 2.4989448 
2.7630892e+2, 5.12227e+1, 28194.377, -393924.2, 10244.827, 0.013915903, 0.02077544, 28442.873, 28442.873, 0.0, 2.500487, 2.4990892 
2.7630892e+2, 5.372181e+1, 28545.707, -390520.25, 8844.758, 0.011974249, 0.022058738, 28732.3, 28732.3, 0.0, 2.5004842, 2.4990964 
2.763089e+2, 5.622092e+1, 26812.82, -391440.06, 8928.232, 0.010026388, 0.023338994, 27003.318, 27003.318, 0.0, 2.5004814, 2.4990962 
2.7630886e+2, 5.872003e+1, 25078.54, -392359.94, 9011.795, 0.008073175, 0.024626, 25272.998, 25272.998, 0.0, 2.5004785, 2.499096 
2.7630886e+2, 6.1219203e+1, 64872.785, -310418.47, 10216.481, 0.005930741, 0.026223987, 65150.7, 65150.7, 0.0, 2.5004792, 2.4992363 
2.7630883e+2, 6.3718444e+1, 70154.58, -304018.72, 9957.387, 0.0030729696, 0.025966829, 70419.375, 70419.375, 0.0, 2.5004842, 2.499245 
2.7630883e+2, 6.621769e+1, 72978.33, -302724.0, 9848.331, 0.0002071905, 0.025702238, 73236.305, 73236.305, 0.0, 2.500489, 2.4992447 
2.763088e+2, 6.8716925e+1, 75799.21, -301431.88, 9738.7, -0.002663008, 0.025443766, 76050.46, 76050.46, 0.0, 2.500494, 2.4992447 
2.7630877e+2, 7.1216255e+1, 117820.805, -216074.08, 4093.9263, -0.004121605, 0.026676085, 117870.99, 117870.99, 0.0, 2.5004961, 2.4993901 
2.7630872e+2, 7.371565e+1, 120523.39, -210425.33, 5462.1055, -0.0055080885, 0.026636, 120613.51, 120613.51, 0.0, 2.5004961, 2.4994 
2.763087e+2, 7.621505e+1, 120478.41, -210485.3, 5727.2905, -0.00690958, 0.026578592, 120577.484, 120577.484, 0.0, 2.500496, 2.4993997 
2.7630866e+2, 7.871445e+1, 120430.87, -210546.48, 5991.761, -0.008316122, 0.026523188, 120539.305, 120539.305, 0.0, 2.500496, 2.4993997 
2.763086e+2, 8.121392e+1, 158756.36, -131239.36, 3697.8381, -0.010447201, 0.027361652, 158803.52, 158803.52, 0.0, 2.5004964, 2.4995358 
2.7630854e+2, 8.371346e+1, 162967.92, -124632.59, 6080.3384, -0.013636445, 0.027242268, 163096.42, 163096.42, 0.0, 2.5004985, 2.4995458 
2.7630848e+2, 8.6213005e+1, 164306.1, -123999.87, 6042.5, -0.016832205, 0.027110653, 164432.69, 164432.69, 0.0, 2.500501, 2.4995458 
2.7630842e+2, 8.871255e+1, 165640.64, -123368.88, 6005.123, -0.020032281, 0.026980406, 165765.36, 165765.36, 0.0, 2.5005033, 2.4995458 
2.7630836e+2, 9.121217e+1, 204103.31, -47562.266, -1030.6948, -0.02052963, 0.029636633, 204107.55, 204107.55, 0.0, 2.5005076, 2.4996738 
2.7630824e+2, 9.371185e+1, 211910.47, -38793.496, 1736.7253, -0.024672158, 0.028737577, 211922.5, 211922.5, 0.0, 2.5005157, 2.499685 
2.7630815e+2, 9.6211517e+1, 216582.55, -36535.78, 1885.3751, -0.02886534, 0.02776883, 216596.58, 216596.58, 0.0, 2.5005238, 2.499685 
2.7630803e+2, 9.8711187e+1, 221247.45, -34281.523, 2035.1469, -0.03305828, 0.026780374, 221263.66, 221263.66, 0.0, 2.5005317, 2.499685 
2.7880943e+2, 1.2491818e+0, -188422.7, -830282.56, 1737.1082, 0.035886656, 0.00064764946, -188418.02, -188418.02, 0.0, 2.5004723, 2.4983478 
2.788094e+2, 3.747545e+0, -187370.97, -830219.3, 2467.43, 0.031784777, 0.0019427397, -187361.5, -187361.5, 0.0, 2.5004747, 2.4983468 
2.7880937e+2, 6.245908e+0, -186097.03, -829623.8, 3227.7666, 0.027677776, 0.0032375527, -186080.83, -186080.83, 0.0, 2.5004768, 2.4983466 
2.7880934e+2, 8.7442714e+0, -184867.36, -829049.6, 3991.3193, 0.023565652, 0.004532088, -184842.63, -184842.63, 0.0, 2.500479, 2.4983466 
2.7880934e+2, 1.1242716e+1, -144167.5, -744390.94, 3060.8376, 0.023120303, 0.0067168702, -144151.89, -144151.89, 0.0, 2.500479, 2.4984918 
2.7880937e+2, 1.3741238e+1, -145636.22, -744674.2, 1532.8535, 0.026680274, 0.009401889, -145632.3, -145632.3, 0.0, 2.500476, 2.4984927 
2.788094e+2, 1.6239761e+1, -147461.44, -745613.4, 1290.297, 0.030235114, 0.012088986, -147458.66, -147458.66, 0.0, 2.5004728, 2.4984927 
2.7880943e+2, 1.8738283e+1, -149342.25, -746584.1, 1055.4564, 0.03378439, 0.0147786345, -149340.38, -149340.38, 0.0, 2.5004697, 2.4984925 
2.7880946e+2, 2.1236871e+1, -103678.99, -651514.4, 6157.7324, 0.034189977, 0.01605588, -103609.79, -103609.79, 0.0, 2.5004694, 2.4986558 
2.7880943e+2, 2.3735525e+1, -101994.64, -649746.94, 4838.304, 0.03149632, 0.015222047, -101951.91, -101951.91, 0.0, 2.5004714, 2.498658 
2.7880943e+2, 2.6234177e+1, -101001.875, -649352.9, 5761.8433, 0.028796865, 0.014390088, -100941.336, -100941.336, 0.0, 2.500473, 2.4986577 
2.788094e+2, 2.8732827e+1, -100051.72, -648986.2, 6697.585, 0.02609144, 0.013561706, -99970.016, -99970.016, 0.0, 2.500475, 2.4986575 
2.788094e+2, 3.123156e+1, -60420.78, -567550.8, 9357.153, 0.024838338, 0.014094485, -60248.188, -60248.188, 0.0, 2.500476, 2.4987967 
2.7880943e+2, 3.3730373e+1, -60060.043, -565751.7, 7144.0586, 0.025583599, 0.015026841, -59959.137, -59959.137, 0.0, 2.5004747, 2.4988003 
2.7880943e+2, 3.6229184e+1, -60840.97, -566227.56, 7619.234, 0.026324183, 0.015961278, -60726.13, -60726.13, 0.0, 2.5004735, 2.4988 
2.7880946e+2, 3.8727996e+1, -61681.063, -566734.2, 8107.1597, 0.027058175, 0.016901318, -61550.96, -61550.96, 0.0, 2.500472, 2.4987998 
2.7880946e+2, 4.1226882e+1, -21320.656, -484502.63, 13775.881, 0.025698263, 0.01874711, -20911.299, -20911.299, 0.0, 2.500474, 2.49894 
2.7880946e+2, 4.3725842e+1, -17459.303, -480205.53, 11535.869, 0.022165565, 0.020108221, -17171.9, -17171.9, 0.0, 2.5004778, 2.4989455 
2.7880943e+2, 4.6224803e+1, -15246.701, -479239.22, 11685.314, 0.018625418, 0.021469692, -14952.602, -14952.602, 0.0, 2.5004818, 2.4989452 
2.7880943e+2, 4.8723763e+1, -13092.522, -478303.8, 11847.0625, 0.015078094, 0.022838093, -12791.021, -12791.021, 0.0, 2.5004857, 2.498945 
2.7880943e+2, 5.1222795e+1, 28177.324, -393535.16, 10019.898, 0.012576781, 0.024832292, 28415.264, 28415.264, 0.0, 2.5004866, 2.49909 
2.788094e+2, 5.37219e+1, 28794.94, -390000.63, 8778.417, 0.011092366, 0.025649944, 28978.863, 28978.863, 0.0, 2.5004842, 2.4990973 
2.788094e+2, 5.622101e+1, 27261.822, -390826.38, 9056.756, 0.009599008, 0.026463492, 27457.922, 27457.922, 0.0, 2.5004816, 2.499097 
2.7880937e+2, 5.872011e+1, 25663.475, -391683.25, 9345.222, 0.008097337, 0.027282948, 25872.629, 25872.629, 0.0, 2.500479, 2.4990969 
2.7880937e+2, 6.121929e+1, 65149.55, -310411.16, 11888.947, 0.006154877, 0.02878266, 65525.54, 65525.54, 0.0, 2.50048, 2.499236 
2.7880934e+2, 6.3718534e+1, 70269.445, -304101.0, 11916.076, 0.0032028109, 0.028769307, 70648.35, 70648.35, 0.0, 2.5004845, 2.4992447 
2.7880934e+2, 6.621778e+1, 72866.734, -302917.28, 12046.568, 0.0002392074, 0.02874879, 73252.52, 73252.52, 0.0, 2.500489, 2.4992445 
2.788093e+2, 6.8717027e+1, 75390.99, -301769.75, 12184.5625, -0.0027321426, 0.028734878, 75784.21, 75784.21, 0.0, 2.5004935, 2.4992442 
2.7880928e+2, 7.1216345e+1, 117929.7, -215022.72, 5943.0547, -0.0042199926, 0.030181244, 118035.75, 118035.75, 0.0, 2.5004952, 2.4993923 
2.7880925e+2, 7.371575e+1, 120487.09, -209449.36, 7602.132, -0.0055750427, 0.0302335, 120662.164, 120662.164, 0.0, 2.500495, 2.499402 
2.7880916e+2, 7.621515e+1, 120210.18, -209622.05, 8084.9272, -0.0069495295, 0.030267676, 120408.24, 120408.24, 0.0, 2.5004945, 2.499402 
2.7880913e+2, 7.8714556e+1, 119841.39, -209838.97, 8573.304, -0.008333385, 0.030303713, 120064.19, 120064.19, 0.0, 2.500494, 2.4994018 
2.7880907e+2, 8.121402e+1, 157243.31, -131784.13, 6678.589, -0.01033001, 0.03109945, 157397.55, 157397.55, 0.0, 2.5004935, 2.499536 
2.78809e+2, 8.371356e+1, 160862.45, -125543.55, 9394.742, -0.013199292, 0.030717773, 161170.3, 161170.3, 0.0, 2.500495, 2.499546 
2.7880895e+2, 8.6213106e+1, 161577.06, -125212.07, 9539.959, -0.016080393, 0.030323686, 161894.06, 161894.06, 0.0, 2.5004961, 2.499546 
2.7880892e+2, 8.8712645e+1, 162206.95, -124921.39, 9687.977, -0.018971646, 0.029931387, 162533.47, 162533.47, 0.0, 2.5004973, 2.499546 
2.7880886e+2, 9.121227e+1, 200360.64, -48624.35, 3509.467, -0.019520737, 0.032584112, 200410.1, 200410.1, 0.0, 2.5005004, 2.4996755 
2.7880874e+2, 9.3711954e+1, 207237.4, -40369.273, 6599.988, -0.024235798, 0.03171775, 207413.2, 207413.2, 0.0, 2.5005069, 2.4996867 
2.7880865e+2, 9.6211624e+1, 210846.06, -38622.12, 6891.541, -0.029014576, 0.03077946, 211036.3, 211036.3, 0.0, 2.500513, 2.4996867 
2.7880856e+2, 9.8711294e+1, 214272.75, -36962.6, 7176.9414, -0.03380503, 0.029821008, 214477.61, 214477.61, 0.0, 2.500519, 2.4996867 
2.813099e+2, 1.2491842e+0, -190874.2, -830124.7, 1385.5781, 0.036413748, 0.0007519537, -190871.2, -190871.2, 0.0, 2.5004668, 2.4983506 
2.8130987e+2, 3.747553e+0, -193226.75, -831700.25, 1622.0265, 0.032051127, 0.0022566963, -193222.63, -193222.63, 0.0, 2.5004632, 2.4983497 
2.813098e+2, 6.245921e+0, -195310.48, -832715.3, 1883.0769, 0.027699737, 0.003762553, -195304.92, -195304.92, 0.0, 2.5004597, 2.4983497 
2.8130978e+2, 8.744289e+0, -197395.55, -833730.94, 2144.1768, 0.023359574, 0.005269524, -197388.33, -197388.33, 0.0, 2.500456, 2.4983497 
2.8130978e+2, 1.1242737e+1, -156634.22, -749257.4, 1833.7228, 0.022852752, 0.007503806, -156628.55, -156628.55, 0.0, 2.5004563, 2.4984944 
2.813098e+2, 1.3741261e+1, -154265.7, -747669.2, 1586.4326, 0.026500609, 0.010072893, -154261.47, -154261.47, 0.0, 2.50046, 2.4984953 
2.8130984e+2, 1.6239786e+1, -152201.89, -746711.75, 2641.7043, 0.030160816, 0.012650215, -152190.16, -152190.16, 0.0, 2.5004635, 2.4984953 
2.8130987e+2, 1.873831e+1, -150141.81, -745760.56, 3696.932, 0.033832964, 0.015236252, -150118.88, -150118.88, 0.0, 2.500467, 2.4984953 
2.813099e+2, 2.1236902e+1, -103795.24, -649889.0, 9009.515, 0.034325797, 0.016605811, -103646.64, -103646.64, 0.0, 2.5004675, 2.4986594 
2.8130987e+2, 2.3735562e+1, -105160.21, -649567.9, 6962.4814, 0.031695213, 0.016079925, -105071.19, -105071.19, 0.0, 2.500464, 2.4986618 
2.8130987e+2, 2.623422e+1, -107174.65, -650591.8, 7193.1655, 0.029070448, 0.015561395, -107079.445, -107079.445, 0.0, 2.5004606, 2.4986615 
2.8130984e+2, 2.873288e+1, -109194.77, -651625.2, 7424.645, 0.026451293, 0.015051882, -109093.164, -109093.164, 0.0, 2.5004573, 2.4986613 
2.8130987e+2, 3.1231615e+1, -70135.91, -571401.2, 9977.018, 0.025168834, 0.01564199, -69937.41, -69937.41, 0.0, 2.5004582, 2.4987986 
2.8130987e+2, 3.3730426e+1, -66404.94, -567960.25, 7233.9614, 0.025747502, 0.016352763, -66300.62, -66300.62, 0.0, 2.5004628, 2.4988022 
2.813099e+2, 3.6229238e+1, -63747.68, -566744.5, 7220.3584, 0.02633476, 0.017069668, -63644.055, -63644.055, 0.0, 2.5004675, 2.498802 
2.813099e+2, 3.872805e+1, -61093.504, -565532.7, 7207.1436, 0.026928779, 0.017796263, -60990.55, -60990.55, 0.0, 2.500472, 2.498802 
2.813099e+2, 4.122694e+1, -21343.389, -483591.8, 12475.544, 0.025562026, 0.019813526, -21006.934, -21006.934, 0.0, 2.5004728, 2.4989421 
2.813099e+2, 4.3725908e+1, -22050.48, -481481.0, 10317.83, 0.022183584, 0.021736624, -21818.88, -21818.88, 0.0, 2.500469, 2.4989476 
2.813099e+2, 4.6224877e+1, -24338.473, -482649.5, 10576.34, 0.018809363, 0.023662766, -24094.535, -24094.535, 0.0, 2.5004652, 2.4989474 
2.8130987e+2, 4.8723844e+1, -26629.828, -483822.4, 10835.904, 0.015439504, 0.025598524, -26373.15, -26373.15, 0.0, 2.5004613, 2.4989474 
2.8130987e+2, 5.122288e+1, 15028.529, -399123.97, 9362.44, 0.012995845, 0.027758494, 15240.071, 15240.071, 0.0, 2.5004632, 2.4990916 
2.8130987e+2, 5.372198e+1, 21678.99, -392680.0, 7780.4556, 0.011444205, 0.028299002, 21825.033, 21825.033, 0.0, 2.500471, 2.499099 
2.8130984e+2, 5.6221086e+1, 26259.656, -390531.63, 7705.0845, 0.009896104, 0.028836679, 26402.049, 26402.049, 0.0, 2.5004792, 2.4990988 
2.8130984e+2, 5.8720195e+1, 30837.838, -388384.63, 7630.1953, 0.008352192, 0.029381713, 30976.668, 30976.668, 0.0, 2.500487, 2.4990988 
2.8130984e+2, 6.1219376e+1, 70643.625, -307044.9, 9451.34, 0.0065369676, 0.030934071, 70879.99, 70879.99, 0.0, 2.5004885, 2.4992375 
2.813098e+2, 6.371862e+1, 70211.44, -303425.1, 9380.999, 0.0039124875, 0.031289227, 70446.83, 70446.83, 0.0, 2.5004838, 2.4992461 
2.813098e+2, 6.6217875e+1, 67351.04, -304847.56, 9367.274, 0.0012891626, 0.031635225, 67586.64, 67586.64, 0.0, 2.5004787, 2.4992461 
2.8130978e+2, 6.8717116e+1, 64487.98, -306272.03, 9352.774, -0.0013293879, 0.03198594, 64723.76, 64723.76, 0.0, 2.500474, 2.499246 
2.8130975e+2, 7.121645e+1, 106289.016, -220278.75, 3076.1943, -0.0030017162, 0.0336098, 106317.99, 106317.99, 0.0, 2.500475, 2.4993932 
2.8130972e+2, 7.3715854e+1, 113703.43, -212414.81, 3740.3096, -0.0050929943, 0.033591397, 113746.32, 113746.32, 0.0, 2.500483, 2.4994028 
2.8130966e+2, 7.6215255e+1, 118413.81, -210171.2, 3116.6865, -0.0071844934, 0.033551853, 118443.375, 118443.375, 0.0, 2.5004911, 2.4994028 
2.8130963e+2, 7.871465e+1, 123121.3, -207928.98, 2492.7563, -0.009266134, 0.0335115, 123140.07, 123140.07, 0.0, 2.5004992, 2.4994025 
2.8130957e+2, 8.1214124e+1, 162143.3, -128887.26, -915.25195, -0.011051055, 0.034325164, 162146.17, 162146.17, 0.0, 2.5005014, 2.4995372 
2.8130955e+2, 8.371367e+1, 163353.95, -123894.375, 1636.4875, -0.012724424, 0.034016307, 163363.27, 163363.27, 0.0, 2.5004988, 2.4995472 
2.813095e+2, 8.6213213e+1, 161796.69, -124652.94, 1486.9661, -0.014386449, 0.033693664, 161804.4, 161804.4, 0.0, 2.500496, 2.4995472 
2.8130946e+2, 8.871275e+1, 160235.1, -125413.586, 1337.5216, -0.016035823, 0.033371747, 160241.36, 160241.36, 0.0, 2.5004933, 2.499547 
2.813094e+2, 9.1212386e+1, 198350.69, -48638.08, -3880.4133, -0.016735135, 0.036282036, 198411.63, 198411.63, 0.0, 2.500496, 2.4996777 
2.8130928e+2, 9.371207e+1, 207089.5, -39614.04, -868.7011, -0.023026073, 0.03565433, 207092.56, 207092.56, 0.0, 2.5005057, 2.4996884 
2.813092e+2, 9.6211743e+1, 212813.2, -36859.574, -828.33704, -0.029346472, 0.034963794, 212815.95, 212815.95, 0.0, 2.5005157, 2.4996884 
2.8130904e+2, 9.8711425e+1, 218533.64, -34106.676, -785.94104, -0.035644412, 0.034263916, 218536.08, 218536.08, 0.0, 2.5005255, 2.4996884 
2.8381035e+2, 1.24918856e+0, -190387.14, -829113.0, 841.42596, 0.033239827, 0.0010931381, -190386.03, -190386.03, 0.0, 2.5004668, 2.4983525 
2.8381032e+2, 3.7475657e+0, -192744.11, -830698.3, 1080.8954, 0.030745387, 0.0032803975, -192742.28, -192742.28, 0.0, 2.5004632, 2.4983513 
2.8381032e+2, 6.245943e+0, -194829.45, -831717.2, 1344.0175, 0.028256034, 0.005468969, -194826.63, -194826.63, 0.0, 2.5004597, 2.4983513 
2.8381026e+2, 8.7443197e+0, -196916.13, -832736.7, 1607.189, 0.02577177, 0.007658852, -196912.06, -196912.06, 0.0, 2.500456, 2.4983513 
2.8381026e+2, 1.12427704e+1, -154649.95, -745156.56, 2387.2378, 0.02544224, 0.009722358, -154640.3, -154640.3, 0.0, 2.5004563, 2.4985015 
2.8381032e+2, 1.374129e+1, -152279.31, -743568.94, 2122.9673, 0.02751144, 0.011263041, -152271.7, -152271.7, 0.0, 2.50046, 2.4985025 
2.8381032e+2, 1.6239813e+1, -150212.64, -742610.5, 3180.267, 0.0295884, 0.012810097, -150195.58, -150195.58, 0.0, 2.5004635, 2.4985023 
2.8381035e+2, 1.8738332e+1, -148149.34, -741657.5, 4237.322, 0.0316728, 0.014364007, -148119.1, -148119.1, 0.0, 2.500467, 2.4985023 
2.8381038e+2, 2.123693e+1, -103291.51, -648887.7, 8526.817, 0.031927463, 0.015576453, -103158.28, -103158.28, 0.0, 2.5004675, 2.498661 
2.8381035e+2, 2.3735598e+1, -104673.305, -648608.75, 6444.454, 0.030503174, 0.015812833, -104596.97, -104596.97, 0.0, 2.5004642, 2.4986632 
2.8381035e+2, 2.6234263e+1, -106685.96, -649636.25, 6677.091, 0.029079964, 0.016055131, -106603.86, -106603.86, 0.0, 2.5004606, 2.4986632 
2.8381035e+2, 2.8732932e+1, -108703.64, -650671.75, 6910.1787, 0.027657405, 0.016304927, -108615.55, -108615.55, 0.0, 2.5004573, 2.498663 
2.8381035e+2, 3.1231675e+1, -70018.48, -571267.56, 10706.218, 0.026496038, 0.01726785, -69789.91, -69789.91, 0.0, 2.5004582, 2.4987986 
2.8381035e+2, 3.3730483e+1, -66304.234, -567869.7, 7926.591, 0.026011264, 0.017952576, -66178.99, -66178.99, 0.0, 2.500463, 2.4988022 
2.8381038e+2, 3.6229298e+1, -63643.965, -566655.7, 7914.632, 0.025530465, 0.018642388, -63519.465, -63519.465, 0.0, 2.5004675, 2.4988022 
2.8381038e+2, 3.8728106e+1, -60986.99, -565446.0, 7903.076, 0.025052154, 0.019340876, -60863.207, -60863.207, 0.0, 2.5004723, 2.498802 
2.8381038e+2, 4.1226998e+1, -20671.121, -482357.03, 11916.553, 0.023644848, 0.021350684, -20363.748, -20363.748, 0.0, 2.500473, 2.4989443 
2.8381038e+2, 4.3725967e+1, -21386.236, -480271.0, 9729.882, 0.021350507, 0.023299517, -21180.023, -21180.023, 0.0, 2.5004692, 2.4989495 
2.8381038e+2, 4.6224937e+1, -23670.69, -481440.0, 9989.985, 0.019056715, 0.025251262, -23452.78, -23452.78, 0.0, 2.5004654, 2.4989495 
2.8381038e+2, 4.8723906e+1, -25958.227, -482612.88, 10250.837, 0.016763264, 0.027212447, -25728.234, -25728.234, 0.0, 2.5004613, 2.4989493 
2.8381038e+2, 5.1222944e+1, 15178.0625, -399047.53, 10531.639, 0.014614281, 0.029328864, 15445.655, 15445.655, 0.0, 2.5004635, 2.4990916 
2.8381038e+2, 5.372205e+1, 21793.338, -392684.72, 8975.394, 0.012543184, 0.029739363, 21987.607, 21987.607, 0.0, 2.5004714, 2.4990988 
2.8381035e+2, 5.622115e+1, 26376.852, -390538.0, 8901.853, 0.010470852, 0.030147001, 26566.836, 26566.836, 0.0, 2.5004795, 2.4990988 
2.8381035e+2, 5.8720255e+1, 30957.438, -388393.6, 8828.436, 0.008398026, 0.030562058, 31143.217, 31143.217, 0.0, 2.5004873, 2.4990985 
2.8381035e+2, 6.1219436e+1, 70959.945, -306680.0, 8688.388, 0.00665915, 0.032276772, 71159.734, 71159.734, 0.0, 2.5004888, 2.499238 
2.8381032e+2, 6.3718694e+1, 70495.77, -303131.6, 8645.451, 0.0047861603, 0.03309193, 70695.71, 70695.71, 0.0, 2.500484, 2.4992466 
2.8381032e+2, 6.6217947e+1, 67637.97, -304553.2, 8633.429, 0.0029106562, 0.033898123, 67838.125, 67838.125, 0.0, 2.500479, 2.4992464 
2.8381026e+2, 6.87172e+1, 64777.793, -305976.2, 8620.5625, 0.0010359327, 0.03470925, 64978.125, 64978.125, 0.0, 2.5004742, 2.4992464 
2.8381023e+2, 7.121653e+1, 105570.086, -222128.78, 4177.887, -0.0009768128, 0.036463846, 105623.34, 105623.34, 0.0, 2.5004752, 2.49939 
2.838102e+2, 7.3715925e+1, 112913.06, -214414.9, 4969.4253, -0.004507067, 0.036207933, 112988.49, 112988.49, 0.0, 2.5004833, 2.4993992 
2.8381014e+2, 7.6215315e+1, 117622.195, -212174.89, 4347.5894, -0.008042248, 0.035931256, 117679.5, 117679.5, 0.0, 2.5004914, 2.499399 
2.8381008e+2, 7.8714716e+1, 122328.43, -209936.28, 3725.446, -0.011572435, 0.035654366, 122370.195, 122370.195, 0.0, 2.5004995, 2.499399 
2.8381005e+2, 8.121419e+1, 162320.7, -128924.54, -1413.8667, -0.013109127, 0.03654099, 162327.56, 162327.56, 0.0, 2.5005019, 2.499537 
2.8381002e+2, 8.371373e+1, 163471.58, -124053.61, 1239.9581, -0.01276151, 0.036615606, 163476.92, 163476.92, 0.0, 2.500499, 2.4995468 
2.8381e+2, 8.621328e+1, 161913.39, -124811.27, 1092.3367, -0.012408382, 0.03667575, 161917.56, 161917.56, 0.0, 2.5004964, 2.4995468 
2.8380996e+2, 8.8712823e+1, 160350.88, -125571.03, 944.7922, -0.012048669, 0.036735993, 160354.0, 160354.0, 0.0, 2.5004938, 2.4995465 
2.838099e+2, 9.1212463e+1, 198997.0, -47784.715, -2570.0044, -0.01305591, 0.040164232, 199023.77, 199023.77, 0.0, 2.5004964, 2.4996789 
2.8380978e+2, 9.371215e+1, 207639.19, -38967.008, 633.9976, -0.021922357, 0.039995115, 207640.81, 207640.81, 0.0, 2.5005064, 2.4996893 
2.8380966e+2, 9.621183e+1, 213364.52, -36208.66, 673.748, -0.030827723, 0.039761573, 213366.34, 213366.34, 0.0, 2.5005162, 2.4996893 
2.8380954e+2, 9.8711514e+1, 219082.9, -33453.66, 715.00085, -0.039721206, 0.03951871, 219084.92, 219084.92, 0.0, 2.500526, 2.4996893 
2.8631076e+2, 1.2491928e+0, -189900.73, -828102.75, 297.58606, 0.030066913, 0.001433454, -189900.6, -189900.6, 0.0, 2.5004668, 2.4983542 
2.8631076e+2, 3.7475786e+0, -192263.11, -829699.8, 540.0307, 0.02944267, 0.004301493, -192262.66, -192262.66, 0.0, 2.5004632, 2.4983532 
2.8631076e+2, 6.245964e+0, -194350.08, -830722.5, 805.2244, 0.028817374, 0.0071710413, -194349.06, -194349.06, 0.0, 2.5004597, 2.498353 
2.8631076e+2, 8.7443495e+0, -196438.36, -831745.9, 1070.4675, 0.028191024, 0.010042098, -196436.56, -196436.56, 0.0, 2.500456, 2.498353 
2.8631076e+2, 1.12428024e+1, -152673.64, -741072.4, 2945.9207, 0.028024154, 0.011937841, -152658.89, -152658.89, 0.0, 2.5004563, 2.4985085 
2.8631076e+2, 1.374132e+1, -150294.58, -739472.2, 2660.2244, 0.028514998, 0.012446959, -150282.58, -150282.58, 0.0, 2.50046, 2.4985094 
2.8631076e+2, 1.6239838e+1, -148225.05, -738512.7, 3719.5525, 0.02900905, 0.012960577, -148201.61, -148201.61, 0.0, 2.5004635, 2.4985094 
2.863108e+2, 1.8738356e+1, -146158.64, -737558.1, 4778.5337, 0.029506048, 0.01347919, -146120.03, -146120.03, 0.0, 2.500467, 2.4985092 
2.863108e+2, 2.1236953e+1, -102796.1, -647903.6, 8043.323, 0.029536426, 0.014544041, -102677.445, -102677.445, 0.0, 2.5004675, 2.4986627 
2.863108e+2, 2.3735632e+1, -104187.61, -647652.2, 5927.5703, 0.029320551, 0.015540326, -104122.97, -104122.97, 0.0, 2.5004642, 2.4986649 
2.863108e+2, 2.623431e+1, -106198.49, -648683.2, 6162.159, 0.02910094, 0.016541038, -106128.5, -106128.5, 0.0, 2.5004609, 2.4986649 
2.863108e+2, 2.8732985e+1, -108213.98, -649721.4, 6397.0054, 0.028877014, 0.017547725, -108138.414, -108138.414, 0.0, 2.5004573, 2.4986646 
2.8631082e+2, 3.123173e+1, -69909.57, -571151.7, 11445.872, 0.02780935, 0.018884761, -69648.336, -69648.336, 0.0, 2.5004585, 2.4987988 
2.8631082e+2, 3.3730543e+1, -66204.5, -567781.1, 8620.323, 0.026261194, 0.019541612, -66056.4, -66056.4, 0.0, 2.5004632, 2.4988024 
2.8631082e+2, 3.6229354e+1, -63541.227, -566568.8, 8610.009, 0.0247126, 0.020202484, -63393.9, -63393.9, 0.0, 2.5004678, 2.4988022 
2.8631082e+2, 3.8728166e+1, -60881.42, -565361.25, 8600.08, 0.023162227, 0.020871012, -60734.855, -60734.855, 0.0, 2.5004725, 2.498802 
2.8631082e+2, 4.1227058e+1, -20008.31, -481141.9, 11359.552, 0.021736085, 0.022883197, -19728.648, -19728.648, 0.0, 2.5004733, 2.4989462 
2.8631082e+2, 4.3726027e+1, -20722.896, -479062.88, 9142.965, 0.020524614, 0.024855698, -20540.584, -20540.584, 0.0, 2.5004694, 2.4989517 
2.8631082e+2, 4.6225002e+1, -23003.81, -480232.44, 9404.663, 0.019309813, 0.02683088, -22810.45, -22810.45, 0.0, 2.5004654, 2.4989514 
2.8631085e+2, 4.8723975e+1, -25287.66, -481405.5, 9666.798, 0.018091336, 0.02881532, -25082.877, -25082.877, 0.0, 2.5004616, 2.4989512 
2.8631085e+2, 5.1223016e+1, 15323.035, -398980.6, 11710.488, 0.016224403, 0.030893212, 15653.773, 15653.773, 0.0, 2.5004637, 2.4990916 
2.8631082e+2, 5.3722113e+1, 21906.934, -392691.0, 10171.15, 0.013632372, 0.031171791, 22156.309, 22156.309, 0.0, 2.5004716, 2.4990988 
2.8631082e+2, 5.6221217e+1, 26493.295, -390545.94, 10099.438, 0.011034475, 0.0314474, 26737.73, 26737.73, 0.0, 2.5004797, 2.4990985 
2.8631082e+2, 5.872032e+1, 31076.236, -388404.25, 10027.519, 0.0084314, 0.03173049, 31315.803, 31315.803, 0.0, 2.5004876, 2.4990983 
2.8631082e+2, 6.12195e+1, 71263.34, -306341.97, 7928.949, 0.006785392, 0.03361537, 71429.76, 71429.76, 0.0, 2.5004892, 2.4992385 
2.863108e+2, 6.371876e+1, 70779.31, -302839.72, 7910.4043, 0.0056622513, 0.034888122, 70946.72, 70946.72, 0.0, 2.5004842, 2.4992468 
2.863108e+2, 6.621802e+1, 67924.11, -304260.47, 7900.084, 0.004532711, 0.03615199, 68091.73, 68091.73, 0.0, 2.5004795, 2.4992468 
2.863108e+2, 6.871728e+1, 65066.684, -305682.28, 7888.91, 0.0033999577, 0.03742101, 65234.47, 65234.47, 0.0, 2.5004745, 2.4992466 
2.8631076e+2, 7.121661e+1, 104841.445, -223999.02, 5289.039, 0.0010403943, 0.03931676, 104926.49, 104926.49, 0.0, 2.5004756, 2.4993863 
2.863107e+2, 7.3715997e+1, 112122.016, -216416.42, 6198.895, -0.0039276523, 0.038821466, 112238.94, 112238.94, 0.0, 2.5004838, 2.4993956 
2.8631064e+2, 7.6215386e+1, 116829.9, -214180.02, 5578.8457, -0.00890526, 0.03830562, 116923.9, 116923.9, 0.0, 2.5004919, 2.4993954 
2.8631058e+2, 7.8714776e+1, 121534.88, -211945.0, 4958.4893, -0.013882735, 0.03779016, 121608.59, 121608.59, 0.0, 2.5005, 2.4993954 
2.8631052e+2, 8.121425e+1, 162485.02, -128989.01, -1903.1486, -0.015175364, 0.038755175, 162497.44, 162497.44, 0.0, 2.5005023, 2.4995368 
2.8631052e+2, 8.37138e+1, 163588.7, -124213.9, 843.1021, -0.012805727, 0.039211866, 163591.17, 163591.17, 0.0, 2.5004995, 2.4995463 
2.8631052e+2, 8.621335e+1, 162029.6, -124970.67, 697.3807, -0.010436358, 0.03965331, 162031.3, 162031.3, 0.0, 2.5004969, 2.4995463 
2.8631052e+2, 8.87129e+1, 160466.14, -125729.52, 551.73615, -0.008066468, 0.04009422, 160467.22, 160467.22, 0.0, 2.5004942, 2.499546 
2.8631046e+2, 9.121254e+1, 199617.64, -46972.957, -1244.1046, -0.009392941, 0.044056546, 199623.92, 199623.92, 0.0, 2.500497, 2.49968 
2.8631032e+2, 9.371223e+1, 208171.31, -38329.336, 2139.9978, -0.020833014, 0.04434332, 208189.89, 208189.89, 0.0, 2.5005069, 2.4996903 
2.8631014e+2, 9.621192e+1, 213891.75, -35570.26, 2183.8699, -0.032321308, 0.044563808, 213910.86, 213910.86, 0.0, 2.5005167, 2.4996903 
2.8631002e+2, 9.871161e+1, 219605.22, -32814.535, 2229.2444, -0.043808296, 0.04477499, 219624.9, 219624.9, 0.0, 2.5005264, 2.4996903 
2.888112e+2, 1.2491971e+0, -192387.52, -828536.06, -305.6321, 0.026907362, 0.0017727889, -192387.38, -192387.38, 0.0, 2.5004616, 2.4983559 
2.888112e+2, 3.7475914e+0, -194547.4, -830045.94, -177.07452, 0.028153647, 0.005319676, -194547.36, -194547.36, 0.0, 2.5004585, 2.498355 
2.888112e+2, 6.2459856e+0, -196473.16, -830993.75, -22.073162, 0.029393198, 0.008868309, -196473.16, -196473.16, 0.0, 2.5004551, 2.4983547 
2.8881124e+2, 8.74438e+0, -198446.33, -831964.4, 137.70824, 0.030626016, 0.012418688, -198446.3, -198446.3, 0.0, 2.5004518, 2.4983547 
2.8881124e+2, 1.1242835e+1, -153123.06, -738177.7, 3005.8706, 0.030607022, 0.01414993, -153107.61, -153107.61, 0.0, 2.5004523, 2.4985154 
2.8881124e+2, 1.3741349e+1, -150692.44, -736533.4, 2589.0166, 0.029520014, 0.013624998, -150681.0, -150681.0, 0.0, 2.5004559, 2.4985163 
2.888112e+2, 1.6239864e+1, -148609.16, -735566.94, 3553.2756, 0.02843181, 0.01310277, -148587.64, -148587.64, 0.0, 2.5004594, 2.4985163 
2.888112e+2, 1.8738379e+1, -146554.63, -734617.4, 4525.249, 0.027342167, 0.012583763, -146519.8, -146519.8, 0.0, 2.500463, 2.4985163 
2.8881124e+2, 2.123698e+1, -104540.12, -648014.4, 6708.1123, 0.027161619, 0.013510799, -104457.336, -104457.336, 0.0, 2.5004637, 2.4986644 
2.8881124e+2, 2.3735666e+1, -105628.77, -647627.2, 4542.127, 0.028155034, 0.01526432, -105590.71, -105590.71, 0.0, 2.5004609, 2.4986665 
2.8881124e+2, 2.6234353e+1, -107384.53, -648538.5, 4775.848, 0.029140316, 0.017020838, -107342.39, -107342.39, 0.0, 2.500458, 2.4986663 
2.8881124e+2, 2.873304e+1, -109196.6, -649481.2, 5025.612, 0.030116817, 0.018781936, -109149.86, -109149.86, 0.0, 2.500455, 2.4986663 
2.8881127e+2, 3.123179e+1, -71134.75, -571686.75, 11383.682, 0.029115215, 0.020494483, -70875.99, -70875.99, 0.0, 2.5004563, 2.498799 
2.8881127e+2, 3.3730602e+1, -67319.125, -568272.44, 8584.409, 0.026503254, 0.021121854, -67172.06, -67172.06, 0.0, 2.500461, 2.4988024 
2.8881127e+2, 3.622941e+1, -64576.95, -567024.06, 8673.254, 0.023886887, 0.021752227, -64427.277, -64427.277, 0.0, 2.5004659, 2.4988024 
2.8881124e+2, 3.8728222e+1, -61874.73, -565798.2, 8778.41, 0.02126471, 0.022389308, -61721.855, -61721.855, 0.0, 2.5004706, 2.4988022 
2.8881127e+2, 4.1227114e+1, -20291.293, -480386.2, 10419.614, 0.019841112, 0.024414068, -20055.445, -20055.445, 0.0, 2.5004718, 2.498948 
2.8881127e+2, 4.372609e+1, -20715.596, -478159.7, 8324.975, 0.01971066, 0.026408505, -20564.14, -20564.14, 0.0, 2.5004685, 2.4989536 
2.888113e+2, 4.6225068e+1, -22762.924, -479217.75, 8755.752, 0.019573104, 0.028405266, -22595.031, -22595.031, 0.0, 2.500465, 2.4989536 
2.888113e+2, 4.872404e+1, -24864.361, -480303.97, 9201.339, 0.01942816, 0.03041109, -24678.541, -24678.541, 0.0, 2.5004613, 2.4989533 
2.888113e+2, 5.122308e+1, 15291.247, -398988.56, 13220.992, 0.017830366, 0.032455925, 15712.742, 15712.742, 0.0, 2.5004637, 2.4990919 
2.888113e+2, 5.372218e+1, 21818.877, -392777.1, 11916.923, 0.014715383, 0.032601286, 22161.129, 22161.129, 0.0, 2.5004716, 2.4990985 
2.888113e+2, 5.622128e+1, 26323.217, -390673.56, 12087.327, 0.01159044, 0.032743488, 26673.295, 26673.295, 0.0, 2.5004795, 2.4990985 
2.888113e+2, 5.872038e+1, 30767.932, -388600.44, 12270.444, 0.008456032, 0.032893214, 31126.65, 31126.65, 0.0, 2.500487, 2.4990983 
2.888113e+2, 6.121957e+1, 71098.0, -306231.03, 8482.54, 0.0069193984, 0.034956306, 71288.59, 71288.59, 0.0, 2.5004888, 2.499239 
2.8881127e+2, 6.371883e+1, 70704.08, -302700.88, 8759.478, 0.0065441234, 0.036684163, 70909.445, 70909.445, 0.0, 2.500484, 2.4992473 
2.8881127e+2, 6.6218096e+1, 67889.85, -304101.53, 9033.197, 0.0061586625, 0.03840308, 68109.08, 68109.08, 0.0, 2.5004792, 2.499247 
2.8881127e+2, 6.871736e+1, 65014.52, -305531.63, 9314.475, 0.005766308, 0.04012734, 65248.51, 65248.51, 0.0, 2.5004742, 2.499247 
2.8881124e+2, 7.121669e+1, 103615.25, -226103.88, 8857.333, 0.0030541075, 0.042174798, 103853.016, 103853.016, 0.0, 2.5004752, 2.499383 
2.8881118e+2, 7.3716074e+1, 110563.1, -218767.64, 10168.672, -0.0033496264, 0.041438714, 110876.78, 110876.78, 0.0, 2.5004828, 2.499392 
2.8881112e+2, 7.621545e+1, 114920.98, -216702.28, 9851.141, -0.009767124, 0.04068212, 115213.35, 115213.35, 0.0, 2.5004902, 2.4993918 
2.8881106e+2, 7.8714836e+1, 119206.61, -214671.72, 9541.7, -0.016188996, 0.039926495, 119479.07, 119479.07, 0.0, 2.5004976, 2.4993918 
2.88811e+2, 8.121431e+1, 160760.42, -129967.63, 1229.7317, -0.017241368, 0.04097539, 160765.63, 160765.63, 0.0, 2.5004995, 2.4995363 
2.88811e+2, 8.371386e+1, 161579.7, -125382.586, 4264.827, -0.012849558, 0.041812427, 161643.08, 161643.08, 0.0, 2.5004964, 2.4995458 
2.8881103e+2, 8.6213416e+1, 159690.95, -126296.71, 4327.3955, -0.008463128, 0.04263334, 159756.42, 159756.42, 0.0, 2.500493, 2.4995458 
2.8881103e+2, 8.8712966e+1, 157719.08, -127250.87, 4390.2705, -0.0040816315, 0.043453082, 157786.69, 157786.69, 0.0, 2.5004897, 2.4995458 
2.8881097e+2, 9.121262e+1, 196784.56, -47845.258, 4512.341, -0.005737413, 0.047965076, 196867.77, 196867.77, 0.0, 2.5004916, 2.4996812 
2.8881082e+2, 9.371231e+1, 204452.23, -39731.945, 8222.376, -0.019746365, 0.048704155, 204728.78, 204728.78, 0.0, 2.5005, 2.499691 
2.8881067e+2, 9.6212006e+1, 209174.31, -37450.89, 8428.091, -0.03381131, 0.04937457, 209462.0, 209462.0, 0.0, 2.500508, 2.499691 
2.8881052e+2, 9.87117e+1, 213712.39, -35258.445, 8632.371, -0.047884136, 0.05003546, 214011.33, 214011.33, 0.0, 2.500516, 2.499691 
2.9131165e+2, 1.2491983e+0, -201639.16, -832423.6, -307.2007, 0.026208028, 0.0018282653, -201639.0, -201639.0, 0.0, 2.5004451, 2.498357 
2.9131168e+2, 3.747595e+0, -200989.3, -832572.4, 27.930317, 0.028115109, 0.0054874616, -200989.3, -200989.3, 0.0, 2.5004468, 2.498356 
2.9131168e+2, 6.2459916e+0, -200055.84, -832130.6, 384.66995, 0.030034268, 0.009150213, -200055.61, -200055.61, 0.0, 2.5004485, 2.498356 
2.913117e+2, 8.744389e+0, -199123.3, -831689.25, 741.1886, 0.03196551, 0.0128165195, -199122.44, -199122.44, 0.0, 2.50045, 2.498356 
2.913117e+2, 1.12428464e+1, -153441.95, -736640.25, 3634.8508, 0.03198994, 0.014575855, -153419.31, -153419.31, 0.0, 2.50045, 2.4985192 
2.913117e+2, 1.3741365e+1, -154360.6, -736584.1, 2528.5266, 0.03027344, 0.013996561, -154349.63, -154349.63, 0.0, 2.5004478, 2.4985204 
2.9131168e+2, 1.6239882e+1, -155601.63, -737196.4, 2811.507, 0.028561154, 0.013424069, -155588.03, -155588.03, 0.0, 2.5004456, 2.4985201 
2.9131168e+2, 1.87384e+1, -156844.66, -737811.56, 3094.0798, 0.02685285, 0.012858889, -156828.17, -156828.17, 0.0, 2.5004435, 2.4985201 
2.9131168e+2, 2.1237005e+1, -115815.7, -653412.56, 4718.2227, 0.026458414, 0.013852845, -115774.3, -115774.3, 0.0, 2.5004444, 2.4986646 
2.913117e+2, 2.3735693e+1, -113271.336, -651243.25, 2123.217, 0.027664894, 0.015778236, -113262.95, -113262.95, 0.0, 2.5004478, 2.4986665 
2.913117e+2, 2.6234382e+1, -111334.88, -650333.06, 1937.7081, 0.028883044, 0.017712262, -111327.914, -111327.914, 0.0, 2.500451, 2.4986665 
2.913117e+2, 2.8733072e+1, -109401.58, -649427.25, 1752.0347, 0.030112194, 0.019656528, -109395.89, -109395.89, 0.0, 2.5004544, 2.4986665 
2.9131174e+2, 3.1231824e+1, -70747.086, -570187.1, 8445.912, 0.029156173, 0.021541845, -70604.305, -70604.305, 0.0, 2.5004556, 2.498802 
2.9131174e+2, 3.373064e+1, -70508.11, -568454.75, 6210.579, 0.0263621, 0.022323906, -70430.66, -70430.66, 0.0, 2.5004542, 2.4988055 
2.9131174e+2, 3.6229455e+1, -71301.57, -568864.9, 6878.3667, 0.023573529, 0.023112139, -71206.5, -71206.5, 0.0, 2.500453, 2.4988055 
2.913117e+2, 3.8728273e+1, -72097.88, -569279.25, 7546.3057, 0.020789098, 0.02391028, -71983.375, -71983.375, 0.0, 2.5004516, 2.4988053 
2.9131174e+2, 4.1227165e+1, -30308.035, -484543.16, 9140.766, 0.01942276, 0.02597907, -30124.166, -30124.166, 0.0, 2.5004537, 2.4989498 
2.9131177e+2, 4.3726143e+1, -25560.9, -479822.8, 6403.7485, 0.019599488, 0.02788255, -25470.645, -25470.645, 0.0, 2.5004594, 2.498955 
2.9131177e+2, 4.6225116e+1, -22360.346, -478310.5, 6192.222, 0.019781008, 0.029787209, -22276.266, -22276.266, 0.0, 2.500465, 2.498955 
2.9131177e+2, 4.8724094e+1, -19163.324, -476802.3, 5980.464, 0.019966908, 0.03169982, -19085.186, -19085.186, 0.0, 2.5004704, 2.498955 
2.913118e+2, 5.1223135e+1, 20802.143, -395663.47, 9846.16, 0.018436836, 0.033852957, 21034.799, 21034.799, 0.0, 2.5004725, 2.4990933 
2.913118e+2, 5.372224e+1, 21859.969, -392106.9, 8307.703, 0.015140685, 0.03429911, 22026.625, 22026.625, 0.0, 2.5004709, 2.4991 
2.913118e+2, 5.622134e+1, 20987.22, -392557.94, 8223.56, 0.0118502425, 0.034741435, 21150.686, 21150.686, 0.0, 2.5004694, 2.4991 
2.9131177e+2, 5.872045e+1, 20111.947, -393011.22, 8138.809, 0.008565905, 0.035190713, 20272.227, 20272.227, 0.0, 2.500468, 2.4991 
2.9131177e+2, 6.121964e+1, 60483.14, -310507.5, 3601.4788, 0.0069647897, 0.03732308, 60518.098, 60518.098, 0.0, 2.5004694, 2.4992409 
2.9131177e+2, 6.3718903e+1, 65721.73, -304307.44, 3518.7117, 0.006626778, 0.03886871, 65755.19, 65755.19, 0.0, 2.5004745, 2.499249 
2.9131177e+2, 6.621816e+1, 68643.2, -302919.72, 3383.4324, 0.006291134, 0.04040385, 68674.016, 68674.016, 0.0, 2.5004797, 2.499249 
2.9131177e+2, 6.871743e+1, 71562.21, -301533.22, 3247.3425, 0.0059610377, 0.04194288, 71590.48, 71590.48, 0.0, 2.5004847, 2.499249 
2.9131174e+2, 7.1216756e+1, 110565.42, -222565.0, 3194.9915, 0.0033922216, 0.04405576, 110596.06, 110596.06, 0.0, 2.5004869, 2.4993834 
2.9131168e+2, 7.3716146e+1, 113075.36, -217447.78, 4888.9385, -0.0026850638, 0.04359888, 113147.66, 113147.66, 0.0, 2.5004869, 2.4993923 
2.9131162e+2, 7.6215535e+1, 113126.87, -217436.94, 4864.7554, -0.0087618455, 0.043120813, 113198.44, 113198.44, 0.0, 2.500487, 2.499392 
2.9131156e+2, 7.871492e+1, 113175.16, -217427.64, 4840.371, -0.014829454, 0.04264336, 113246.016, 113246.016, 0.0, 2.500487, 2.499392 
2.9131153e+2, 8.121439e+1, 154982.11, -132586.48, -3956.2603, -0.01600001, 0.04388546, 155036.53, 155036.53, 0.0, 2.5004892, 2.4995368 
2.9131153e+2, 8.371394e+1, 160863.72, -125683.36, -1269.9774, -0.012291799, 0.0448111, 160869.34, 160869.34, 0.0, 2.500495, 2.4995458 
2.9131153e+2, 8.62135e+1, 164195.33, -124079.766, -1658.4265, -0.008564871, 0.045720242, 164204.88, 164204.88, 0.0, 2.5005007, 2.4995458 
2.9131153e+2, 8.871305e+1, 167522.16, -122478.484, -2046.6115, -0.0048181172, 0.046627957, 167536.6, 167536.6, 0.0, 2.5005064, 2.4995458 
2.9131147e+2, 9.121271e+1, 205883.0, -43368.555, -2421.007, -0.0064434637, 0.051197186, 205906.5, 205906.5, 0.0, 2.500507, 2.4996815 
2.9131132e+2, 9.37124e+1, 206197.1, -38972.09, 734.50336, -0.01918724, 0.05175861, 206199.28, 206199.28, 0.0, 2.500503, 2.4996908 
2.9131117e+2, 9.6212095e+1, 203836.39, -40109.938, 284.4605, -0.03193215, 0.052241005, 203836.73, 203836.73, 0.0, 2.500499, 2.4996908 
2.9131103e+2, 9.871178e+1, 201457.33, -41256.637, -163.21399, -0.044634383, 0.052705064, 201457.44, 201457.44, 0.0, 2.500495, 2.4996908 
2.938121e+2, 1.2491975e+0, -200977.7, -831050.0, -66.86642, 0.02690105, 0.0016212064, -200977.7, -200977.7, 0.0, 2.5004451, 2.4983594 
2.938121e+2, 3.7475923e+0, -200327.78, -831199.75, 268.15207, 0.02845529, 0.004865791, -200327.67, -200327.67, 0.0, 2.5004468, 2.4983585 
2.9381213e+2, 6.2459874e+0, -199393.06, -830756.44, 626.3433, 0.030017285, 0.008113273, -199392.44, -199392.44, 0.0, 2.5004485, 2.4983585 
2.9381213e+2, 8.7443817e+0, -198459.25, -830313.56, 984.3136, 0.031587034, 0.011363653, -198457.72, -198457.72, 0.0, 2.50045, 2.4983585 
2.9381216e+2, 1.1242845e+1, -152884.44, -735499.5, 3314.12, 0.03157691, 0.013315917, -152865.6, -152865.6, 0.0, 2.50045, 2.498521 
2.9381213e+2, 1.3741373e+1, -153811.36, -735465.25, 2205.697, 0.03012846, 0.013565509, -153803.0, -153803.0, 0.0, 2.5004478, 2.4985223 
2.9381213e+2, 1.6239901e+1, -155051.4, -736080.06, 2490.0237, 0.028681273, 0.013820975, -155040.73, -155040.73, 0.0, 2.5004456, 2.498522 
2.938121e+2, 1.8738428e+1, -156292.52, -736695.9, 2773.7073, 0.027235141, 0.014082798, -156279.27, -156279.27, 0.0, 2.5004435, 2.498522 
2.9381213e+2, 2.1237035e+1, -116093.28, -654033.06, 5236.075, 0.026643481, 0.015313443, -116042.32, -116042.32, 0.0, 2.5004444, 2.4986634 
2.9381213e+2, 2.373572e+1, -113554.31, -651880.44, 2620.6687, 0.027212843, 0.016878746, -113541.555, -113541.555, 0.0, 2.5004478, 2.4986656 
2.9381213e+2, 2.6234403e+1, -111616.11, -650972.06, 2436.8848, 0.027789885, 0.018451905, -111605.1, -111605.1, 0.0, 2.500451, 2.4986656 
2.9381216e+2, 2.8733087e+1, -109679.87, -650065.5, 2252.4263, 0.028373871, 0.020034518, -109670.48, -109670.48, 0.0, 2.5004544, 2.4986653 
2.9381216e+2, 3.123184e+1, -69383.56, -567456.2, 8241.787, 0.027481096, 0.021893725, -69247.22, -69247.22, 0.0, 2.5004556, 2.4988065 
2.9381216e+2, 3.3730668e+1, -69144.33, -565730.2, 6002.24, 0.025387416, 0.022990702, -69071.79, -69071.79, 0.0, 2.5004544, 2.49881 
2.9381216e+2, 3.6229488e+1, -69935.4, -566141.9, 6671.1274, 0.023296084, 0.024093162, -69845.73, -69845.73, 0.0, 2.500453, 2.49881 
2.9381216e+2, 3.8728315e+1, -70728.76, -566556.7, 7339.556, 0.021206047, 0.025204862, -70620.14, -70620.14, 0.0, 2.5004518, 2.49881 
2.938122e+2, 4.122721e+1, -30466.766, -485019.38, 9968.891, 0.019951278, 0.027311858, -30248.24, -30248.24, 0.0, 2.500454, 2.4989488 
2.9381222e+2, 4.3726185e+1, -25771.14, -480413.94, 7232.0938, 0.01974788, 0.028988486, -25656.127, -25656.127, 0.0, 2.5004594, 2.498954 
2.9381222e+2, 4.6225154e+1, -22567.668, -478903.28, 7022.1323, 0.019545848, 0.030666327, -22459.635, -22459.635, 0.0, 2.5004652, 2.498954 
2.9381225e+2, 4.872413e+1, -19367.395, -477396.1, 6811.6406, 0.019344268, 0.032352064, -19266.117, -19266.117, 0.0, 2.5004706, 2.4989538 
2.9381225e+2, 5.122317e+1, 20930.402, -395619.25, 9607.898, 0.017724233, 0.034713097, 21151.895, 21151.895, 0.0, 2.5004728, 2.4990933 
2.9381225e+2, 5.372228e+1, 21956.064, -392135.1, 8079.3477, 0.014621605, 0.03582377, 22113.64, 22113.64, 0.0, 2.500471, 2.4991 
2.9381225e+2, 5.6221396e+1, 21085.086, -392587.53, 7996.7676, 0.011520782, 0.0369314, 21239.615, 21239.615, 0.0, 2.5004697, 2.4990997 
2.9381225e+2, 5.8720505e+1, 20212.082, -393041.16, 7913.3286, 0.008422302, 0.038046714, 20363.559, 20363.559, 0.0, 2.5004683, 2.4990997 
2.9381225e+2, 6.121969e+1, 60618.766, -310507.78, 4303.024, 0.0065791872, 0.04012827, 60668.65, 60668.65, 0.0, 2.50047, 2.4992406 
2.9381222e+2, 6.371895e+1, 65785.29, -304462.75, 4277.3994, 0.0056372746, 0.040892255, 65834.695, 65834.695, 0.0, 2.500475, 2.4992485 
2.9381222e+2, 6.6218203e+1, 68708.54, -303076.25, 4143.6816, 0.0046946304, 0.041645814, 68754.71, 68754.71, 0.0, 2.50048, 2.4992485 
2.9381222e+2, 6.871746e+1, 71629.31, -301690.94, 4009.1536, 0.0037539643, 0.042403296, 71672.37, 71672.37, 0.0, 2.500485, 2.4992485 
2.938122e+2, 7.121679e+1, 110964.51, -222089.63, 3151.798, 0.0017634465, 0.04448927, 110994.33, 110994.33, 0.0, 2.5004873, 2.4993842 
2.9381216e+2, 7.371619e+1, 113405.91, -217115.6, 4902.9536, -0.0023703617, 0.044774108, 113478.62, 113478.62, 0.0, 2.5004873, 2.4993925 
2.9381213e+2, 7.6215583e+1, 113457.05, -217105.61, 4880.42, -0.0065070507, 0.045037877, 113529.086, 113529.086, 0.0, 2.5004873, 2.4993925 
2.9381207e+2, 7.871497e+1, 113504.98, -217097.17, 4857.6846, -0.010638994, 0.045302443, 113576.336, 113576.336, 0.0, 2.5004876, 2.4993925 
2.9381204e+2, 8.1214446e+1, 154786.89, -133408.03, -3206.1245, -0.012291072, 0.04684322, 154822.55, 154822.55, 0.0, 2.5004897, 2.499535 
2.93812e+2, 8.3713996e+1, 160554.89, -126738.66, -401.157, -0.011759247, 0.04760737, 160555.45, 160555.45, 0.0, 2.5004954, 2.499544 
2.9381198e+2, 8.6213547e+1, 163884.53, -125136.03, -787.8811, -0.011216187, 0.048354752, 163886.67, 163886.67, 0.0, 2.5005012, 2.499544 
2.9381198e+2, 8.87131e+1, 167209.38, -123535.7, -1174.3494, -0.010659236, 0.04910047, 167214.13, 167214.13, 0.0, 2.5005069, 2.499544 
2.9381192e+2, 9.1212744e+1, 205671.08, -44312.26, -3068.7542, -0.01199834, 0.053307436, 205708.73, 205708.73, 0.0, 2.5005076, 2.4996796 
2.9381183e+2, 9.371243e+1, 205857.9, -40183.504, 139.95561, -0.020013306, 0.05316826, 205857.98, 205857.98, 0.0, 2.5005035, 2.4996886 
2.938117e+2, 9.621211e+1, 203507.14, -41311.027, -308.92535, -0.028038254, 0.052950915, 203507.53, 203507.53, 0.0, 2.5004995, 2.4996886 
2.9381162e+2, 9.87118e+1, 201145.13, -42443.977, -755.7906, -0.036036287, 0.05271723, 201147.47, 201147.47, 0.0, 2.5004954, 2.4996886 
2.9631257e+2, 1.2491965e+0, -200316.72, -829677.3, 173.92369, 0.027593872, 0.0014134661, -200316.67, -200316.67, 0.0, 2.5004451, 2.4983618 
2.9631257e+2, 3.7475896e+0, -199667.55, -829829.8, 508.43524, 0.028794874, 0.004242077, -199667.14, -199667.14, 0.0, 2.5004468, 2.4983609 
2.963126e+2, 6.2459826e+0, -198731.56, -829384.94, 868.0781, 0.029999306, 0.007072927, -198730.36, -198730.36, 0.0, 2.5004485, 2.4983609 
2.963126e+2, 8.7443763e+0, -197796.47, -828940.56, 1227.5, 0.031207168, 0.009906016, -197794.08, -197794.08, 0.0, 2.50045, 2.4983609 
2.963126e+2, 1.1242843e+1, -152332.3, -734369.9, 2995.1577, 0.031165477, 0.012055316, -152316.88, -152316.88, 0.0, 2.50045, 2.498523 
2.963126e+2, 1.374138e+1, -153263.34, -734348.9, 1883.6371, 0.029986545, 0.013131209, -153257.23, -153257.23, 0.0, 2.5004478, 2.4985242 
2.963126e+2, 1.623992e+1, -154502.4, -734966.3, 2169.3096, 0.02880591, 0.0142120365, -154494.31, -154494.31, 0.0, 2.5004456, 2.498524 
2.9631257e+2, 1.8738456e+1, -155742.25, -735584.1, 2454.2676, 0.027623408, 0.015298265, -155731.86, -155731.86, 0.0, 2.5004435, 2.498524 
2.9631257e+2, 2.1237066e+1, -116380.28, -654673.1, 5757.0825, 0.026822165, 0.016769994, -116318.72, -116318.72, 0.0, 2.5004444, 2.4986622 
2.963126e+2, 2.3735747e+1, -113838.32, -652519.75, 3119.0078, 0.02675542, 0.01797298, -113820.266, -113820.266, 0.0, 2.5004478, 2.4986644 
2.963126e+2, 2.6234427e+1, -111898.38, -651613.2, 2936.9487, 0.026692431, 0.019183015, -111882.4, -111882.4, 0.0, 2.500451, 2.4986644 
2.963126e+2, 2.8733104e+1, -109959.86, -650707.4, 2753.9604, 0.026632326, 0.020401718, -109945.83, -109945.83, 0.0, 2.5004544, 2.4986644 
2.9631263e+2, 3.1231862e+1, -68025.31, -564736.25, 8043.5464, 0.025807777, 0.022241302, -67895.09, -67895.09, 0.0, 2.5004559, 2.4988112 
2.9631263e+2, 3.3730695e+1, -67781.39, -563007.3, 5794.9, 0.024414638, 0.023651434, -67713.586, -67713.586, 0.0, 2.5004544, 2.4988148 
2.9631263e+2, 3.6229524e+1, -68570.08, -563420.6, 6464.887, 0.02302066, 0.025066309, -68485.63, -68485.63, 0.0, 2.5004532, 2.4988146 
2.9631263e+2, 3.8728356e+1, -69360.54, -563836.0, 7134.116, 0.02162513, 0.026489755, -69257.63, -69257.63, 0.0, 2.5004518, 2.4988146 
2.9631266e+2, 4.1227257e+1, -30631.92, -485508.94, 10801.481, 0.020476088, 0.02863964, -30375.574, -30375.574, 0.0, 2.5004542, 2.4989479 
2.963127e+2, 4.3726224e+1, -25982.059, -481006.47, 8061.4277, 0.019891657, 0.03008777, -25839.283, -25839.283, 0.0, 2.5004597, 2.4989529 
2.963127e+2, 4.6225193e+1, -22775.668, -479497.5, 7853.031, 0.01930522, 0.03153709, -22640.682, -22640.682, 0.0, 2.5004652, 2.4989529 
2.9631272e+2, 4.8724163e+1, -19571.928, -477990.84, 7643.8804, 0.018715313, 0.032994244, -19444.506, -19444.506, 0.0, 2.5004709, 2.4989529 
2.9631272e+2, 5.1223207e+1, 21049.338, -395594.4, 9377.6455, 0.01701261, 0.035568684, 21260.3, 21260.3, 0.0, 2.500473, 2.499093 
2.9631272e+2, 5.372232e+1, 22051.473, -392164.7, 7851.7705, 0.014102512, 0.037341557, 22200.256, 22200.256, 0.0, 2.5004714, 2.4990997 
2.9631272e+2, 5.6221443e+1, 21182.266, -392618.53, 7770.7544, 0.011190232, 0.039112102, 21328.14, 21328.14, 0.0, 2.50047, 2.4990997 
2.9631272e+2, 5.8720565e+1, 20311.168, -393073.28, 7688.8115, 0.008276536, 0.040891066, 20454.127, 20454.127, 0.0, 2.5004685, 2.4990995 
2.9631272e+2, 6.1219746e+1, 60745.336, -310526.84, 5012.265, 0.0061901435, 0.04293236, 60812.99, 60812.99, 0.0, 2.5004702, 2.4992404 
2.9631272e+2, 6.371899e+1, 65848.29, -304619.25, 5036.6875, 0.004643676, 0.042912617, 65916.76, 65916.76, 0.0, 2.5004752, 2.4992483 
2.963127e+2, 6.621824e+1, 68773.31, -303233.94, 4904.5317, 0.0030933868, 0.042882346, 68837.96, 68837.96, 0.0, 2.5004802, 2.499248 
2.963127e+2, 6.871749e+1, 71695.86, -301849.84, 4771.5654, 0.0015415063, 0.042856038, 71756.8, 71756.8, 0.0, 2.5004852, 2.499248 
2.9631266e+2, 7.121682e+1, 111351.53, -221639.3, 3117.9128, 0.0001307412, 0.044921152, 111380.73, 111380.73, 0.0, 2.5004876, 2.4993846 
2.9631266e+2, 7.3716223e+1, 113735.98, -216784.4, 4916.9893, -0.0020593277, 0.045945898, 113809.1, 113809.1, 0.0, 2.5004878, 2.499393 
2.9631263e+2, 7.621563e+1, 113786.75, -216775.28, 4896.1045, -0.0042556887, 0.04694958, 113859.25, 113859.25, 0.0, 2.5004878, 2.499393 
2.9631263e+2, 7.8715026e+1, 113834.31, -216767.7, 4875.0186, -0.006451733, 0.047954243, 113906.18, 113906.18, 0.0, 2.5004878, 2.499393 
2.9631257e+2, 8.1214505e+1, 154579.42, -134255.06, -2444.009, -0.008590936, 0.049800392, 154600.1, 154600.1, 0.0, 2.5004902, 2.4995334 
2.9631254e+2, 8.371405e+1, 160245.61, -127794.92, 467.29858, -0.01123409, 0.050401308, 160246.36, 160246.36, 0.0, 2.500496, 2.4995418 
2.9631248e+2, 8.62136e+1, 163573.25, -126193.26, 82.29948, -0.013873422, 0.050985076, 163573.28, 163573.28, 0.0, 2.5005016, 2.4995418 
2.9631242e+2, 8.8713145e+1, 166896.13, -124593.9, -302.44385, -0.0165048, 0.05156695, 166896.44, 166896.44, 0.0, 2.5005074, 2.4995418 
2.9631236e+2, 9.121279e+1, 205434.95, -45295.52, -3697.504, -0.017573677, 0.055429935, 205489.47, 205489.47, 0.0, 2.5005083, 2.4996777 
2.963123e+2, 9.371246e+1, 205499.58, -41405.293, -449.02536, -0.020859774, 0.054586846, 205500.39, 205500.39, 0.0, 2.5005043, 2.4996862 
2.9631224e+2, 9.6212137e+1, 203141.81, -42530.656, -891.0976, -0.02416445, 0.053666133, 203145.05, 203145.05, 0.0, 2.5005002, 2.4996862 
2.9631218e+2, 9.871181e+1, 200772.8, -43661.445, -1331.154, -0.027457973, 0.052731074, 200780.05, 200780.05, 0.0, 2.500496, 2.4996862 
2.9881302e+2, 1.2491957e+0, -201163.44, -829042.8, 345.34683, 0.028295869, 0.001205291, -201163.25, -201163.25, 0.0, 2.5004425, 2.4983642 
2.9881302e+2, 3.747587e+0, -200477.11, -829180.75, 540.74414, 0.029142603, 0.0036170734, -200476.66, -200476.66, 0.0, 2.5004442, 2.4983633 
2.9881302e+2, 6.2459785e+0, -199527.28, -828728.1, 765.8517, 0.02998863, 0.006030457, -199526.36, -199526.36, 0.0, 2.5004458, 2.498363 
2.9881305e+2, 8.74437e+0, -198604.48, -828288.5, 992.939, 0.03083395, 0.008445442, -198602.9, -198602.9, 0.0, 2.5004475, 2.498363 
2.9881305e+2, 1.12428404e+1, -153214.02, -733948.2, 2078.1987, 0.03076336, 0.010795997, -153206.58, -153206.58, 0.0, 2.5004475, 2.498525 
2.9881305e+2, 1.3741389e+1, -154042.94, -733881.7, 859.39465, 0.029855112, 0.012695297, -154041.66, -154041.66, 0.0, 2.5004456, 2.4985259 
2.9881302e+2, 1.6239937e+1, -155198.73, -734461.1, 1055.8223, 0.028942455, 0.014598602, -155196.81, -155196.81, 0.0, 2.5004435, 2.4985259 
2.9881302e+2, 1.8738486e+1, -156375.1, -735050.5, 1264.1366, 0.028025277, 0.016506381, -156372.34, -156372.34, 0.0, 2.5004416, 2.4985259 
2.9881302e+2, 2.1237099e+1, -117804.28, -655878.9, 5371.16, 0.027001949, 0.018223627, -117750.67, -117750.67, 0.0, 2.5004425, 2.498661 
2.9881302e+2, 2.3735774e+1, -115206.22, -653683.4, 2710.2734, 0.026299462, 0.019062407, -115192.58, -115192.58, 0.0, 2.500446, 2.4986632 
2.9881302e+2, 2.6234448e+1, -113252.086, -652771.5, 2546.7073, 0.025597062, 0.01990739, -113240.07, -113240.07, 0.0, 2.5004494, 2.4986632 
2.9881302e+2, 2.8733122e+1, -111330.89, -651875.56, 2396.6775, 0.024893686, 0.020760247, -111320.26, -111320.26, 0.0, 2.5004528, 2.4986632 
2.9881305e+2, 3.123188e+1, -67695.54, -562516.94, 7032.8687, 0.024141831, 0.02258692, -67595.6, -67595.6, 0.0, 2.5004542, 2.4988158 
2.9881305e+2, 3.373072e+1, -67279.83, -560695.1, 4821.4565, 0.023448741, 0.024308672, -67232.72, -67232.72, 0.0, 2.500453, 2.4988194 
2.9881307e+2, 3.6229557e+1, -67938.67, -561047.3, 5560.7197, 0.022751888, 0.02603442, -67875.97, -67875.97, 0.0, 2.500452, 2.4988194 
2.9881307e+2, 3.8728398e+1, -68633.46, -561417.25, 6315.7983, 0.022050936, 0.027768128, -68552.53, -68552.53, 0.0, 2.5004508, 2.498819 
2.988131e+2, 4.12273e+1, -31398.93, -486285.2, 11161.484, 0.021001425, 0.029965902, -31125.227, -31125.227, 0.0, 2.5004532, 2.498947 
2.9881313e+2, 4.3726265e+1, -26788.045, -481871.78, 8605.247, 0.02003432, 0.031184155, -26625.385, -26625.385, 0.0, 2.5004587, 2.498952 
2.9881313e+2, 4.6225232e+1, -23609.639, -480378.0, 8607.114, 0.019062234, 0.032403514, -23447.51, -23447.51, 0.0, 2.5004642, 2.4989517 
2.9881316e+2, 4.8724198e+1, -20465.318, -478900.84, 8625.716, 0.018083088, 0.033630654, -20303.078, -20303.078, 0.0, 2.5004697, 2.4989517 
2.988132e+2, 5.122324e+1, 20483.693, -395894.56, 9549.751, 0.016304944, 0.036424313, 20702.604, 20702.604, 0.0, 2.500472, 2.499093 
2.988132e+2, 5.3722364e+1, 21560.037, -392457.28, 8281.663, 0.0135863535, 0.038857296, 21725.63, 21725.63, 0.0, 2.5004706, 2.4990995 
2.9881316e+2, 5.622149e+1, 20730.484, -392893.03, 8481.814, 0.01086187, 0.041288458, 20904.34, 20904.34, 0.0, 2.5004692, 2.4990995 
2.9881316e+2, 5.872061e+1, 19847.705, -393354.4, 8698.323, 0.008132572, 0.04372864, 20030.732, 20030.732, 0.0, 2.5004678, 2.4990995 
2.9881316e+2, 6.1219805e+1, 60279.992, -310823.56, 7263.7935, 0.0058019827, 0.04574047, 60422.113, 60422.113, 0.0, 2.5004694, 2.4992404 
2.9881316e+2, 6.3719046e+1, 65314.023, -305040.84, 7632.973, 0.0036502723, 0.04493557, 65471.27, 65471.27, 0.0, 2.5004745, 2.4992478 
2.9881313e+2, 6.6218287e+1, 68183.51, -303683.4, 7817.5537, 0.0014920102, 0.044119902, 68347.78, 68347.78, 0.0, 2.5004795, 2.4992478 
2.9881313e+2, 6.871752e+1, 71007.44, -302347.9, 8014.495, -0.00067106227, 0.043308243, 71179.4, 71179.4, 0.0, 2.5004842, 2.4992478 
2.9881313e+2, 7.121685e+1, 110848.75, -221613.89, 5897.9126, -0.0015005141, 0.04535872, 110953.35, 110953.35, 0.0, 2.5004864, 2.4993854 
2.9881313e+2, 7.3716265e+1, 113049.586, -216920.27, 8050.8794, -0.0017470593, 0.047121223, 113245.91, 113245.91, 0.0, 2.5004864, 2.4993935 
2.9881313e+2, 7.621567e+1, 112914.766, -217000.77, 8353.764, -0.0020029468, 0.04886256, 113126.16, 113126.16, 0.0, 2.5004861, 2.4993932 
2.9881313e+2, 7.871508e+1, 112729.63, -217105.5, 8663.315, -0.0022625567, 0.050605062, 112957.02, 112957.02, 0.0, 2.500486, 2.4993932 
2.9881307e+2, 8.121456e+1, 152742.0, -135888.39, 2390.6846, -0.0048934403, 0.052762978, 152761.8, 152761.8, 0.0, 2.5004878, 2.4995317 
2.9881302e+2, 8.3714104e+1, 158184.66, -129677.2, 5640.9766, -0.0107083125, 0.05319878, 158295.16, 158295.16, 0.0, 2.5004933, 2.4995399 
2.9881293e+2, 8.621365e+1, 161311.8, -128171.94, 5506.289, -0.016526287, 0.053617064, 161416.5, 161416.5, 0.0, 2.5004988, 2.4995399 
2.9881287e+2, 8.871319e+1, 164369.95, -126699.9, 5375.029, -0.022341825, 0.054033328, 164469.17, 164469.17, 0.0, 2.500504, 2.4995399 
2.988128e+2, 9.1212827e+1, 202703.6, -47498.152, 708.01953, -0.023155475, 0.057570674, 202705.6, 202705.6, 0.0, 2.5005045, 2.4996755 
2.988128e+2, 9.3712497e+1, 202354.47, -43960.707, 4142.441, -0.021712849, 0.05602038, 202424.13, 202424.13, 0.0, 2.5005, 2.4996839 
2.988128e+2, 9.621216e+1, 199538.52, -45301.59, 3865.402, -0.020295916, 0.054392666, 199599.52, 199599.52, 0.0, 2.500495, 2.4996839 
2.9881278e+2, 9.8711824e+1, 196570.86, -46715.527, 3582.7754, -0.018882355, 0.052752573, 196623.61, 196623.61, 0.0, 2.50049, 2.4996839 
3.013135e+2, 1.2491958e+0, -201300.5, -829073.1, 394.38818, 0.02948414, 0.0012122327, -201300.25, -201300.25, 0.0, 2.5004423, 2.4983642 
3.013135e+2, 3.7475872e+0, -201084.31, -829431.06, 296.71472, 0.029534988, 0.0036384966, -201084.17, -201084.17, 0.0, 2.5004432, 2.4983633 
3.013135e+2, 6.245979e+0, -200578.03, -829185.2, 229.84358, 0.029592425, 0.0060671596, -200577.95, -200577.95, 0.0, 2.500444, 2.4983633 
3.013135e+2, 8.7443703e+0, -200072.52, -828939.56, 162.75356, 0.029656447, 0.008498221, -200072.47, -200072.47, 0.0, 2.500445, 2.4983633 
3.013135e+2, 1.1242842e+1, -154889.7, -735326.4, 425.0046, 0.029441558, 0.010975798, -154889.39, -154889.39, 0.0, 2.5004451, 2.4985237 
3.013135e+2, 1.3741392e+1, -154815.63, -734797.8, -1445.1189, 0.029026298, 0.0131196035, -154812.03, -154812.03, 0.0, 2.5004447, 2.4985247 
3.013135e+2, 1.6239941e+1, -155044.97, -734898.1, -1912.7065, 0.02861638, 0.015268453, -155038.66, -155038.66, 0.0, 2.5004444, 2.4985247 
3.0131346e+2, 1.873849e+1, -155275.1, -734998.9, -2380.8845, 0.028211692, 0.017422806, -155265.31, -155265.31, 0.0, 2.500444, 2.498525 
3.013135e+2, 2.1237105e+1, -116391.055, -654503.7, 2295.436, 0.027197061, 0.019203557, -116381.26, -116381.26, 0.0, 2.5004442, 2.4986627 
3.013135e+2, 2.373578e+1, -115253.5, -652968.0, 428.8379, 0.025994996, 0.01991367, -115253.16, -115253.16, 0.0, 2.5004451, 2.4986649 
3.013135e+2, 2.6234454e+1, -114729.75, -652705.44, 1052.2732, 0.024800401, 0.020630492, -114727.69, -114727.69, 0.0, 2.500446, 2.4986649 
3.013135e+2, 2.8733128e+1, -114207.21, -652443.44, 1675.0403, 0.023612218, 0.021355717, -114201.99, -114201.99, 0.0, 2.500447, 2.4986649 
3.013135e+2, 3.123189e+1, -71320.055, -564370.4, 5623.9307, 0.022829002, 0.023228476, -71255.914, -71255.914, 0.0, 2.500448, 2.4988155 
3.0131352e+2, 3.3730727e+1, -69421.555, -561821.2, 1788.2266, 0.02257299, 0.025182707, -69415.06, -69415.06, 0.0, 2.5004494, 2.498819 
3.0131352e+2, 3.6229572e+1, -68540.125, -561383.5, 875.2244, 0.0223246, 0.027143173, -68538.57, -68538.57, 0.0, 2.500451, 2.498819 
3.0131355e+2, 3.8728413e+1, -67660.086, -560946.44, -38.863434, 0.02208347, 0.029113792, -67660.08, -67660.08, 0.0, 2.5004525, 2.498819 
3.0131358e+2, 4.1227317e+1, -30219.783, -484736.34, 4653.8525, 0.020995867, 0.031446036, -30172.137, -30172.137, 0.0, 2.5004542, 2.498949 
3.013136e+2, 4.3726283e+1, -27834.67, -481401.38, 2482.0042, 0.019507973, 0.032694362, -27821.088, -27821.088, 0.0, 2.5004559, 2.498954 
3.013136e+2, 4.6225253e+1, -26814.717, -480898.6, 2849.7976, 0.018027317, 0.03394477, -26796.832, -26796.832, 0.0, 2.5004578, 2.498954 
3.0131364e+2, 4.872422e+1, -25796.809, -480396.8, 3216.616, 0.016551698, 0.03520396, -25774.049, -25774.049, 0.0, 2.5004594, 2.498954 
3.0131364e+2, 5.122327e+1, 14440.62, -397697.4, 3718.9897, 0.01482442, 0.038072024, 14474.176, 14474.176, 0.0, 2.5004604, 2.4990954 
3.0131364e+2, 5.37224e+1, 16611.46, -393776.44, 2420.8208, 0.012732901, 0.04063822, 16625.74, 16625.74, 0.0, 2.500461, 2.4991019 
3.0131367e+2, 5.6221527e+1, 16984.803, -393588.38, 2552.1633, 0.010649105, 0.043197054, 17000.666, 17000.666, 0.0, 2.5004616, 2.4991019 
3.0131367e+2, 5.872066e+1, 17356.043, -393401.3, 2682.7334, 0.00857402, 0.045759242, 17373.563, 17373.563, 0.0, 2.5004623, 2.499102 
3.0131364e+2, 6.121985e+1, 58340.305, -310812.06, 1911.0717, 0.00629538, 0.047786962, 58350.2, 58350.2, 0.0, 2.5004652, 2.4992425 
3.0131364e+2, 6.371909e+1, 63439.914, -305074.16, 2111.6616, 0.0036277429, 0.046884023, 63452.016, 63452.016, 0.0, 2.5004702, 2.4992497 
3.0131364e+2, 6.621832e+1, 66487.016, -303596.88, 2079.3918, 0.0009663754, 0.045970175, 66498.695, 66498.695, 0.0, 2.5004754, 2.4992497 
3.013136e+2, 6.871757e+1, 69531.29, -302120.97, 2046.1459, -0.0016873279, 0.045060273, 69542.555, 69542.555, 0.0, 2.5004807, 2.4992497 
3.013136e+2, 7.1216905e+1, 109216.71, -220606.36, -1146.9662, -0.0024675513, 0.047162898, 109220.7, 109220.7, 0.0, 2.5004816, 2.4993892 
3.013136e+2, 7.371632e+1, 109836.24, -216782.19, 1131.5286, -0.0019963009, 0.04913973, 109840.164, 109840.164, 0.0, 2.500479, 2.499397 
3.0131364e+2, 7.621574e+1, 108244.516, -217548.8, 1519.1467, -0.0015199322, 0.051094472, 108251.6, 108251.6, 0.0, 2.5004764, 2.499397 
3.0131364e+2, 7.871515e+1, 106648.9, -218317.27, 1906.6636, -0.00103364, 0.053049393, 106660.086, 106660.086, 0.0, 2.5004735, 2.499397 
3.0131358e+2, 8.121463e+1, 146318.08, -138382.78, -2962.2446, -0.0036212187, 0.055197664, 146348.89, 146348.89, 0.0, 2.5004761, 2.4995332 
3.0131352e+2, 8.3714175e+1, 153846.19, -131328.94, 551.40027, -0.010214689, 0.055369716, 153847.27, 153847.27, 0.0, 2.5004854, 2.4995408 
3.0131346e+2, 8.6213714e+1, 159231.55, -128725.13, 590.83484, -0.016796943, 0.055527303, 159232.75, 159232.75, 0.0, 2.5004947, 2.4995408 
3.0131334e+2, 8.871326e+1, 164611.22, -126124.08, 630.44275, -0.023361731, 0.055686135, 164612.58, 164612.58, 0.0, 2.500504, 2.4995408 
3.0131328e+2, 9.12129e+1, 204683.25, -46105.29, -5303.0684, -0.02428392, 0.05911477, 204795.33, 204795.33, 0.0, 2.5005074, 2.4996765 
3.0131328e+2, 9.371256e+1, 205536.81, -42242.4, -1429.1228, -0.021455895, 0.057567276, 205545.05, 205545.05, 0.0, 2.5005052, 2.4996843 
3.0131328e+2, 9.6212226e+1, 204215.86, -42873.703, -1272.072, -0.018607397, 0.0559383, 204222.4, 204222.4, 0.0, 2.5005028, 2.4996843 
3.0131328e+2, 9.871189e+1, 202877.16, -43513.555, -1111.6891, -0.01572265, 0.054293174, 202882.17, 202882.17, 0.0, 2.5005004, 2.4996843 
3.038139e+2, 1.2491975e+0, -201419.95, -829322.06, 525.98486, 0.030446088, 0.0014058312, -201419.52, -201419.52, 0.0, 2.5004423, 2.4983637 
3.038139e+2, 3.7475926e+0, -201201.14, -829676.06, 425.37524, 0.02934137, 0.004219103, -201200.86, -201200.86, 0.0, 2.5004432, 2.4983628 
3.038139e+2, 6.2459874e+0, -200694.11, -829430.1, 359.53223, 0.028239865, 0.007034522, -200693.9, -200693.9, 0.0, 2.500444, 2.4983628 
3.038139e+2, 8.744383e+0, -200187.84, -829184.5, 293.47025, 0.027141575, 0.009852088, -200187.7, -200187.7, 0.0, 2.500445, 2.4983628 
3.038139e+2, 1.1242852e+1, -155724.14, -737076.94, 352.22366, 0.026692536, 0.012375044, -155723.94, -155723.94, 0.0, 2.5004451, 2.4985206 
3.038139e+2, 1.3741396e+1, -155654.75, -736562.1, -1511.644, 0.027002368, 0.014235127, -155650.83, -155650.83, 0.0, 2.500445, 2.4985218 
3.038139e+2, 1.6239941e+1, -155882.78, -736663.8, -1978.0153, 0.027315417, 0.016100157, -155876.05, -155876.05, 0.0, 2.5004444, 2.4985218 
3.038139e+2, 1.8738483e+1, -156111.6, -736765.8, -2444.9768, 0.02763154, 0.017970573, -156101.3, -156101.3, 0.0, 2.500444, 2.4985218 
3.038139e+2, 2.1237096e+1, -115162.35, -651994.25, 2409.4924, 0.026861606, 0.019640502, -115151.54, -115151.54, 0.0, 2.5004444, 2.498667 
3.038139e+2, 2.3735777e+1, -114028.46, -650470.94, 555.5775, 0.025337877, 0.020423181, -114027.88, -114027.88, 0.0, 2.5004451, 2.4986691 
3.038139e+2, 2.6234457e+1, -113502.836, -650209.1, 1180.4374, 0.023817657, 0.02121278, -113500.24, -113500.24, 0.0, 2.500446, 2.4986691 
3.038139e+2, 2.8733137e+1, -112978.42, -649947.9, 1804.6292, 0.022300106, 0.022010995, -112972.36, -112972.36, 0.0, 2.500447, 2.4986691 
3.0381393e+2, 3.1231898e+1, -72842.76, -567629.6, 5806.415, 0.02141864, 0.0239642, -72774.625, -72774.625, 0.0, 2.5004482, 2.4988098 
3.0381393e+2, 3.3730733e+1, -70988.984, -565180.94, 2006.7665, 0.021400362, 0.026052682, -70980.836, -70980.836, 0.0, 2.5004497, 2.4988134 
3.0381396e+2, 3.622957e+1, -70104.625, -564744.5, 1095.2648, 0.021386452, 0.028147338, -70102.2, -70102.2, 0.0, 2.500451, 2.4988134 
3.0381396e+2, 3.8728404e+1, -69221.66, -564308.75, 182.67743, 0.021376183, 0.030251892, -69221.586, -69221.586, 0.0, 2.5004528, 2.4988134 
3.0381402e+2, 4.1227314e+1, -29340.555, -483041.16, 4893.843, 0.020147996, 0.032770585, -29287.773, -29287.773, 0.0, 2.5004544, 2.498952 
3.0381402e+2, 4.3726283e+1, -26980.02, -479763.0, 2735.0542, 0.018063834, 0.03427368, -26963.5, -26963.5, 0.0, 2.500456, 2.4989567 
3.0381402e+2, 4.622526e+1, -25958.414, -479262.44, 3104.6924, 0.015981412, 0.0357795, -25937.152, -25937.152, 0.0, 2.5004578, 2.498957 
3.0381405e+2, 4.872423e+1, -24938.855, -478762.88, 3473.3552, 0.0138988895, 0.037294697, -24912.273, -24912.273, 0.0, 2.5004597, 2.498957 
3.0381408e+2, 5.1223284e+1, 15031.077, -396688.56, 3761.9275, 0.012337708, 0.040075615, 15065.447, 15065.447, 0.0, 2.5004606, 2.499097 
3.0381408e+2, 5.3722405e+1, 17115.518, -392951.72, 2507.2402, 0.011296658, 0.042249393, 17130.846, 17130.846, 0.0, 2.5004613, 2.4991033 
3.0381408e+2, 5.622153e+1, 17489.656, -392765.94, 2640.5176, 0.010259121, 0.04441702, 17506.65, 17506.65, 0.0, 2.5004618, 2.4991033 
3.038141e+2, 5.872066e+1, 17861.693, -392581.2, 2773.0225, 0.009225563, 0.046588942, 17880.428, 17880.428, 0.0, 2.5004625, 2.4991033 
3.038141e+2, 6.121985e+1, 58675.086, -310392.2, 2662.664, 0.0072529046, 0.048652504, 58694.293, 58694.293, 0.0, 2.5004654, 2.499243 
3.038141e+2, 6.37191e+1, 63696.715, -304820.72, 2893.2449, 0.0041635297, 0.048252605, 63719.43, 63719.43, 0.0, 2.5004706, 2.4992502 
3.0381408e+2, 6.621834e+1, 66744.336, -303346.3, 2862.928, 0.0010757669, 0.047841825, 66766.48, 66766.48, 0.0, 2.500476, 2.4992502 
3.0381408e+2, 6.871759e+1, 69789.13, -301873.28, 2831.635, -0.002009199, 0.047434848, 69810.7, 69810.7, 0.0, 2.5004811, 2.4992502 
3.0381408e+2, 7.121693e+1, 110419.05, -218462.84, -1594.3292, -0.0032597184, 0.049644656, 110426.77, 110426.77, 0.0, 2.500482, 2.4993927 
3.0381408e+2, 7.371635e+1, 110936.59, -214849.72, 713.6555, -0.0031864934, 0.05136165, 110938.16, 110938.16, 0.0, 2.5004795, 2.4994004 
3.0381408e+2, 7.621576e+1, 109342.61, -215619.34, 1103.63, -0.0031132034, 0.053056955, 109346.36, 109346.36, 0.0, 2.5004766, 2.4994004 
3.0381408e+2, 7.871518e+1, 107744.74, -216390.84, 1493.5032, -0.003035815, 0.054752573, 107751.62, 107751.62, 0.0, 2.500474, 2.4994004 
3.0381405e+2, 8.121466e+1, 146949.84, -137504.8, -1643.2875, -0.005147274, 0.056610346, 146959.33, 146959.33, 0.0, 2.5004766, 2.4995344 
3.03814e+2, 8.3714193e+1, 154358.52, -130698.625, 1946.3368, -0.010369988, 0.056438178, 154371.81, 154371.81, 0.0, 2.500486, 2.4995415 
3.0381393e+2, 8.621374e+1, 159742.61, -128095.67, 1987.5664, -0.015586917, 0.056249548, 159756.34, 159756.34, 0.0, 2.5004952, 2.4995418 
3.0381387e+2, 8.871327e+1, 165121.6, -125495.195, 2028.7002, -0.020791775, 0.056060333, 165135.75, 165135.75, 0.0, 2.5005043, 2.4995418 
3.0381384e+2, 9.1212916e+1, 205640.31, -44617.13, -5643.365, -0.022230126, 0.05959005, 205767.5, 205767.5, 0.0, 2.5005078, 2.4996789 
3.0381382e+2, 9.371259e+1, 206310.48, -41145.28, -1758.1212, -0.021144, 0.05872723, 206322.98, 206322.98, 0.0, 2.5005057, 2.499686 
3.038138e+2, 9.621227e+1, 205001.47, -41767.52, -1602.8546, -0.020048238, 0.057783, 205011.89, 205011.89, 0.0, 2.5005035, 2.499686 
3.038138e+2, 9.871194e+1, 203680.9, -42395.324, -1446.0071, -0.018932806, 0.056821816, 203689.4, 203689.4, 0.0, 2.5005012, 2.499686 
3.0631435e+2, 1.2491991e+0, -201539.81, -829571.8, 657.8476, 0.031408, 0.0015989126, -201539.13, -201539.13, 0.0, 2.5004423, 2.4983635 
3.0631435e+2, 3.7475973e+0, -201318.98, -829923.2, 554.2382, 0.029147645, 0.004798159, -201318.5, -201318.5, 0.0, 2.5004432, 2.4983623 
3.0631432e+2, 6.245996e+0, -200811.2, -829677.1, 489.42328, 0.02688713, 0.0079993, -200810.81, -200810.81, 0.0, 2.500444, 2.4983623 
3.063143e+2, 8.744394e+0, -200304.17, -829431.5, 424.3894, 0.024626454, 0.011202336, -200303.89, -200303.89, 0.0, 2.500445, 2.4983623 
3.063143e+2, 1.12428635e+1, -156563.34, -738837.3, 281.26096, 0.023944532, 0.01377271, -156563.2, -156563.2, 0.0, 2.5004451, 2.4985175 
3.0631432e+2, 1.3741401e+1, -156494.98, -738328.75, -1577.523, 0.024979474, 0.015346686, -156490.72, -156490.72, 0.0, 2.500445, 2.4985187 
3.0631432e+2, 1.6239938e+1, -156721.7, -738431.75, -2042.6779, 0.02601551, 0.016925504, -156714.53, -156714.53, 0.0, 2.5004444, 2.4985187 
3.0631432e+2, 1.8738478e+1, -156949.22, -738535.06, -2508.423, 0.027052458, 0.018509591, -156938.39, -156938.39, 0.0, 2.500444, 2.4985187 
3.0631435e+2, 2.1237089e+1, -113942.41, -649503.0, 2525.81, 0.026526613, 0.020075291, -113930.49, -113930.49, 0.0, 2.5004444, 2.4986713 
3.0631432e+2, 2.3735775e+1, -112804.33, -647975.7, 682.9864, 0.024680577, 0.02092845, -112803.45, -112803.45, 0.0, 2.5004451, 2.4986734 
3.0631432e+2, 2.623446e+1, -112276.83, -647714.6, 1309.2709, 0.022834092, 0.0217887, -112273.625, -112273.625, 0.0, 2.500446, 2.4986734 
3.0631432e+2, 2.8733146e+1, -111750.54, -647454.2, 1934.8873, 0.020986535, 0.022657776, -111743.555, -111743.555, 0.0, 2.500447, 2.4986734 
3.0631435e+2, 3.1231904e+1, -74372.64, -570903.8, 5994.934, 0.020010265, 0.024696926, -74300.27, -74300.27, 0.0, 2.5004482, 2.498804 
3.0631438e+2, 3.3730736e+1, -72557.17, -568542.3, 2226.3203, 0.020229068, 0.026917757, -72547.18, -72547.18, 0.0, 2.5004497, 2.4988074 
3.0631438e+2, 3.622957e+1, -71669.88, -568107.1, 1316.3191, 0.020448962, 0.029144656, -71666.39, -71666.39, 0.0, 2.5004513, 2.4988074 
3.063144e+2, 3.87284e+1, -70783.984, -567672.56, 405.23227, 0.020668872, 0.0313812, -70783.65, -70783.65, 0.0, 2.5004528, 2.4988077 
3.0631444e+2, 4.1227305e+1, -28468.84, -481361.6, 5135.7305, 0.019301517, 0.034088947, -28410.61, -28410.61, 0.0, 2.5004544, 2.4989548 
3.0631444e+2, 4.3726283e+1, -26125.914, -478125.75, 2989.0415, 0.016620565, 0.035845358, -26106.15, -26106.15, 0.0, 2.5004563, 2.4989595 
3.063145e+2, 4.6225262e+1, -25102.658, -477627.4, 3360.5244, 0.013935845, 0.037605096, -25077.705, -25077.705, 0.0, 2.500458, 2.4989595 
3.063145e+2, 4.8724243e+1, -24081.447, -477130.06, 3731.032, 0.011245889, 0.03937482, -24050.723, -24050.723, 0.0, 2.5004597, 2.4989595 
3.0631453e+2, 5.1223296e+1, 15610.757, -395702.1, 3816.9695, 0.009849386, 0.042080116, 15646.175, 15646.175, 0.0, 2.5004609, 2.4990988 
3.0631456e+2, 5.372242e+1, 17618.916, -392128.34, 2594.3447, 0.0098587405, 0.043859143, 17635.342, 17635.342, 0.0, 2.5004616, 2.4991045 
3.0631456e+2, 5.6221545e+1, 17993.854, -391944.88, 2729.557, 0.009867402, 0.045633078, 18012.027, 18012.027, 0.0, 2.500462, 2.4991045 
3.063146e+2, 5.8720666e+1, 18366.69, -391762.4, 2863.9968, 0.0098753115, 0.04741225, 18386.688, 18386.688, 0.0, 2.5004628, 2.4991045 
3.063146e+2, 6.121986e+1, 59000.02, -309992.8, 3422.2961, 0.008209473, 0.049516115, 59031.758, 59031.758, 0.0, 2.5004656, 2.4992435 
3.063146e+2, 6.3719106e+1, 63952.914, -304568.56, 3675.6938, 0.004699447, 0.04961673, 63989.57, 63989.57, 0.0, 2.5004709, 2.4992504 
3.063146e+2, 6.621836e+1, 67001.05, -303097.0, 3647.33, 0.0011863592, 0.049706418, 67036.99, 67036.99, 0.0, 2.5004761, 2.4992504 
3.063146e+2, 6.8717605e+1, 70046.37, -301626.8, 3617.9902, -0.002328799, 0.04979977, 70081.586, 70081.586, 0.0, 2.5004814, 2.4992504 
3.0631456e+2, 7.1216947e+1, 111605.555, -216352.2, -2029.1299, -0.0040591205, 0.0521295, 111618.11, 111618.11, 0.0, 2.5004826, 2.499396 
3.0631456e+2, 7.371637e+1, 112036.24, -212918.69, 295.91257, -0.004381424, 0.053583823, 112036.516, 112036.516, 0.0, 2.5004797, 2.4994035 
3.0631456e+2, 7.621578e+1, 110440.01, -213691.34, 688.2434, -0.004708591, 0.055016663, 110441.47, 110441.47, 0.0, 2.500477, 2.4994035 
3.0631456e+2, 7.8715205e+1, 108839.875, -214465.88, 1080.4729, -0.005037484, 0.056449942, 108843.484, 108843.484, 0.0, 2.5004742, 2.4994035 
3.0631453e+2, 8.1214684e+1, 147567.3, -136656.55, -308.2125, -0.006681011, 0.05802214, 147567.64, 147567.64, 0.0, 2.500477, 2.4995356 
3.063145e+2, 8.3714217e+1, 154870.17, -130069.734, 3341.2644, -0.010530288, 0.05750324, 154909.34, 154909.34, 0.0, 2.5004864, 2.4995425 
3.0631444e+2, 8.6213756e+1, 160253.02, -127467.625, 3384.289, -0.0143791, 0.056965776, 160292.81, 160292.81, 0.0, 2.5004957, 2.4995425 
3.063144e+2, 8.8713294e+1, 165630.73, -124867.984, 3427.218, -0.018221231, 0.0564259, 165671.16, 165671.16, 0.0, 2.5005047, 2.4995425 
3.0631435e+2, 9.1212934e+1, 206570.39, -43171.17, -5969.0815, -0.020190846, 0.06007838, 206712.97, 206712.97, 0.0, 2.5005085, 2.499681 
3.0631432e+2, 9.3712616e+1, 207062.22, -40059.62, -2075.9636, -0.020843314, 0.059897456, 207079.66, 207079.66, 0.0, 2.5005062, 2.4996874 
3.0631426e+2, 9.6212304e+1, 205748.23, -40680.94, -1914.1343, -0.021496758, 0.05963484, 205763.11, 205763.11, 0.0, 2.500504, 2.4996874 
3.0631423e+2, 9.8711985e+1, 204422.7, -41307.824, -1750.7239, -0.02214711, 0.059354465, 204435.19, 204435.19, 0.0, 2.5005016, 2.4996877 
3.0881482e+2, 1.24920085e+0, -201856.28, -829927.8, 719.58185, 0.032376733, 0.0017914665, -201855.47, -201855.47, 0.0, 2.500442, 2.498363 
3.088148e+2, 3.7476027e+0, -201678.36, -830298.9, 474.56833, 0.028961295, 0.005375651, -201678.02, -201678.02, 0.0, 2.5004427, 2.4983618 
3.0881476e+2, 6.2460047e+0, -201239.72, -830086.2, 275.40924, 0.025542576, 0.008961504, -201239.6, -201239.6, 0.0, 2.5004435, 2.498362 
3.0881473e+2, 8.7444055e+0, -200827.42, -829886.2, 78.9245, 0.022120574, 0.012549028, -200827.42, -200827.42, 0.0, 2.5004442, 2.498362 
3.0881473e+2, 1.1242874e+1, -157835.44, -740821.44, -371.45578, 0.021207033, 0.015169093, -157835.2, -157835.2, 0.0, 2.5004444, 2.4985147 
3.0881476e+2, 1.3741405e+1, -157710.83, -740284.94, -2303.96, 0.022965912, 0.01645499, -157701.72, -157701.72, 0.0, 2.5004442, 2.4985156 
3.0881476e+2, 1.6239937e+1, -157906.56, -740374.2, -2836.6243, 0.024723958, 0.017745627, -157892.75, -157892.75, 0.0, 2.500444, 2.4985156 
3.0881476e+2, 1.873847e+1, -158127.08, -740475.4, -3360.9656, 0.026480956, 0.019041432, -158107.69, -158107.69, 0.0, 2.5004435, 2.4985156 
3.088148e+2, 2.1237081e+1, -113075.484, -647198.9, 1797.2867, 0.026197912, 0.020509768, -113069.44, -113069.44, 0.0, 2.5004437, 2.4986753 
3.088148e+2, 2.373577e+1, -111937.516, -645656.0, -87.69718, 0.024028502, 0.02143146, -111937.5, -111937.5, 0.0, 2.5004447, 2.4986777 
3.088148e+2, 2.623446e+1, -111452.23, -645415.9, 501.77527, 0.021855025, 0.022360383, -111451.75, -111451.75, 0.0, 2.5004456, 2.4986777 
3.0881476e+2, 2.873315e+1, -111000.09, -645191.7, 1104.0242, 0.019677067, 0.023298357, -110997.81, -110997.81, 0.0, 2.5004463, 2.4986777 
3.088148e+2, 3.123191e+1, -76431.02, -574437.5, 5275.511, 0.018609215, 0.025429124, -76375.14, -76375.14, 0.0, 2.5004475, 2.4987986 
3.0881482e+2, 3.373074e+1, -74662.305, -572155.56, 1657.6736, 0.019063672, 0.02778054, -74656.78, -74656.78, 0.0, 2.500449, 2.4988017 
3.0881485e+2, 3.6229566e+1, -73820.3, -571743.44, 891.4522, 0.019516207, 0.030137815, -73818.7, -73818.7, 0.0, 2.5004504, 2.4988017 
3.0881488e+2, 3.8728392e+1, -73013.02, -571348.06, 141.67152, 0.019965433, 0.032504424, -73012.984, -73012.984, 0.0, 2.5004518, 2.4988017 
3.088149e+2, 4.1227302e+1, -28311.094, -480025.3, 5051.128, 0.01845989, 0.035403967, -28254.62, -28254.62, 0.0, 2.5004535, 2.4989576 
3.088149e+2, 4.3726283e+1, -25985.361, -476819.06, 3071.8364, 0.015181274, 0.037412502, -25964.434, -25964.434, 0.0, 2.5004551, 2.4989624 
3.088149e+2, 4.622527e+1, -25034.701, -476357.34, 3619.641, 0.011894134, 0.039424844, -25005.674, -25005.674, 0.0, 2.5004568, 2.4989624 
3.088149e+2, 4.8724252e+1, -24153.88, -475929.28, 4184.7295, 0.008597374, 0.041447684, -24115.121, -24115.121, 0.0, 2.5004582, 2.4989624 
3.0881494e+2, 5.122331e+1, 15203.515, -395188.38, 4312.1313, 0.00736418, 0.044089068, 15248.819, 15248.819, 0.0, 2.5004594, 2.4991004 
3.0881497e+2, 5.372243e+1, 17224.83, -391717.3, 3381.1792, 0.00842243, 0.045471393, 17252.783, 17252.783, 0.0, 2.5004601, 2.499106 
3.08815e+2, 5.6221545e+1, 17643.393, -391514.25, 3805.2324, 0.009476149, 0.046849553, 17678.78, 17678.78, 0.0, 2.5004609, 2.499106 
3.0881506e+2, 5.8720666e+1, 18023.348, -391329.8, 4244.3994, 0.010524747, 0.048233896, 18067.352, 18067.352, 0.0, 2.5004616, 2.499106 
3.0881506e+2, 6.121986e+1, 58396.902, -310031.9, 5789.7813, 0.009166666, 0.050382745, 58487.867, 58487.867, 0.0, 2.5004644, 2.4992442 
3.0881506e+2, 6.371912e+1, 63137.906, -304808.13, 6377.8403, 0.005238132, 0.05098136, 63248.42, 63248.42, 0.0, 2.5004692, 2.4992507 
3.0881506e+2, 6.6218376e+1, 65980.01, -303437.9, 6686.235, 0.0013023887, 0.05156883, 66100.984, 66100.984, 0.0, 2.5004742, 2.4992507 
3.0881503e+2, 6.871763e+1, 68765.04, -302095.22, 7009.456, -0.0026397486, 0.052159708, 68897.48, 68897.48, 0.0, 2.500479, 2.4992507 
3.0881503e+2, 7.121697e+1, 111223.484, -214999.7, 480.6414, -0.0048585865, 0.054621987, 111224.195, 111224.195, 0.0, 2.5004802, 2.4993997 
3.08815e+2, 7.371639e+1, 111834.445, -211592.5, 3104.9631, -0.0055744923, 0.055810947, 111864.25, 111864.25, 0.0, 2.5004778, 2.4994066 
3.08815e+2, 7.6215816e+1, 110427.07, -212275.5, 3803.53, -0.0062993974, 0.056978438, 110471.9, 110471.9, 0.0, 2.5004754, 2.4994066 
3.08815e+2, 7.8715223e+1, 108954.79, -212989.77, 4511.256, -0.0070311846, 0.0581465, 109017.99, 109017.99, 0.0, 2.500473, 2.4994066 
3.0881497e+2, 8.121471e+1, 147160.13, -136304.86, 5175.882, -0.00821408, 0.05943817, 147254.61, 147254.61, 0.0, 2.500476, 2.4995368 
3.0881497e+2, 8.371424e+1, 154184.1, -129999.06, 9128.68, -0.010686551, 0.058570247, 154477.03, 154477.03, 0.0, 2.5004847, 2.4995434 
3.0881494e+2, 8.6213773e+1, 159323.4, -127514.445, 9435.168, -0.013163415, 0.05768174, 159633.42, 159633.42, 0.0, 2.5004935, 2.4995434 
3.0881494e+2, 8.871331e+1, 164401.97, -125059.07, 9743.627, -0.015638644, 0.056789156, 164729.6, 164729.6, 0.0, 2.5005023, 2.4995434 
3.0881488e+2, 9.121296e+1, 205730.97, -42596.305, -1161.3334, -0.0181534, 0.060585763, 205736.39, 205736.39, 0.0, 2.500506, 2.4996834 
3.0881482e+2, 9.3712646e+1, 206264.92, -39711.016, 2867.2783, -0.020539165, 0.06108303, 206298.34, 206298.34, 0.0, 2.500504, 2.499689 
3.0881476e+2, 9.621234e+1, 204940.69, -40334.26, 3167.1226, -0.022934632, 0.061498348, 204981.58, 204981.58, 0.0, 2.5005016, 2.499689 
3.0881473e+2, 9.871203e+1, 203392.67, -41065.277, 3464.021, -0.025341922, 0.061895523, 203441.75, 203441.75, 0.0, 2.500499, 2.499689 
3.1131524e+2, 1.2492001e+0, -195753.89, -828341.3, 209.45047, 0.030988246, 0.0018636765, -195753.81, -195753.81, 0.0, 2.500454, 2.49836 
3.113152e+2, 3.7476003e+0, -198878.11, -830288.75, -424.53873, 0.028198455, 0.0055927127, -198877.83, -198877.83, 0.0, 2.500449, 2.498359 
3.113152e+2, 6.2460005e+0, -201719.3, -831647.0, -1011.65656, 0.025414335, 0.009323995, -201717.67, -201717.67, 0.0, 2.5004442, 2.498359 
3.1131518e+2, 8.744401e+0, -204561.22, -833005.6, -1599.0596, 0.02263589, 0.013057522, -204557.14, -204557.14, 0.0, 2.5004392, 2.498359 
3.1131518e+2, 1.1242866e+1, -161922.98, -743926.2, -1459.3654, 0.021690967, 0.015706671, -161919.33, -161919.33, 0.0, 2.5004387, 2.498512 
3.1131518e+2, 1.3741393e+1, -159358.39, -742195.9, -3002.8586, 0.02275213, 0.016907971, -159342.92, -159342.92, 0.0, 2.5004425, 2.4985132 
3.1131518e+2, 1.6239923e+1, -157086.19, -741071.56, -3163.5825, 0.023820532, 0.01811469, -157069.06, -157069.06, 0.0, 2.5004463, 2.4985132 
3.113152e+2, 1.8738452e+1, -154814.95, -739947.7, -3324.6226, 0.024895951, 0.01932725, -154796.06, -154796.06, 0.0, 2.5004504, 2.4985132 
3.113152e+2, 2.1237062e+1, -109530.914, -646186.75, 768.2835, 0.024551982, 0.020856258, -109529.81, -109529.81, 0.0, 2.5004506, 2.498674 
3.113152e+2, 2.3735753e+1, -110498.08, -645633.3, -2701.111, 0.022922106, 0.022000985, -110484.445, -110484.445, 0.0, 2.500448, 2.498676 
3.113152e+2, 2.6234445e+1, -112075.44, -646346.94, -3741.899, 0.021300284, 0.0231537, -112049.234, -112049.234, 0.0, 2.5004451, 2.4986763 
3.113152e+2, 2.8733134e+1, -113654.01, -647061.1, -4783.6616, 0.01968618, 0.024316175, -113611.11, -113611.11, 0.0, 2.5004423, 2.4986763 
3.1131524e+2, 3.1231895e+1, -79394.8, -576034.75, -331.0766, 0.018601779, 0.02659344, -79394.58, -79394.58, 0.0, 2.5004425, 2.4987981 
3.1131524e+2, 3.373072e+1, -76573.63, -573246.2, -2656.4067, 0.018486066, 0.029028615, -76559.42, -76559.42, 0.0, 2.5004458, 2.4988012 
3.1131527e+2, 3.622955e+1, -74614.586, -572246.9, -2178.762, 0.018379137, 0.031468865, -74605.05, -74605.05, 0.0, 2.5004492, 2.4988015 
3.113153e+2, 3.8728377e+1, -72657.3, -571248.4, -1701.8835, 0.018279474, 0.033917617, -72651.484, -72651.484, 0.0, 2.5004525, 2.4988017 
3.1131533e+2, 4.1227287e+1, -28503.502, -479590.38, 2889.2876, 0.016730348, 0.03684327, -28484.996, -28484.996, 0.0, 2.5004525, 2.4989588 
3.1131533e+2, 4.372627e+1, -28644.107, -477597.1, -43.98573, 0.013901514, 0.038851686, -28644.104, -28644.104, 0.0, 2.5004501, 2.4989634 
3.1131536e+2, 4.6225253e+1, -30043.512, -478218.94, -516.25946, 0.01109341, 0.040860415, -30042.916, -30042.916, 0.0, 2.5004475, 2.4989636 
3.1131536e+2, 4.872424e+1, -31445.07, -478841.84, -989.3328, 0.008305117, 0.042875975, -31442.883, -31442.883, 0.0, 2.5004451, 2.4989636 
3.113154e+2, 5.1223296e+1, 8407.839, -396941.75, -1021.6295, 0.007126767, 0.04547909, 8410.414, 8410.414, 0.0, 2.500446, 2.4991038 
3.1131542e+2, 5.372242e+1, 12644.231, -392460.9, -2152.9563, 0.007844012, 0.04680462, 12655.673, 12655.673, 0.0, 2.5004508, 2.4991093 
3.1131545e+2, 5.6221545e+1, 15377.629, -391099.0, -1965.4219, 0.008569304, 0.04812644, 15387.132, 15387.132, 0.0, 2.5004554, 2.4991093 
3.1131548e+2, 5.8720666e+1, 18108.455, -389738.34, -1778.9288, 0.009301581, 0.04945486, 18116.215, 18116.215, 0.0, 2.5004601, 2.4991093 
3.113155e+2, 6.1219865e+1, 57197.652, -308658.1, -632.80096, 0.008091872, 0.051727924, 57198.746, 57198.746, 0.0, 2.5004601, 2.4992485 
3.113155e+2, 6.371913e+1, 56555.406, -306133.7, 147.97385, 0.004820338, 0.052684885, 56555.465, 56555.465, 0.0, 2.500456, 2.4992547 
3.113155e+2, 6.6218394e+1, 54158.22, -307251.6, 618.6316, 0.001562158, 0.05362672, 54159.277, 54159.277, 0.0, 2.5004518, 2.499255 
3.113155e+2, 6.871766e+1, 51757.914, -308371.03, 1088.9335, -0.0016820267, 0.054567654, 51761.207, 51761.207, 0.0, 2.5004478, 2.499255 
3.1131548e+2, 7.121701e+1, 94807.38, -221062.33, -5171.6826, -0.0040053423, 0.05702539, 94892.04, 94892.04, 0.0, 2.50045, 2.4994037 
3.1131548e+2, 7.3716426e+1, 102106.23, -214571.69, -3192.1204, -0.0054940875, 0.05786942, 102138.4, 102138.4, 0.0, 2.5004594, 2.4994104 
3.1131545e+2, 7.6215845e+1, 107549.7, -211931.06, -3167.6824, -0.006965743, 0.058692053, 107581.11, 107581.11, 0.0, 2.5004687, 2.4994104 
3.1131545e+2, 7.8715265e+1, 112989.01, -209292.45, -3143.7893, -0.008419278, 0.05951519, 113019.67, 113019.67, 0.0, 2.500478, 2.4994104 
3.1131542e+2, 8.1214744e+1, 151674.8, -131590.55, -2710.7852, -0.009296203, 0.060738686, 151700.73, 151700.73, 0.0, 2.500481, 2.4995425 
3.1131542e+2, 8.371429e+1, 151107.22, -129118.44, 1800.5, -0.010434497, 0.06011122, 151118.8, 151118.8, 0.0, 2.5004768, 2.4995487 
3.1131545e+2, 8.621383e+1, 148820.19, -130207.445, 2667.883, -0.011565068, 0.059469488, 148845.69, 148845.69, 0.0, 2.500473, 2.4995487 
3.1131545e+2, 8.871337e+1, 146527.17, -131299.33, 3535.4238, -0.012681751, 0.05882985, 146572.16, 146572.16, 0.0, 2.500469, 2.4995487 
3.113154e+2, 9.121302e+1, 187245.73, -50208.96, -6687.144, -0.01563691, 0.06268423, 187433.9, 187433.9, 0.0, 2.5004728, 2.4996862 
3.1131533e+2, 9.371272e+1, 195968.44, -43675.633, -2811.9353, -0.019526973, 0.06311472, 196001.42, 196001.42, 0.0, 2.5004852, 2.4996915 
3.1131527e+2, 9.621241e+1, 203213.28, -40176.88, -2695.4292, -0.023363587, 0.063480385, 203243.13, 203243.13, 0.0, 2.5004978, 2.4996915 
3.1131518e+2, 9.8712105e+1, 210435.4, -36689.07, -2576.7576, -0.027154962, 0.06384447, 210462.27, 210462.27, 0.0, 2.5005102, 2.4996915 
3.1381568e+2, 1.2491977e+0, -196832.63, -830583.3, -527.2737, 0.026895665, 0.0018220424, -196832.19, -196832.19, 0.0, 2.500454, 2.498356 
3.1381568e+2, 3.7475932e+0, -199950.27, -832518.75, -1164.4664, 0.02638283, 0.0054677245, -199948.13, -199948.13, 0.0, 2.500449, 2.4983552 
3.1381565e+2, 6.2459886e+0, -202790.34, -833876.4, -1750.4619, 0.025872566, 0.009115537, -202785.5, -202785.5, 0.0, 2.5004442, 2.4983552 
3.1381565e+2, 8.744384e+0, -205631.16, -835234.3, -2336.7427, 0.025364876, 0.012765479, -205622.48, -205622.48, 0.0, 2.5004392, 2.4983552 
3.1381565e+2, 1.12428464e+1, -162179.7, -744471.3, -895.9459, 0.024579408, 0.015410299, -162178.33, -162178.33, 0.0, 2.5004387, 2.498511 
3.1381565e+2, 1.3741376e+1, -159621.13, -742756.94, -2423.4663, 0.023678038, 0.016691176, -159611.06, -159611.06, 0.0, 2.5004425, 2.4985123 
3.1381565e+2, 1.6239902e+1, -157347.88, -741633.9, -2582.9004, 0.022781096, 0.017977718, -157336.45, -157336.45, 0.0, 2.5004466, 2.4985123 
3.1381562e+2, 1.8738432e+1, -155075.58, -740511.25, -2742.6506, 0.021888362, 0.019270351, -155062.73, -155062.73, 0.0, 2.5004504, 2.4985123 
3.1381565e+2, 2.1237041e+1, -111356.03, -650033.4, 293.39032, 0.021238761, 0.020987054, -111355.87, -111355.87, 0.0, 2.5004506, 2.4986672 
3.1381565e+2, 2.3735727e+1, -112347.695, -649538.25, -3123.604, 0.021006512, 0.022486953, -112329.53, -112329.53, 0.0, 2.500448, 2.4986694 
3.1381565e+2, 2.6234415e+1, -113921.12, -650250.94, -4162.642, 0.020778354, 0.023994433, -113888.81, -113888.81, 0.0, 2.5004451, 2.4986696 
3.1381568e+2, 2.87331e+1, -115495.74, -650964.1, -5202.6553, 0.020553881, 0.02551111, -115445.195, -115445.195, 0.0, 2.5004425, 2.4986696 
3.1381568e+2, 3.1231862e+1, -78372.72, -573979.5, 111.57375, 0.019548353, 0.027973436, -78372.695, -78372.695, 0.0, 2.5004425, 2.4988017 
3.138157e+2, 3.3730695e+1, -75573.34, -571242.06, -2167.0166, 0.018148376, 0.030438531, -75563.875, -75563.875, 0.0, 2.5004458, 2.4988048 
3.138157e+2, 3.6229527e+1, -73612.22, -570244.25, -1687.3925, 0.016751548, 0.032909095, -73606.484, -73606.484, 0.0, 2.5004492, 2.4988048 
3.1381574e+2, 3.872836e+1, -71652.84, -569247.3, -1208.5349, 0.015356477, 0.035388526, -71649.91, -71649.91, 0.0, 2.5004525, 2.498805 
3.1381577e+2, 4.1227263e+1, -29104.654, -481001.38, 2433.927, 0.013867538, 0.038167812, -29091.547, -29091.547, 0.0, 2.5004528, 2.4989562 
3.138158e+2, 4.3726245e+1, -29320.852, -479170.78, -425.41104, 0.012520798, 0.0399074, -29320.45, -29320.45, 0.0, 2.5004501, 2.4989607 
3.138158e+2, 4.6225223e+1, -30718.848, -479794.66, -895.4551, 0.011188337, 0.041648652, -30717.063, -30717.063, 0.0, 2.5004478, 2.4989607 
3.1381583e+2, 4.87242e+1, -32119.0, -480419.6, -1366.2988, 0.0098690735, 0.043397803, -32114.836, -32114.836, 0.0, 2.5004454, 2.498961 
3.1381586e+2, 5.122326e+1, 9056.404, -395786.94, -362.96515, 0.00865314, 0.045959316, 9056.7295, 9056.7295, 0.0, 2.5004463, 2.4991057 
3.138159e+2, 5.372239e+1, 13234.93, -391431.72, -1462.918, 0.0078205755, 0.0475146, 13240.219, 13240.219, 0.0, 2.5004508, 2.499111 
3.138159e+2, 5.622151e+1, 15970.386, -390070.9, -1273.183, 0.0069896113, 0.04906716, 15974.378, 15974.378, 0.0, 2.5004556, 2.499111 
3.1381592e+2, 5.8720636e+1, 18703.27, -388711.3, -1084.4894, 0.006158987, 0.050627105, 18706.156, 18706.156, 0.0, 2.5004601, 2.499111 
3.1381595e+2, 6.121985e+1, 58510.41, -306219.47, -1284.541, 0.0049220813, 0.053083412, 58514.934, 58514.934, 0.0, 2.5004604, 2.4992526 
3.1381595e+2, 6.371911e+1, 57757.67, -303926.3, -491.93448, 0.003256857, 0.054258004, 57758.344, 57758.344, 0.0, 2.5004563, 2.4992585 
3.1381598e+2, 6.621838e+1, 55357.84, -305050.56, -18.600742, 0.0015992499, 0.055419516, 55357.84, 55357.84, 0.0, 2.5004523, 2.4992585 
3.1381598e+2, 6.871765e+1, 52954.887, -306176.28, 454.37714, -0.00005045607, 0.056581646, 52955.465, 52955.465, 0.0, 2.500448, 2.4992585 
3.1381595e+2, 7.1217e+1, 95364.95, -220262.27, -3806.1677, -0.0021618758, 0.058905106, 95410.85, 95410.85, 0.0, 2.5004504, 2.499405 
3.1381595e+2, 7.3716414e+1, 102535.945, -214039.3, -1790.6388, -0.0047237775, 0.059315775, 102546.07, 102546.07, 0.0, 2.5004597, 2.499411 
3.1381592e+2, 7.6215833e+1, 107980.516, -211397.58, -1764.0447, -0.0072742747, 0.05970438, 107990.26, 107990.26, 0.0, 2.500469, 2.499411 
3.1381592e+2, 7.8715247e+1, 113420.914, -208757.86, -1737.9957, -0.009813386, 0.060092364, 113430.29, 113430.29, 0.0, 2.5004783, 2.499411 
3.138159e+2, 8.121474e+1, 153853.61, -127496.13, -3266.423, -0.010591032, 0.06144221, 153891.53, 153891.53, 0.0, 2.5004814, 2.4995494 
3.1381592e+2, 8.3714294e+1, 153156.16, -125292.76, 1201.8291, -0.010471804, 0.06159932, 153161.34, 153161.34, 0.0, 2.5004773, 2.499555 
3.1381592e+2, 8.621385e+1, 150866.16, -126385.77, 2071.623, -0.010352585, 0.061740946, 150881.64, 150881.64, 0.0, 2.5004735, 2.499555 
3.1381595e+2, 8.87134e+1, 148570.19, -127481.664, 2941.5745, -0.010226757, 0.06188287, 148601.52, 148601.52, 0.0, 2.5004694, 2.499555 
3.138159e+2, 9.121306e+1, 188147.92, -48844.977, -4869.9844, -0.013605592, 0.06573498, 188247.95, 188247.95, 0.0, 2.5004733, 2.4996881 
3.1381583e+2, 9.3712753e+1, 196676.3, -42715.66, -922.5474, -0.018894024, 0.06547505, 196679.86, 196679.86, 0.0, 2.500486, 2.4996927 
3.1381577e+2, 9.621244e+1, 203937.47, -39203.93, -809.6954, -0.024140669, 0.06514823, 203940.16, 203940.16, 0.0, 2.5004983, 2.4996927 
3.1381568e+2, 9.871213e+1, 211186.56, -35698.01, -695.4672, -0.029359883, 0.06481684, 211188.52, 211188.52, 0.0, 2.5005107, 2.499693 
3.1631607e+2, 1.24919534e+0, -197911.77, -832826.06, -1263.1614, 0.022802863, 0.0017796869, -197909.25, -197909.25, 0.0, 2.500454, 2.4983523 
3.163161e+2, 3.747586e+0, -201023.64, -834751.2, -1904.1669, 0.02456654, 0.0053405715, -201017.92, -201017.92, 0.0, 2.500449, 2.4983513 
3.163161e+2, 6.2459767e+0, -203862.61, -836108.2, -2489.0398, 0.02632969, 0.008903472, -203852.81, -203852.81, 0.0, 2.5004442, 2.4983513 
3.163161e+2, 8.7443674e+0, -206702.31, -837465.56, -3074.1982, 0.028092312, 0.012468386, -206687.33, -206687.33, 0.0, 2.5004392, 2.4983513 
3.1631613e+2, 1.1242828e+1, -162443.14, -745030.4, -332.58676, 0.027471837, 0.015113361, -162442.94, -162442.94, 0.0, 2.5004387, 2.4985101 
3.163161e+2, 1.3741356e+1, -159884.98, -743320.3, -1843.5853, 0.02460765, 0.016471557, -159879.16, -159879.16, 0.0, 2.5004425, 2.498511 
3.1631607e+2, 1.6239883e+1, -157610.67, -742198.5, -2001.7296, 0.021745062, 0.017835652, -157603.83, -157603.83, 0.0, 2.5004466, 2.4985113 
3.1631604e+2, 1.8738411e+1, -155337.33, -741077.1, -2160.1904, 0.018883877, 0.019206084, -155329.36, -155329.36, 0.0, 2.5004504, 2.4985113 
3.1631607e+2, 2.1237019e+1, -113188.17, -653894.6, -175.35638, 0.017923508, 0.021113696, -113188.11, -113188.11, 0.0, 2.5004508, 2.4986606 
3.1631607e+2, 2.3735702e+1, -114198.35, -653445.4, -3545.2568, 0.019086964, 0.022966279, -114175.04, -114175.04, 0.0, 2.500448, 2.4986627 
3.163161e+2, 2.6234385e+1, -115767.82, -654157.06, -4582.5454, 0.02025057, 0.024826009, -115728.82, -115728.82, 0.0, 2.5004454, 2.4986627 
3.163161e+2, 2.8733072e+1, -117338.51, -654869.3, -5620.809, 0.021413827, 0.026694372, -117279.74, -117279.74, 0.0, 2.5004425, 2.498663 
3.1631613e+2, 3.1231833e+1, -77362.766, -571949.5, 549.95605, 0.020506667, 0.02934907, -77362.16, -77362.16, 0.0, 2.5004427, 2.498805 
3.1631613e+2, 3.3730668e+1, -74573.7, -569239.2, -1676.8053, 0.017821787, 0.03184275, -74568.016, -74568.016, 0.0, 2.500446, 2.4988081 
3.1631616e+2, 3.6229503e+1, -72610.49, -568243.0, -1195.202, 0.015134273, 0.034342222, -72607.61, -72607.61, 0.0, 2.5004494, 2.4988081 
3.1631616e+2, 3.8728335e+1, -70649.02, -567247.6, -714.3653, 0.012443004, 0.03685094, -70648.0, -70648.0, 0.0, 2.5004525, 2.4988084 
3.163162e+2, 4.1227245e+1, -29712.402, -482426.06, 1993.9918, 0.010995009, 0.03949077, -29703.62, -29703.62, 0.0, 2.5004528, 2.4989538 
3.1631622e+2, 4.3726218e+1, -29998.123, -480745.53, -805.9738, 0.011129357, 0.04096028, -29996.682, -29996.682, 0.0, 2.5004504, 2.4989579 
3.1631625e+2, 4.6225193e+1, -31394.713, -481371.47, -1273.7882, 0.011271724, 0.042432737, -31391.107, -31391.107, 0.0, 2.500448, 2.4989579 
3.1631628e+2, 4.8724163e+1, -32793.457, -481998.4, -1742.4022, 0.011420677, 0.043914154, -32786.7, -32786.7, 0.0, 2.5004456, 2.498958 
3.163163e+2, 5.122322e+1, 9695.497, -394651.8, 295.40793, 0.010192138, 0.046435073, 9695.713, 9695.713, 0.0, 2.5004466, 2.4991074 
3.163163e+2, 5.372235e+1, 13825.126, -390403.56, -771.9224, 0.0078091566, 0.048218604, 13826.601, 13826.601, 0.0, 2.500451, 2.4991126 
3.1631634e+2, 5.622148e+1, 16562.64, -389043.84, -579.98676, 0.0054210303, 0.05000039, 16563.469, 16563.469, 0.0, 2.5004559, 2.4991126 
3.1631634e+2, 5.872061e+1, 19297.584, -387685.34, -389.09253, 0.0030265988, 0.051790345, 19297.955, 19297.955, 0.0, 2.5004604, 2.4991126 
3.1631637e+2, 6.1219823e+1, 59806.746, -303815.0, -1920.6836, 0.0017439874, 0.054443166, 59816.89, 59816.89, 0.0, 2.5004609, 2.4992566 
3.163164e+2, 6.37191e+1, 58958.97, -301721.0, -1131.1271, 0.0016873234, 0.05583243, 58962.516, 58962.516, 0.0, 2.5004566, 2.499262 
3.163164e+2, 6.6218376e+1, 56556.484, -302851.53, -655.1174, 0.0016327795, 0.057210475, 56557.68, 56557.68, 0.0, 2.5004525, 2.499262 
3.1631643e+2, 6.871765e+1, 54150.887, -303983.56, -179.4635, 0.0015800424, 0.05859067, 54150.977, 54150.977, 0.0, 2.5004482, 2.499262 
3.1631643e+2, 7.1217e+1, 95912.37, -219483.33, -2429.5552, -0.00031678934, 0.060785692, 95931.08, 95931.08, 0.0, 2.5004508, 2.499406 
3.163164e+2, 7.3716414e+1, 102965.07, -213508.16, -388.93552, -0.0039509805, 0.060761224, 102965.55, 102965.55, 0.0, 2.5004601, 2.4994118 
3.163164e+2, 7.621582e+1, 108410.73, -210865.33, -360.18552, -0.0075794994, 0.06071391, 108411.13, 108411.13, 0.0, 2.5004694, 2.4994118 
3.1631637e+2, 7.8715235e+1, 113852.22, -208224.52, -331.9806, -0.011203368, 0.060664862, 113852.56, 113852.56, 0.0, 2.5004787, 2.499412 
3.1631637e+2, 8.121473e+1, 156018.63, -123430.43, -3810.2957, -0.011887456, 0.062147427, 156070.56, 156070.56, 0.0, 2.5004818, 2.499556 
3.1631637e+2, 8.37143e+1, 155204.38, -121468.555, 603.23016, -0.01050652, 0.06308637, 155205.69, 155205.69, 0.0, 2.5004778, 2.4995613 
3.163164e+2, 8.621387e+1, 152911.42, -122565.58, 1475.4348, -0.009133261, 0.06400849, 152919.33, 152919.33, 0.0, 2.500474, 2.4995613 
3.1631643e+2, 8.871344e+1, 150612.48, -123665.48, 2347.7969, -0.007760671, 0.064929105, 150632.58, 150632.58, 0.0, 2.50047, 2.4995613 
3.1631637e+2, 9.1213095e+1, 189033.53, -47517.977, -3032.7986, -0.011589049, 0.068793625, 189072.4, 189072.4, 0.0, 2.500474, 2.4996903 
3.163163e+2, 9.371278e+1, 197380.9, -41758.14, 977.41846, -0.01827394, 0.0678407, 197384.89, 197384.89, 0.0, 2.5004864, 2.499694 
3.1631625e+2, 9.6212465e+1, 204640.13, -38242.234, 1097.1115, -0.0249283, 0.06681859, 204645.08, 204645.08, 0.0, 2.5004988, 2.499694 
3.163162e+2, 9.871214e+1, 211887.27, -34732.14, 1218.1804, -0.031573035, 0.06578892, 211893.28, 211893.28, 0.0, 2.5005112, 2.499694 
3.1881648e+2, 1.24919295e+0, -198318.05, -834755.0, -2057.4307, 0.01871972, 0.0017367768, -198311.39, -198311.39, 0.0, 2.5004551, 2.4983485 
3.1881654e+2, 3.747579e+0, -201285.08, -836603.9, -2817.163, 0.02275757, 0.005211757, -201272.58, -201272.58, 0.0, 2.5004504, 2.4983475 
3.1881657e+2, 6.245965e+0, -204004.55, -837902.9, -3512.853, 0.026792036, 0.00868864, -203985.08, -203985.08, 0.0, 2.5004458, 2.4983475 
3.188166e+2, 8.7443507e+0, -206746.25, -839212.7, -4205.6787, 0.030823117, 0.012167427, -206718.28, -206718.28, 0.0, 2.500441, 2.4983475 
3.188166e+2, 1.12428084e+1, -161718.14, -745131.75, -271.4769, 0.030372826, 0.0148172965, -161718.02, -161718.02, 0.0, 2.5004404, 2.4985092 
3.1881657e+2, 1.3741335e+1, -159315.97, -743491.3, -1865.4705, 0.0255462, 0.016250728, -159310.0, -159310.0, 0.0, 2.500444, 2.4985101 
3.1881648e+2, 1.6239864e+1, -157225.28, -742459.0, -2112.9917, 0.020718506, 0.017690253, -157217.66, -157217.66, 0.0, 2.5004475, 2.4985101 
3.1881645e+2, 1.8738392e+1, -155159.1, -741438.44, -2351.4214, 0.015889572, 0.019136338, -155149.67, -155149.67, 0.0, 2.500451, 2.4985104 
3.1881645e+2, 2.1236998e+1, -114704.35, -657616.0, -1448.1719, 0.014613156, 0.021238213, -114700.484, -114700.484, 0.0, 2.5004513, 2.498654 
3.1881648e+2, 2.3735678e+1, -115753.57, -657211.8, -4766.008, 0.017169159, 0.023441164, -115711.625, -115711.625, 0.0, 2.5004487, 2.498656 
3.1881654e+2, 2.623436e+1, -117370.01, -657946.06, -5779.1577, 0.019721702, 0.025650816, -117308.234, -117308.234, 0.0, 2.5004458, 2.498656 
3.1881657e+2, 2.873304e+1, -119012.05, -658692.56, -6781.154, 0.02227017, 0.027868547, -118926.85, -118926.85, 0.0, 2.500443, 2.4986563 
3.188166e+2, 3.12318e+1, -76315.97, -569917.4, 282.94592, 0.021480221, 0.030722842, -76315.805, -76315.805, 0.0, 2.5004427, 2.4988084 
3.188166e+2, 3.373064e+1, -73695.69, -567291.06, -1834.7736, 0.017509347, 0.033243466, -73688.87, -73688.87, 0.0, 2.5004458, 2.4988115 
3.188166e+2, 3.6229476e+1, -71942.5, -566397.4, -1284.0247, 0.013530499, 0.035770193, -71939.17, -71939.17, 0.0, 2.5004487, 2.4988117 
3.188166e+2, 3.8728318e+1, -70233.266, -565524.9, -718.98047, 0.00954298, 0.03830656, -70232.23, -70232.23, 0.0, 2.5004518, 2.4988117 
3.1881663e+2, 4.122722e+1, -31067.951, -484208.8, 1201.4409, 0.008116643, 0.040814035, -31064.766, -31064.766, 0.0, 2.5004518, 2.4989512 
3.1881666e+2, 4.3726194e+1, -31453.318, -482681.8, -1371.4008, 0.0097298715, 0.04201275, -31449.15, -31449.15, 0.0, 2.5004492, 2.498955 
3.1881672e+2, 4.6225157e+1, -32912.04, -483339.03, -1637.3242, 0.011345221, 0.043215513, -32906.086, -32906.086, 0.0, 2.5004468, 2.4989552 
3.1881675e+2, 4.872413e+1, -34400.29, -484010.47, -1886.6823, 0.012960718, 0.04442819, -34392.37, -34392.37, 0.0, 2.5004442, 2.4989552 
3.1881678e+2, 5.122318e+1, 9284.55, -394019.5, 1414.3533, 0.011744282, 0.046909645, 9289.51, 9289.51, 0.0, 2.500445, 2.4991093 
3.1881678e+2, 5.3722316e+1, 13243.016, -389921.75, 621.39197, 0.0078110974, 0.04891984, 13243.974, 13243.974, 0.0, 2.5004494, 2.4991143 
3.1881678e+2, 5.622145e+1, 15804.708, -388647.66, 1071.3105, 0.0038665107, 0.05092906, 15807.545, 15807.545, 0.0, 2.5004537, 2.4991143 
3.1881678e+2, 5.872058e+1, 18317.11, -387397.28, 1535.4941, -0.00009024491, 0.05294706, 18322.922, 18322.922, 0.0, 2.500458, 2.4991143 
3.188168e+2, 6.12198e+1, 59455.875, -302208.0, -1034.7811, -0.0014364404, 0.05580946, 59458.836, 59458.836, 0.0, 2.5004582, 2.4992604 
3.1881684e+2, 6.371908e+1, 58676.31, -300209.0, 18.383423, 0.00011612917, 0.057410635, 58676.31, 58676.31, 0.0, 2.5004544, 2.4992657 
3.1881687e+2, 6.621836e+1, 56397.902, -301283.84, 792.1731, 0.0016659253, 0.059002206, 56399.656, 56399.656, 0.0, 2.5004504, 2.499266 
3.188169e+2, 6.8717647e+1, 54095.227, -302370.4, 1579.2008, 0.003211799, 0.060597386, 54102.223, 54102.223, 0.0, 2.5004466, 2.499266 
3.188169e+2, 7.1216995e+1, 95234.68, -219287.17, 1658.5234, 0.0015327322, 0.06266991, 95243.43, 95243.43, 0.0, 2.500449, 2.4994073 
3.1881687e+2, 7.371641e+1, 102143.41, -213556.56, 4015.4438, -0.0031710586, 0.062208828, 102194.48, 102194.48, 0.0, 2.5004582, 2.4994125 
3.1881687e+2, 7.6215816e+1, 107526.836, -210942.75, 4353.285, -0.007874629, 0.061724152, 107586.336, 107586.336, 0.0, 2.5004675, 2.4994128 
3.1881684e+2, 7.871522e+1, 112878.0, -208344.47, 4695.4355, -0.012579961, 0.06123678, 112946.62, 112946.62, 0.0, 2.5004766, 2.4994128 
3.1881684e+2, 8.121472e+1, 156894.19, -119990.13, -460.57162, -0.013175282, 0.06285843, 156894.95, 156894.95, 0.0, 2.50048, 2.4995627 
3.1881687e+2, 8.37143e+1, 156355.53, -118059.78, 4089.6526, -0.010529013, 0.06457586, 156416.47, 156416.47, 0.0, 2.5004768, 2.4995677 
3.188169e+2, 8.621389e+1, 154411.23, -118991.24, 5171.1313, -0.0078974925, 0.06627513, 154509.02, 154509.02, 0.0, 2.5004735, 2.4995677 
3.1881693e+2, 8.8713473e+1, 152433.11, -119938.99, 6256.5566, -0.0052733896, 0.06797121, 152576.75, 152576.75, 0.0, 2.50047, 2.4995677 
3.1881687e+2, 9.1213137e+1, 189942.2, -46196.918, 3494.4314, -0.009575278, 0.07186283, 189993.9, 189993.9, 0.0, 2.5004745, 2.4996922 
3.188168e+2, 9.371281e+1, 198260.14, -40706.074, 7669.288, -0.017651202, 0.07021478, 198506.02, 198506.02, 0.0, 2.500487, 2.4996955 
3.1881675e+2, 9.6212494e+1, 205523.66, -37183.484, 7904.184, -0.025706628, 0.068494804, 205780.8, 205780.8, 0.0, 2.5004997, 2.4996955 
3.188167e+2, 9.8712164e+1, 212646.64, -33728.58, 8134.3613, -0.03376942, 0.06676414, 212914.9, 212914.9, 0.0, 2.500512, 2.4996955 
3.2131696e+2, 1.2491907e+0, -199826.97, -837414.3, -1928.2946, 0.018506002, 0.0017351568, -199821.14, -199821.14, 0.0, 2.5004547, 2.4983442 
3.21317e+2, 3.7475723e+0, -197262.78, -836577.6, -2501.0251, 0.022329737, 0.0052066282, -197252.98, -197252.98, 0.0, 2.5004594, 2.4983432 
3.2131702e+2, 6.2459534e+0, -194436.45, -835195.1, -3008.076, 0.026159165, 0.008679645, -194422.34, -194422.34, 0.0, 2.5004642, 2.4983432 
3.2131702e+2, 8.744335e+0, -191610.94, -833813.06, -3515.3477, 0.029994288, 0.012154206, -191591.7, -191591.7, 0.0, 2.500469, 2.4983432 
3.2131705e+2, 1.12427905e+1, -146353.17, -739660.3, -15.525968, 0.029546333, 0.014915473, -146353.17, -146353.17, 0.0, 2.500469, 2.4985049 
3.21317e+2, 1.3741316e+1, -148844.64, -740359.75, -2303.5505, 0.024891794, 0.016582288, -148835.67, -148835.67, 0.0, 2.5004642, 2.4985058 
3.2131696e+2, 1.6239841e+1, -151618.58, -741645.5, -3281.3242, 0.02024238, 0.01825466, -151600.33, -151600.33, 0.0, 2.5004592, 2.498506 
3.2131693e+2, 1.8738367e+1, -154393.13, -742931.56, -4259.558, 0.015597964, 0.01993305, -154362.3, -154362.3, 0.0, 2.5004544, 2.498506 
3.2131693e+2, 2.123697e+1, -114826.71, -659430.7, -3266.0608, 0.014223454, 0.02217227, -114807.125, -114807.125, 0.0, 2.500453, 2.49865 
3.2131696e+2, 2.3735647e+1, -112752.984, -657525.7, -5740.1245, 0.016433533, 0.024443766, -112692.51, -112692.51, 0.0, 2.5004556, 2.498652 
3.21317e+2, 2.6234323e+1, -111196.82, -656695.8, -5970.8433, 0.018652173, 0.026723452, -111131.48, -111131.48, 0.0, 2.5004582, 2.4986522 
3.21317e+2, 2.8733003e+1, -109641.625, -655866.44, -6202.2603, 0.020878669, 0.02901264, -109571.21, -109571.21, 0.0, 2.5004609, 2.4986525 
3.2131702e+2, 3.123176e+1, -66734.28, -565451.44, 427.99985, 0.0200627, 0.031804033, -66733.914, -66733.914, 0.0, 2.5004594, 2.4988081 
3.2131702e+2, 3.37306e+1, -68471.27, -564917.1, -2899.3462, 0.016306585, 0.03414635, -68454.336, -68454.336, 0.0, 2.500455, 2.4988112 
3.2131702e+2, 3.6229435e+1, -71009.61, -566048.56, -3650.3276, 0.012564934, 0.036496524, -70982.695, -70982.695, 0.0, 2.5004506, 2.4988115 
3.2131702e+2, 3.8728273e+1, -73549.61, -567180.75, -4402.239, 0.0088372985, 0.03885801, -73510.35, -73510.35, 0.0, 2.500446, 2.4988117 
3.2131705e+2, 4.1227177e+1, -35539.203, -486169.7, -3009.369, 0.0074884887, 0.041435264, -35519.11, -35519.11, 0.0, 2.500444, 2.4989517 
3.2131708e+2, 4.372615e+1, -34051.81, -483787.44, -5151.8145, 0.0090510845, 0.042989448, -33992.8, -33992.8, 0.0, 2.5004447, 2.4989555 
3.2131714e+2, 4.6225122e+1, -33549.64, -483452.72, -5057.966, 0.010621528, 0.04454481, -33492.785, -33492.785, 0.0, 2.5004454, 2.4989557 
3.2131717e+2, 4.8724094e+1, -33049.0, -483118.7, -4965.0835, 0.012197513, 0.04610703, -32994.234, -32994.234, 0.0, 2.500446, 2.4989557 
3.213172e+2, 5.122315e+1, 9863.369, -392909.97, -1607.4679, 0.010972487, 0.04871468, 9869.784, 9869.784, 0.0, 2.500445, 2.4991112 
3.213172e+2, 5.3722286e+1, 9665.106, -390892.38, -3066.9768, 0.0070687835, 0.050679628, 9688.588, 9688.588, 0.0, 2.5004425, 2.499116 
3.2131723e+2, 5.6221426e+1, 8191.1396, -391523.06, -3342.3054, 0.003183297, 0.052636955, 8219.085, 8219.085, 0.0, 2.50044, 2.4991162 
3.2131723e+2, 5.872056e+1, 6714.441, -392155.06, -3618.2026, -0.0006846807, 0.0545961, 6747.26, 6747.26, 0.0, 2.5004373, 2.4991162 
3.2131723e+2, 6.1219776e+1, 48331.2, -305441.53, -7060.2847, -0.0020292955, 0.057373755, 48472.047, 48472.047, 0.0, 2.5004368, 2.4992652 
3.2131726e+2, 6.371906e+1, 51129.246, -301814.53, -6583.685, -0.0004866437, 0.058909718, 51252.01, 51252.01, 0.0, 2.5004392, 2.4992702 
3.213173e+2, 6.6218346e+1, 52532.383, -301082.8, -6398.164, 0.0010667455, 0.060433876, 52648.113, 52648.113, 0.0, 2.5004416, 2.4992704 
3.2131734e+2, 6.871763e+1, 53933.234, -300352.16, -6213.1914, 0.0026291502, 0.06195918, 54042.164, 54042.164, 0.0, 2.500444, 2.4992704 
3.2131734e+2, 7.121699e+1, 94021.38, -217808.14, -5630.4277, 0.001075506, 0.06408127, 94123.016, 94123.016, 0.0, 2.5004447, 2.4994118 
3.2131732e+2, 7.37164e+1, 94852.78, -215178.5, -3128.3416, -0.003244565, 0.06388122, 94884.34, 94884.34, 0.0, 2.5004437, 2.4994168 
3.2131732e+2, 7.621582e+1, 94305.12, -215406.69, -2641.4424, -0.0075524966, 0.063662715, 94327.64, 94327.64, 0.0, 2.5004427, 2.4994168 
3.213173e+2, 7.8715235e+1, 93753.97, -215636.55, -2155.1243, -0.011851338, 0.063446075, 93768.98, 93768.98, 0.0, 2.5004418, 2.499417 
3.213173e+2, 8.121474e+1, 137339.28, -127561.94, -8232.368, -0.012293559, 0.065127514, 137594.86, 137594.86, 0.0, 2.5004444, 2.499567 
3.2131732e+2, 8.3714324e+1, 142172.95, -123261.56, -5140.44, -0.009831843, 0.06672559, 142272.47, 142272.47, 0.0, 2.5004506, 2.4995713 
3.2131737e+2, 8.621391e+1, 145773.27, -121512.08, -5474.605, -0.0073656174, 0.068310454, 145885.36, 145885.36, 0.0, 2.5004568, 2.4995713 
3.213174e+2, 8.87135e+1, 149367.53, -119765.516, -5808.635, -0.0048868903, 0.06989681, 149492.84, 149492.84, 0.0, 2.500463, 2.4995713 
3.2131734e+2, 9.1213167e+1, 188215.95, -46114.707, -8080.854, -0.009442207, 0.07365406, 188494.3, 188494.3, 0.0, 2.5004706, 2.4996943 
3.213173e+2, 9.371284e+1, 193939.31, -42167.5, -4283.8867, -0.016967112, 0.07206304, 194017.02, 194017.02, 0.0, 2.5004792, 2.499697 
3.2131723e+2, 9.6212524e+1, 198909.75, -39761.477, -4405.274, -0.02444305, 0.070399046, 198991.03, 198991.03, 0.0, 2.5004876, 2.499697 
3.213172e+2, 9.8712206e+1, 203869.16, -37360.77, -4523.665, -0.031905103, 0.06872147, 203953.97, 203953.97, 0.0, 2.5004961, 2.499697 
3.2381743e+2, 1.2491892e+0, -200752.53, -839338.06, -1198.0585, 0.021300683, 0.001761482, -200750.28, -200750.28, 0.0, 2.5004547, 2.4983408 
3.2381743e+2, 3.7475678e+0, -198178.83, -838483.5, -1773.8165, 0.02268975, 0.005285564, -198173.9, -198173.9, 0.0, 2.5004594, 2.49834 
3.2381743e+2, 6.245946e+0, -195352.38, -837102.56, -2279.697, 0.024081293, 0.008811137, -195344.28, -195344.28, 0.0, 2.5004642, 2.49834 
3.2381743e+2, 8.7443256e+0, -192526.75, -835722.06, -2785.7983, 0.025475312, 0.012338201, -192514.67, -192514.67, 0.0, 2.500469, 2.49834 
3.2381743e+2, 1.1242777e+1, -148114.52, -743332.25, -783.44366, 0.024886854, 0.0152953435, -148113.48, -148113.48, 0.0, 2.500469, 2.4984984 
3.2381743e+2, 1.37413e+1, -150617.1, -744058.0, -3034.7573, 0.022386817, 0.017332356, -150601.56, -150601.56, 0.0, 2.5004642, 2.4984996 
3.238174e+2, 1.6239822e+1, -153389.11, -745343.1, -4011.2742, 0.019889703, 0.01937496, -153361.92, -153361.92, 0.0, 2.5004592, 2.4984996 
3.2381737e+2, 1.8738346e+1, -156161.73, -746628.44, -4988.251, 0.017395403, 0.021423573, -156119.6, -156119.6, 0.0, 2.5004544, 2.4984999 
3.2381737e+2, 2.1236944e+1, -115149.17, -660145.4, -2943.0068, 0.016150277, 0.023739882, -115133.27, -115133.27, 0.0, 2.500453, 2.498649 
3.238174e+2, 2.3735619e+1, -113101.93, -658301.0, -5355.5933, 0.016451098, 0.025800206, -113049.33, -113049.33, 0.0, 2.5004556, 2.4986508 
3.238174e+2, 2.6234293e+1, -111543.93, -657472.9, -5584.9893, 0.0167573, 0.02786891, -111486.8, -111486.8, 0.0, 2.5004582, 2.4986508 
3.238174e+2, 2.8732967e+1, -109986.89, -656645.25, -5815.085, 0.017068177, 0.029947301, -109925.05, -109925.05, 0.0, 2.5004609, 2.498651 
3.2381743e+2, 3.123172e+1, -67955.1, -568080.8, -343.61298, 0.0161122, 0.032424215, -67954.87, -67954.87, 0.0, 2.5004594, 2.4988036 
3.2381743e+2, 3.373055e+1, -69734.266, -567641.25, -3580.6282, 0.014039135, 0.034411263, -69708.516, -69708.516, 0.0, 2.5004551, 2.4988065 
3.2381746e+2, 3.6229375e+1, -72269.32, -568772.75, -4329.783, 0.0119759925, 0.036406517, -72231.56, -72231.56, 0.0, 2.5004506, 2.4988067 
3.2381746e+2, 3.87282e+1, -74806.04, -569905.06, -5079.8677, 0.009922247, 0.0384132, -74753.92, -74753.92, 0.0, 2.500446, 2.498807 
3.238175e+2, 4.122711e+1, -35132.89, -485470.22, -2977.3108, 0.008732459, 0.041233856, -35113.21, -35113.21, 0.0, 2.500444, 2.4989529 
3.2381752e+2, 4.3726093e+1, -33690.863, -483189.34, -5047.244, 0.008880255, 0.04369261, -33634.2, -33634.2, 0.0, 2.500445, 2.4989564 
3.2381755e+2, 4.6225074e+1, -33185.83, -482855.53, -4951.9395, 0.009031505, 0.046153437, -33131.3, -33131.3, 0.0, 2.5004456, 2.4989564 
3.238176e+2, 4.8724055e+1, -32682.318, -482522.44, -4857.601, 0.009184052, 0.048621796, -32629.871, -32629.871, 0.0, 2.5004463, 2.4989567 
3.2381764e+2, 5.122312e+1, 9706.509, -393453.9, -2062.6982, 0.007920441, 0.051499702, 9717.062, 9717.062, 0.0, 2.5004451, 2.4991102 
3.2381764e+2, 5.372225e+1, 9407.328, -391649.4, -3474.0422, 0.0054941075, 0.05315882, 9437.419, 9437.419, 0.0, 2.5004427, 2.4991145 
3.2381767e+2, 5.6221384e+1, 7932.842, -392284.13, -3747.1746, 0.0030808595, 0.05481289, 7967.923, 7967.923, 0.0, 2.5004401, 2.4991148 
3.2381767e+2, 5.872051e+1, 6455.624, -392920.2, -4020.8755, 0.00067942776, 0.056470945, 6496.1016, 6496.1016, 0.0, 2.5004375, 2.4991148 
3.238177e+2, 6.121973e+1, 49074.08, -304188.9, -6735.972, -0.0006304431, 0.05888436, 49202.473, 49202.473, 0.0, 2.5004373, 2.499267 
3.2381773e+2, 6.371901e+1, 51788.703, -300738.22, -6241.0923, -0.00051053456, 0.060064357, 51899.16, 51899.16, 0.0, 2.5004396, 2.499272 
3.2381773e+2, 6.621829e+1, 53192.242, -300007.9, -6054.4014, -0.00038335612, 0.061234444, 53295.996, 53295.996, 0.0, 2.5004418, 2.499272 
3.2381776e+2, 6.8717575e+1, 54593.496, -299278.7, -5868.2593, -0.00025070427, 0.062407136, 54690.78, 54690.78, 0.0, 2.5004442, 2.4992723 
3.2381776e+2, 7.121694e+1, 95419.82, -215260.66, -5761.621, -0.0018066076, 0.064732015, 95526.64, 95526.64, 0.0, 2.5004451, 2.499416 
3.2381776e+2, 7.371637e+1, 96132.48, -212881.67, -3286.504, -0.0044886614, 0.0654252, 96167.43, 96167.43, 0.0, 2.5004442, 2.4994206 
3.2381776e+2, 7.621579e+1, 95585.16, -213112.31, -2797.8857, -0.007161883, 0.066100225, 95610.516, 95610.516, 0.0, 2.5004432, 2.4994206 
3.238178e+2, 7.871522e+1, 95034.35, -213344.63, -2309.8489, -0.009830572, 0.06677656, 95051.66, 95051.66, 0.0, 2.5004423, 2.499421 
3.2381776e+2, 8.121473e+1, 137320.08, -128035.87, -7280.7324, -0.010120365, 0.06843682, 137519.7, 137519.7, 0.0, 2.500445, 2.4995658 
3.238178e+2, 8.37143e+1, 141978.77, -124100.05, -4214.6987, -0.009166507, 0.0691058, 142045.52, 142045.52, 0.0, 2.500451, 2.4995697 
3.2381782e+2, 8.6213875e+1, 145579.92, -122348.79, -4546.9287, -0.008215342, 0.06976059, 145657.06, 145657.06, 0.0, 2.5004573, 2.4995697 
3.2381785e+2, 8.8713455e+1, 149175.02, -120600.44, -4879.0244, -0.007257891, 0.07041569, 149263.23, 149263.23, 0.0, 2.5004635, 2.49957 
3.2381782e+2, 9.121312e+1, 188655.7, -45728.176, -6740.974, -0.011957857, 0.07388831, 188849.42, 188849.42, 0.0, 2.500471, 2.4996946 
3.238178e+2, 9.3712807e+1, 194194.86, -42158.652, -2987.8608, -0.01731078, 0.07305598, 194232.63, 194232.63, 0.0, 2.5004797, 2.4996967 
3.2381776e+2, 9.621249e+1, 199166.98, -39744.785, -3115.5464, -0.022622408, 0.07215533, 199207.6, 199207.6, 0.0, 2.5004883, 2.4996967 
3.2381773e+2, 9.8712176e+1, 204128.64, -37335.953, -3241.173, -0.027934937, 0.071242794, 204172.14, 204172.14, 0.0, 2.5004966, 2.4996967 
3.2631794e+2, 1.2491878e+0, -201678.52, -841262.75, -467.78763, 0.02409561, 0.0017871396, -201678.17, -201678.17, 0.0, 2.5004547, 2.4983375 
3.263179e+2, 3.7475637e+0, -199096.08, -840391.9, -1046.2427, 0.023050502, 0.0053624962, -199094.36, -199094.36, 0.0, 2.5004594, 2.4983366 
3.263179e+2, 6.245939e+0, -196269.52, -839012.56, -1550.9528, 0.022004649, 0.0089392895, -196265.77, -196265.77, 0.0, 2.5004642, 2.4983366 
3.2631788e+2, 8.744315e+0, -193443.75, -837633.6, -2055.8838, 0.020958055, 0.01251752, -193437.19, -193437.19, 0.0, 2.500469, 2.4983368 
3.2631788e+2, 1.1242764e+1, -149882.2, -747017.3, -1550.0214, 0.020225855, 0.015674118, -149878.19, -149878.19, 0.0, 2.500469, 2.4984922 
3.2631788e+2, 1.3741283e+1, -152390.81, -747759.0, -3765.536, 0.019879393, 0.018078445, -152366.98, -152366.98, 0.0, 2.5004642, 2.4984932 
3.2631788e+2, 1.6239804e+1, -155160.9, -749043.3, -4740.796, 0.019533657, 0.02048838, -155123.06, -155123.06, 0.0, 2.5004592, 2.4984932 
3.2631788e+2, 1.8738325e+1, -157931.63, -750328.0, -5716.516, 0.01918855, 0.022904318, -157876.47, -157876.47, 0.0, 2.5004544, 2.4984934 
3.2631788e+2, 2.1236922e+1, -115482.86, -660883.4, -2617.7073, 0.018084668, 0.025305606, -115470.3, -115470.3, 0.0, 2.5004532, 2.4986475 
3.2631788e+2, 2.373559e+1, -113451.805, -659078.25, -4970.239, 0.016475765, 0.027152753, -113406.54, -113406.54, 0.0, 2.5004559, 2.4986494 
3.2631785e+2, 2.623426e+1, -111891.97, -658251.94, -5198.313, 0.014869006, 0.029008426, -111842.516, -111842.516, 0.0, 2.5004582, 2.4986496 
3.2631785e+2, 2.8732932e+1, -110333.1, -657426.0, -5427.0864, 0.013263742, 0.03087397, -110279.266, -110279.266, 0.0, 2.5004609, 2.4986496 
3.2631788e+2, 3.1231678e+1, -69182.08, -570722.94, -1108.5017, 0.012155723, 0.03303847, -69179.63, -69179.63, 0.0, 2.5004597, 2.498799 
3.263179e+2, 3.3730498e+1, -70998.01, -570366.94, -4261.0444, 0.011764039, 0.034668554, -70961.65, -70961.65, 0.0, 2.5004551, 2.4988017 
3.263179e+2, 3.6229315e+1, -73529.78, -571498.56, -5008.3726, 0.011377828, 0.03630718, -73479.414, -73479.414, 0.0, 2.5004508, 2.498802 
3.2631794e+2, 3.872814e+1, -76063.21, -572630.94, -5756.631, 0.010996394, 0.037957344, -75996.484, -75996.484, 0.0, 2.5004463, 2.4988022 
3.2631797e+2, 4.1227046e+1, -34740.156, -484798.97, -2943.0286, 0.009988479, 0.04102902, -34720.91, -34720.91, 0.0, 2.5004442, 2.4989538 
3.2631797e+2, 4.3726036e+1, -33330.5, -482592.47, -4941.679, 0.008720172, 0.04439076, -33276.15, -33276.15, 0.0, 2.500445, 2.4989574 
3.26318e+2, 4.622503e+1, -32822.594, -482259.56, -4844.9185, 0.007450705, 0.047755383, -32770.37, -32770.37, 0.0, 2.5004458, 2.4989574 
3.2631803e+2, 4.8724023e+1, -32316.217, -481927.4, -4749.124, 0.0061782883, 0.051128212, -32266.059, -32266.059, 0.0, 2.5004466, 2.4989576 
3.2631803e+2, 5.122308e+1, 9539.853, -394018.16, -2507.8728, 0.004863293, 0.054283924, 9555.437, 9555.437, 0.0, 2.5004454, 2.499109 
3.2631806e+2, 5.372221e+1, 9148.954, -392407.66, -3880.1843, 0.003914088, 0.055635475, 9186.444, 9186.444, 0.0, 2.500443, 2.499113 
3.263181e+2, 5.622134e+1, 7673.948, -393046.44, -4151.12, 0.0029729852, 0.056984458, 7716.946, 7716.946, 0.0, 2.5004404, 2.4991133 
3.2631811e+2, 5.872047e+1, 6196.211, -393686.5, -4422.625, 0.0020380067, 0.058339592, 6245.118, 6245.118, 0.0, 2.5004377, 2.4991133 
3.2631814e+2, 6.1219674e+1, 49804.43, -302962.34, -6402.3926, 0.00077548716, 0.060392916, 49920.59, 49920.59, 0.0, 2.5004375, 2.4992692 
3.2631814e+2, 6.3718957e+1, 52447.656, -299662.94, -5897.888, -0.0005272615, 0.061215237, 52546.42, 52546.42, 0.0, 2.50044, 2.4992738 
3.2631814e+2, 6.621824e+1, 53851.6, -298934.06, -5710.028, -0.0018263689, 0.06202948, 53943.996, 53943.996, 0.0, 2.5004423, 2.4992738 
3.2631817e+2, 6.871752e+1, 55253.258, -298206.25, -5522.7163, -0.0031235449, 0.06284779, 55339.527, 55339.527, 0.0, 2.5004447, 2.499274 
3.2631817e+2, 7.121689e+1, 96804.35, -212742.08, -5882.558, -0.004687206, 0.06538513, 96916.1, 96916.1, 0.0, 2.5004456, 2.4994202 
3.2631817e+2, 7.371633e+1, 97411.516, -210586.2, -3444.0437, -0.005730239, 0.06696944, 97450.02, 97450.02, 0.0, 2.5004444, 2.4994245 
3.263182e+2, 7.621577e+1, 96864.55, -210819.3, -2953.7068, -0.0067676865, 0.068535715, 96892.9, 96892.9, 0.0, 2.5004435, 2.4994245 
3.2631823e+2, 7.871521e+1, 96314.086, -211054.06, -2463.951, -0.007805159, 0.070102744, 96333.84, 96333.84, 0.0, 2.5004425, 2.4994245 
3.2631823e+2, 8.1214714e+1, 137289.2, -128534.1, -6319.313, -0.007944729, 0.071746215, 137439.34, 137439.34, 0.0, 2.5004454, 2.499565 
3.2631823e+2, 8.3714277e+1, 141784.14, -124939.445, -3289.285, -0.008498908, 0.07148441, 141824.7, 141824.7, 0.0, 2.5004516, 2.499568 
3.2631826e+2, 8.6213845e+1, 145386.13, -123186.414, -3619.58, -0.009062943, 0.07120735, 145434.9, 145434.9, 0.0, 2.5004578, 2.499568 
3.263183e+2, 8.871341e+1, 148982.06, -121436.29, -3949.741, -0.009626908, 0.070929416, 149039.73, 149039.73, 0.0, 2.500464, 2.4995682 
3.2631823e+2, 9.121307e+1, 189079.86, -45373.41, -5387.9727, -0.014460944, 0.07413394, 189203.63, 189203.63, 0.0, 2.5004716, 2.499695 
3.2631823e+2, 9.371276e+1, 194446.13, -42152.87, -1686.7073, -0.01764518, 0.07405748, 194458.14, 194458.14, 0.0, 2.5004802, 2.4996965 
3.2631826e+2, 9.621246e+1, 199415.19, -39733.44, -1808.785, -0.020795964, 0.07391707, 199428.88, 199428.88, 0.0, 2.5004888, 2.4996965 
3.2631826e+2, 9.871215e+1, 204373.81, -37319.047, -1928.804, -0.023962436, 0.07376647, 204389.2, 204389.2, 0.0, 2.5004973, 2.4996965 
3.2881838e+2, 1.2491864e+0, -200814.4, -842334.4, 206.16856, 0.02689611, 0.0018122763, -200814.34, -200814.34, 0.0, 2.5004575, 2.4983342 
3.2881835e+2, 3.7475592e+0, -198313.14, -841491.56, -483.35544, 0.023417942, 0.0054378817, -198312.78, -198312.78, 0.0, 2.5004623, 2.4983332 
3.2881832e+2, 6.245932e+0, -195613.25, -840174.6, -1092.0936, 0.019936224, 0.009064892, -195611.4, -195611.4, 0.0, 2.5004668, 2.4983335 
3.288183e+2, 8.744305e+0, -192951.88, -838876.3, -1697.488, 0.016450958, 0.012693306, -192947.4, -192947.4, 0.0, 2.5004716, 2.4983335 
3.288183e+2, 1.1242751e+1, -150351.28, -750092.4, -2762.8901, 0.015571754, 0.016052997, -150338.56, -150338.56, 0.0, 2.500471, 2.4984858 
3.2881832e+2, 1.3741268e+1, -152889.47, -750852.44, -4990.5684, 0.01737623, 0.018821502, -152847.81, -152847.81, 0.0, 2.5004663, 2.4984868 
3.2881832e+2, 1.6239786e+1, -155701.45, -752156.6, -6003.7075, 0.019179413, 0.021595623, -155641.03, -155641.03, 0.0, 2.5004613, 2.498487 
3.2881832e+2, 1.8738303e+1, -158529.25, -753468.4, -7009.3843, 0.02098122, 0.024375739, -158446.69, -158446.69, 0.0, 2.5004566, 2.498487 
3.2881832e+2, 2.1236897e+1, -114793.945, -661148.94, -2882.5593, 0.0200299, 0.026869915, -114778.74, -114778.74, 0.0, 2.500455, 2.4986463 
3.2881832e+2, 2.3735563e+1, -112985.87, -659465.44, -5194.8164, 0.016511187, 0.028502166, -112936.49, -112936.49, 0.0, 2.5004573, 2.498648 
3.288183e+2, 2.623423e+1, -111662.16, -658754.5, -5427.623, 0.012991576, 0.030142942, -111608.31, -111608.31, 0.0, 2.5004594, 2.4986482 
3.2881826e+2, 2.8732896e+1, -110360.31, -658054.1, -5648.811, 0.009470545, 0.03179368, -110302.06, -110302.06, 0.0, 2.5004616, 2.4986484 
3.288183e+2, 3.1231636e+1, -70295.95, -573316.4, -2441.1091, 0.008198275, 0.03364817, -70284.1, -70284.1, 0.0, 2.50046, 2.4987943 
3.2881832e+2, 3.373045e+1, -72282.15, -573098.56, -5449.988, 0.009484977, 0.03492014, -72222.84, -72222.84, 0.0, 2.5004554, 2.498797 
3.2881835e+2, 3.622926e+1, -74967.37, -574304.7, -6117.716, 0.010773022, 0.036200814, -74892.43, -74892.43, 0.0, 2.5004506, 2.4987972 
3.2881838e+2, 3.8728073e+1, -77672.1, -575520.3, -6773.6333, 0.012061458, 0.037492998, -77579.96, -77579.96, 0.0, 2.5004458, 2.4987974 
3.288184e+2, 4.1226983e+1, -34903.133, -484407.6, -3133.4785, 0.0112577835, 0.040822964, -34881.293, -34881.293, 0.0, 2.5004435, 2.498955 
3.288184e+2, 4.3725982e+1, -33706.203, -482340.56, -4923.7666, 0.008572199, 0.045085263, -33652.17, -33652.17, 0.0, 2.500444, 2.4989583 
3.288184e+2, 4.6224985e+1, -33400.82, -482106.44, -4674.072, 0.0058811028, 0.049351167, -33352.137, -33352.137, 0.0, 2.5004442, 2.4989583 
3.288184e+2, 4.8723984e+1, -33109.074, -481878.9, -4412.1504, 0.0031832901, 0.053625934, -33065.7, -33065.7, 0.0, 2.5004447, 2.4989586 
3.2881844e+2, 5.122305e+1, 8046.1997, -395221.4, -2529.3706, 0.0018043054, 0.05706672, 8062.0635, 8062.0635, 0.0, 2.5004435, 2.499108 
3.2881847e+2, 5.372217e+1, 7483.7134, -393827.56, -3662.002, 0.0023309928, 0.058109216, 7517.127, 7517.127, 0.0, 2.5004406, 2.4991117 
3.2881853e+2, 5.62213e+1, 5912.9185, -394515.13, -3705.2183, 0.002861189, 0.0591514, 5947.2007, 5947.2007, 0.0, 2.500438, 2.499112 
3.2881856e+2, 5.8720416e+1, 4333.1616, -395207.0, -3733.2476, 0.0033920587, 0.060201764, 4368.0415, 4368.0415, 0.0, 2.500435, 2.499112 
3.2881856e+2, 6.121962e+1, 48887.305, -302530.03, -4725.1367, 0.0021897277, 0.061899245, 48950.83, 48950.83, 0.0, 2.5004349, 2.4992712 
3.2881856e+2, 6.371891e+1, 51527.402, -299329.2, -3979.2427, -0.0005345433, 0.062362447, 51572.527, 51572.527, 0.0, 2.5004375, 2.4992754 
3.2881856e+2, 6.6218185e+1, 52988.902, -298573.4, -3539.4167, -0.0032586732, 0.06281921, 53024.53, 53024.53, 0.0, 2.50044, 2.4992754 
3.2881856e+2, 6.871746e+1, 54448.926, -297818.38, -3089.7297, -0.005984125, 0.06328138, 54476.023, 54476.023, 0.0, 2.5004423, 2.4992757 
3.2881856e+2, 7.1216846e+1, 96831.805, -210879.23, -3655.3376, -0.0075602527, 0.066040576, 96875.22, 96875.22, 0.0, 2.5004435, 2.4994242 
3.288186e+2, 7.3716295e+1, 97531.07, -208829.77, -1027.1622, -0.0069633177, 0.06851343, 97534.516, 97534.516, 0.0, 2.500443, 2.4994283 
3.2881868e+2, 7.6215744e+1, 97158.68, -208980.98, -293.45587, -0.0063635777, 0.07096822, 97158.96, 97158.96, 0.0, 2.5004423, 2.4994283 
3.288187e+2, 7.8715193e+1, 96772.62, -209138.78, 445.44772, -0.005768017, 0.07342318, 96773.266, 96773.266, 0.0, 2.5004416, 2.4994283 
3.288187e+2, 8.121471e+1, 136740.17, -129281.55, -2044.1456, -0.0057588113, 0.07505438, 136755.89, 136755.89, 0.0, 2.500445, 2.4995637 
3.288187e+2, 8.371426e+1, 141524.95, -125791.805, 1166.8906, -0.0078200735, 0.07386093, 141530.05, 141530.05, 0.0, 2.5004518, 2.4995663 
3.2881874e+2, 8.6213815e+1, 145512.34, -123851.88, 1063.4524, -0.009897441, 0.072651155, 145516.53, 145516.53, 0.0, 2.5004587, 2.4995666 
3.2881874e+2, 8.8713366e+1, 149435.83, -121942.734, 957.96686, -0.011980077, 0.071439415, 149439.2, 149439.2, 0.0, 2.5004654, 2.4995666 
3.288187e+2, 9.121303e+1, 190494.88, -44552.117, 138.15073, -0.01693553, 0.074392915, 190494.95, 190494.95, 0.0, 2.500474, 2.4996953 
3.2881874e+2, 9.3712723e+1, 196044.67, -41486.418, 3906.4246, -0.017952897, 0.07506946, 196108.89, 196108.89, 0.0, 2.500483, 2.4996963 
3.2881877e+2, 9.621242e+1, 201196.5, -38972.652, 3909.4663, -0.01894337, 0.075686045, 201260.13, 201260.13, 0.0, 2.5004919, 2.4996963 
3.288188e+2, 9.871213e+1, 206182.69, -36538.66, 3904.5464, -0.01996287, 0.07629407, 206245.48, 206245.48, 0.0, 2.5005004, 2.4996963 
3.3131889e+2, 1.249185e+0, -189973.17, -839187.2, 404.59912, 0.02663492, 0.0019078134, -189972.92, -189972.92, 0.0, 2.5004785, 2.4983294 
3.3131886e+2, 3.747555e+0, -190913.98, -839978.56, -377.33087, 0.022635626, 0.005725266, -190913.77, -190913.77, 0.0, 2.5004773, 2.4983287 
3.313188e+2, 6.245925e+0, -191628.16, -840297.06, -1079.8297, 0.018648079, 0.009545153, -191626.36, -191626.36, 0.0, 2.500476, 2.498329 
3.3131877e+2, 8.744295e+0, -192343.53, -840616.2, -1782.5491, 0.014672276, 0.013367476, -192338.64, -192338.64, 0.0, 2.5004747, 2.498329 
3.3131877e+2, 1.1242737e+1, -150009.55, -751609.9, -3125.402, 0.013733344, 0.016737128, -149993.31, -149993.31, 0.0, 2.5004735, 2.498482 
3.3131877e+2, 1.3741249e+1, -150076.72, -751170.7, -4402.071, 0.015919229, 0.01933868, -150044.48, -150044.48, 0.0, 2.500473, 2.4984832 
3.313188e+2, 1.6239761e+1, -150394.33, -751250.75, -4509.1943, 0.018109392, 0.021945782, -150360.5, -150360.5, 0.0, 2.5004723, 2.4984832 
3.313188e+2, 1.8738271e+1, -150712.98, -751331.3, -4616.696, 0.02030372, 0.0245588, -150677.5, -150677.5, 0.0, 2.5004718, 2.4984834 
3.313188e+2, 2.1236862e+1, -106737.89, -658746.3, 99.90892, 0.019375592, 0.027069759, -106737.875, -106737.875, 0.0, 2.5004704, 2.498643 
3.313188e+2, 2.3735528e+1, -106848.945, -657980.8, -2671.8962, 0.0154549135, 0.028907822, -106835.99, -106835.99, 0.0, 2.5004694, 2.4986446 
3.3131877e+2, 2.6234192e+1, -107406.77, -658144.56, -3451.5771, 0.011542261, 0.030752242, -107385.14, -107385.14, 0.0, 2.5004683, 2.4986448 
3.3131874e+2, 2.873286e+1, -107965.48, -658308.7, -4231.95, 0.0076372535, 0.03260444, -107932.93, -107932.93, 0.0, 2.5004673, 2.498645 
3.3131874e+2, 3.1231597e+1, -68362.83, -573831.56, -1913.8265, 0.006317574, 0.03456641, -68355.586, -68355.586, 0.0, 2.500465, 2.4987912 
3.3131877e+2, 3.3730403e+1, -69308.62, -573154.5, -4635.278, 0.007950224, 0.035894748, -69265.98, -69265.98, 0.0, 2.500462, 2.4987938 
3.313188e+2, 3.6229214e+1, -70887.016, -573793.2, -5109.001, 0.0095920125, 0.037228428, -70835.125, -70835.125, 0.0, 2.5004592, 2.498794 
3.3131883e+2, 3.8728023e+1, -72466.45, -574432.4, -5583.6226, 0.011241791, 0.0385701, -72404.35, -72404.35, 0.0, 2.5004563, 2.4987943 
3.3131886e+2, 4.122693e+1, -29300.615, -481755.0, -1889.2173, 0.010484274, 0.041818384, -29292.727, -29292.727, 0.0, 2.500453, 2.4989548 
3.3131886e+2, 4.372593e+1, -29878.332, -480581.72, -4326.2925, 0.007476303, 0.04591786, -29836.809, -29836.809, 0.0, 2.5004506, 2.498958 
3.3131886e+2, 4.622493e+1, -31287.305, -481137.22, -4823.1675, 0.0044801496, 0.050021134, -31235.6, -31235.6, 0.0, 2.500448, 2.4989583 
3.3131886e+2, 4.872393e+1, -32698.24, -481693.66, -5320.865, 0.0014948802, 0.054133225, -32635.195, -32635.195, 0.0, 2.5004454, 2.4989586 
3.3131889e+2, 5.1223e+1, 7386.2617, -395319.28, -4247.562, 0.00016272107, 0.057575345, 7431.058, 7431.058, 0.0, 2.500442, 2.4991086 
3.313189e+2, 5.372212e+1, 6245.805, -394280.8, -5453.757, 0.001146437, 0.05883965, 6320.0522, 6320.0522, 0.0, 2.5004385, 2.499112 
3.3131897e+2, 5.6221247e+1, 4177.959, -395168.94, -5623.996, 0.0021412151, 0.06009884, 4257.146, 4257.146, 0.0, 2.5004346, 2.4991121 
3.31319e+2, 5.8720374e+1, 2108.4785, -396057.84, -5795.192, 0.0031437604, 0.061361104, 2192.8079, 2192.8079, 0.0, 2.500431, 2.4991126 
3.31319e+2, 6.121958e+1, 46352.047, -303167.03, -6488.468, 0.0020538953, 0.063104086, 46472.457, 46472.457, 0.0, 2.50043, 2.4992723 
3.31319e+2, 6.3718855e+1, 48558.78, -300301.9, -6639.992, -0.00093011756, 0.06352844, 48685.117, 48685.117, 0.0, 2.5004318, 2.4992764 
3.31319e+2, 6.621814e+1, 49683.176, -299683.13, -7123.0674, -0.0039051475, 0.06394165, 49828.344, 49828.344, 0.0, 2.5004337, 2.4992766 
3.31319e+2, 6.871742e+1, 50805.457, -299065.34, -7606.764, -0.0068726367, 0.064355016, 50970.766, 50970.766, 0.0, 2.5004356, 2.4992769 
3.31319e+2, 7.12168e+1, 93270.85, -211061.6, -9571.624, -0.008400148, 0.06702318, 93571.59, 93571.59, 0.0, 2.5004358, 2.4994278 
3.3131906e+2, 7.371625e+1, 93123.13, -209576.25, -7900.2017, -0.0073132846, 0.06947692, 93329.18, 93329.18, 0.0, 2.500434, 2.4994311 
3.313191e+2, 7.621571e+1, 92020.33, -210066.06, -8085.1836, -0.006210085, 0.0719118, 92236.57, 92236.57, 0.0, 2.500432, 2.4994314 
3.3131912e+2, 7.871516e+1, 90914.03, -210557.55, -8270.8, -0.0050985003, 0.074345276, 91140.766, 91140.766, 0.0, 2.5004299, 2.4994314 
3.3131915e+2, 8.121468e+1, 130551.63, -131501.0, -9740.766, -0.005040139, 0.0760242, 130913.2, 130913.2, 0.0, 2.5004334, 2.4995654 
3.3131915e+2, 8.371422e+1, 136079.47, -127880.8, -6399.7246, -0.007558851, 0.07501129, 136234.55, 136234.55, 0.0, 2.500442, 2.4995675 
3.3131915e+2, 8.6213785e+1, 141008.16, -125488.664, -6322.333, -0.0100633325, 0.07398558, 141158.06, 141158.06, 0.0, 2.5004504, 2.4995677 
3.3131918e+2, 8.871334e+1, 145929.89, -123099.88, -6244.797, -0.0125425, 0.072960995, 146074.77, 146074.77, 0.0, 2.500459, 2.4995677 
3.3131915e+2, 9.1213006e+1, 185567.36, -45640.445, -7122.8223, -0.017238818, 0.075847425, 185786.58, 185786.58, 0.0, 2.5004642, 2.4996982 
3.313192e+2, 9.3712705e+1, 186067.8, -45268.49, -3130.1626, -0.01665501, 0.07652764, 186110.14, 186110.14, 0.0, 2.500465, 2.4996984 
3.3131927e+2, 9.621241e+1, 186485.19, -45052.418, -2798.1648, -0.015995085, 0.077145554, 186519.0, 186519.0, 0.0, 2.5004656, 2.4996984 
3.3131933e+2, 9.871211e+1, 186897.89, -44838.6, -2464.1868, -0.015320033, 0.07774988, 186924.1, 186924.1, 0.0, 2.5004663, 2.4996986 
3.338193e+2, 1.24918416e+0, -191257.27, -841855.6, 214.14609, 0.023124078, 0.0020619452, -191257.19, -191257.19, 0.0, 2.5004785, 2.4983249 
3.3381927e+2, 3.7475526e+0, -192186.75, -842624.8, -567.77014, 0.020384815, 0.0061875526, -192186.25, -192186.25, 0.0, 2.5004773, 2.4983242 
3.3381927e+2, 6.245921e+0, -192900.0, -842942.75, -1268.4445, 0.017651709, 0.010315451, -192897.52, -192897.52, 0.0, 2.500476, 2.4983242 
3.3381924e+2, 8.744289e+0, -193614.45, -843261.3, -1969.3392, 0.014924761, 0.01444564, -193608.48, -193608.48, 0.0, 2.5004747, 2.4983244 
3.3381924e+2, 1.12427264e+1, -150148.78, -751911.5, -3266.5994, 0.014013179, 0.017638722, -150131.05, -150131.05, 0.0, 2.5004735, 2.4984815 
3.3381924e+2, 1.3741231e+1, -150228.14, -751500.5, -4500.9644, 0.015026109, 0.019588377, -150194.45, -150194.45, 0.0, 2.500473, 2.4984825 
3.3381924e+2, 1.6239737e+1, -150544.86, -751581.56, -4606.357, 0.016039705, 0.021544201, -150509.56, -150509.56, 0.0, 2.5004723, 2.4984827 
3.3381924e+2, 1.8738241e+1, -150862.61, -751663.06, -4712.127, 0.017053818, 0.023506554, -150825.66, -150825.66, 0.0, 2.5004718, 2.498483 
3.3381924e+2, 2.1236828e+1, -108078.91, -661580.3, -157.08456, 0.016055094, 0.025960574, -108078.86, -108078.86, 0.0, 2.5004704, 2.498638 
3.338192e+2, 2.3735493e+1, -108212.97, -660867.5, -2838.425, 0.013136866, 0.028380746, -108198.39, -108198.39, 0.0, 2.5004694, 2.4986396 
3.338192e+2, 2.623416e+1, -108768.97, -661032.2, -3616.7974, 0.010223665, 0.030808317, -108745.29, -108745.29, 0.0, 2.5004683, 2.4986398 
3.3381918e+2, 2.8732827e+1, -109325.85, -661197.3, -4395.8623, 0.007315236, 0.033244614, -109290.836, -109290.836, 0.0, 2.5004673, 2.49864 
3.3381918e+2, 3.1231564e+1, -69056.89, -575371.2, -2435.803, 0.006080009, 0.0356855, -69045.17, -69045.17, 0.0, 2.500465, 2.4987886 
3.338192e+2, 3.3730373e+1, -70055.95, -574810.8, -5071.8633, 0.0068886746, 0.03742334, -70005.0, -70005.0, 0.0, 2.500462, 2.4987907 
3.3381924e+2, 3.6229184e+1, -71632.32, -575451.06, -5544.4707, 0.0077037597, 0.039167758, -71571.31, -71571.31, 0.0, 2.5004592, 2.4987912 
3.3381924e+2, 3.8727993e+1, -73209.72, -576091.8, -6017.976, 0.008524058, 0.04092128, -73137.71, -73137.71, 0.0, 2.5004563, 2.4987915 
3.3381927e+2, 4.1226894e+1, -29967.84, -483301.25, -2385.7925, 0.0076830457, 0.043784328, -29955.285, -29955.285, 0.0, 2.5004532, 2.4989522 
3.3381927e+2, 4.372588e+1, -30613.61, -482275.6, -4722.3257, 0.005386129, 0.046768807, -30564.242, -30564.242, 0.0, 2.5004506, 2.498955 
3.3381927e+2, 4.6224865e+1, -32020.49, -482832.6, -5217.652, 0.0030974569, 0.049758513, -31960.11, -31960.11, 0.0, 2.5004482, 2.4989552 
3.338193e+2, 4.872385e+1, -33429.332, -483390.53, -5713.801, 0.0008159629, 0.052758083, -33356.79, -33356.79, 0.0, 2.5004456, 2.4989557 
3.338193e+2, 5.1222914e+1, 7376.816, -395563.78, -4859.452, -0.00037214486, 0.05594373, 7435.412, 7435.412, 0.0, 2.5004423, 2.4991078 
3.3381933e+2, 5.372205e+1, 6174.991, -394658.3, -6017.4297, 0.00017736436, 0.05790107, 6265.306, 6265.306, 0.0, 2.5004387, 2.4991112 
3.3381936e+2, 5.6221175e+1, 4107.9395, -395549.88, -6186.606, 0.00073534, 0.059855286, 4203.6836, 4203.6836, 0.0, 2.5004349, 2.4991114 
3.338194e+2, 5.872031e+1, 2039.2534, -396442.22, -6356.7397, 0.0012984987, 0.06181416, 2140.633, 2140.633, 0.0, 2.5004313, 2.4991117 
3.3381942e+2, 6.121952e+1, 45882.895, -304434.47, -6250.74, 0.00034258078, 0.063969426, 45994.39, 45994.39, 0.0, 2.5004303, 2.4992702 
3.3381942e+2, 6.3718796e+1, 47967.47, -301826.34, -6373.758, -0.0018729602, 0.064623, 48083.57, 48083.57, 0.0, 2.5004323, 2.4992738 
3.3381945e+2, 6.621808e+1, 49091.56, -301210.8, -6855.3574, -0.0040821475, 0.06526747, 49225.664, 49225.664, 0.0, 2.500434, 2.4992738 
3.3381945e+2, 6.8717355e+1, 50213.54, -300596.28, -7337.5786, -0.006286722, 0.06591349, 50366.95, 50366.95, 0.0, 2.5004358, 2.499274 
3.3381945e+2, 7.1216726e+1, 93406.664, -211147.53, -9833.19, -0.0077617997, 0.06820624, 93723.82, 93723.82, 0.0, 2.500436, 2.4994273 
3.3381948e+2, 7.371617e+1, 93146.26, -209899.77, -8202.673, -0.00726897, 0.069800995, 93368.12, 93368.12, 0.0, 2.5004342, 2.4994304 
3.338195e+2, 7.621561e+1, 92043.39, -210392.31, -8385.641, -0.006764672, 0.07137792, 92275.72, 92275.72, 0.0, 2.5004323, 2.4994307 
3.3381954e+2, 7.871506e+1, 90937.02, -210886.53, -8569.243, -0.006257452, 0.072953515, 91180.12, 91180.12, 0.0, 2.5004303, 2.4994307 
3.3381954e+2, 8.1214577e+1, 131241.02, -130505.66, -8428.582, -0.0062971967, 0.07472441, 131512.14, 131512.14, 0.0, 2.500434, 2.499567 
3.3381957e+2, 8.371415e+1, 136643.69, -127145.74, -5133.8857, -0.008348862, 0.074882455, 136743.56, 136743.56, 0.0, 2.5004425, 2.4995687 
3.338196e+2, 8.6213714e+1, 141572.45, -124752.77, -5052.8975, -0.01039758, 0.0750281, 141668.3, 141668.3, 0.0, 2.5004508, 2.4995687 
3.3381963e+2, 8.871329e+1, 146494.27, -122363.164, -4971.7646, -0.012432655, 0.07517454, 146586.17, 146586.17, 0.0, 2.5004594, 2.4995687 
3.338196e+2, 9.121295e+1, 186823.17, -43558.305, -6908.784, -0.016642319, 0.07812854, 187030.17, 187030.17, 0.0, 2.5004647, 2.4997015 
3.338197e+2, 9.3712646e+1, 187177.75, -43485.867, -3014.0786, -0.015067756, 0.078111716, 187217.13, 187217.13, 0.0, 2.5004654, 2.4997013 
3.3381978e+2, 9.621234e+1, 187590.11, -43265.504, -2678.433, -0.013432951, 0.07803606, 187621.17, 187621.17, 0.0, 2.500466, 2.4997013 
3.3381984e+2, 9.8712045e+1, 187991.63, -43050.35, -2341.3696, -0.011802375, 0.0779474, 188015.36, 188015.36, 0.0, 2.5004668, 2.4997013 
3.3631977e+2, 1.2491834e+0, -192541.86, -844525.1, 23.928165, 0.019612996, 0.0022154148, -192541.86, -192541.86, 0.0, 2.5004785, 2.4983203 
3.3631974e+2, 3.7475502e+0, -193460.8, -845273.7, -758.0438, 0.018133277, 0.006647853, -193459.9, -193459.9, 0.0, 2.5004773, 2.4983196 
3.3631974e+2, 6.245917e+0, -194173.13, -845591.1, -1456.8936, 0.016654132, 0.011082439, -194169.86, -194169.86, 0.0, 2.500476, 2.4983196 
3.3631974e+2, 8.744284e+0, -194886.66, -845909.06, -2155.9639, 0.015175558, 0.01551917, -194879.52, -194879.52, 0.0, 2.5004747, 2.4983199 
3.363197e+2, 1.1242717e+1, -150294.53, -752226.6, -3406.9172, 0.014294752, 0.01853817, -150275.25, -150275.25, 0.0, 2.5004735, 2.498481 
3.363197e+2, 1.3741213e+1, -150380.92, -751833.1, -4599.4204, 0.014134216, 0.019833356, -150345.75, -150345.75, 0.0, 2.500473, 2.498482 
3.363197e+2, 1.6239712e+1, -150696.75, -751915.1, -4703.0815, 0.013970723, 0.021135326, -150659.95, -150659.95, 0.0, 2.5004723, 2.498482 
3.3631968e+2, 1.8738209e+1, -151013.6, -751997.6, -4807.12, 0.013804102, 0.022444436, -150975.16, -150975.16, 0.0, 2.5004718, 2.4984822 
3.3631968e+2, 2.1236792e+1, -109428.14, -664431.44, -409.54953, 0.012735918, 0.024848226, -109427.836, -109427.836, 0.0, 2.5004704, 2.4986331 
3.3631968e+2, 2.3735458e+1, -109578.1, -663756.5, -3004.2217, 0.010818898, 0.027848193, -109561.81, -109561.81, 0.0, 2.5004694, 2.4986348 
3.3631966e+2, 2.6234126e+1, -110132.28, -663922.1, -3781.286, 0.008903903, 0.030856559, -110106.46, -110106.46, 0.0, 2.5004685, 2.498635 
3.3631966e+2, 2.8732792e+1, -110687.336, -664088.2, -4559.0425, 0.0069908053, 0.033874597, -110649.78, -110649.78, 0.0, 2.5004673, 2.498635 
3.3631968e+2, 3.1231534e+1, -69762.33, -576934.44, -2952.3958, 0.0058457763, 0.036798947, -69745.14, -69745.14, 0.0, 2.500465, 2.4987857 
3.3631968e+2, 3.3730343e+1, -70804.19, -576469.0, -5507.4585, 0.005829133, 0.038944263, -70744.21, -70744.21, 0.0, 2.5004623, 2.4987879 
3.3631968e+2, 3.622915e+1, -72378.52, -577110.75, -5978.95, 0.005816147, 0.041097354, -72307.7, -72307.7, 0.0, 2.5004594, 2.498788 
3.3631968e+2, 3.8727966e+1, -73953.88, -577753.06, -6451.34, 0.005805598, 0.04326066, -73871.28, -73871.28, 0.0, 2.5004566, 2.4987884 
3.363197e+2, 4.122686e+1, -30646.51, -484871.28, -2875.9204, 0.004886647, 0.045744225, -30628.303, -30628.303, 0.0, 2.5004535, 2.4989493 
3.363197e+2, 4.372583e+1, -31349.559, -483970.88, -5117.4385, 0.0032995753, 0.047612008, -31291.707, -31291.707, 0.0, 2.5004508, 2.4989522 
3.3631974e+2, 4.62248e+1, -32754.346, -484529.38, -5611.2163, 0.0017171266, 0.049486376, -32684.664, -32684.664, 0.0, 2.5004482, 2.4989524 
3.3631974e+2, 4.8723775e+1, -34161.098, -485088.8, -6105.816, 0.00013814995, 0.05137166, -34078.434, -34078.434, 0.0, 2.5004458, 2.4989526 
3.3631977e+2, 5.122283e+1, 7356.013, -395831.84, -5463.829, -0.00090400234, 0.05430815, 7430.043, 7430.043, 0.0, 2.5004425, 2.4991074 
3.3631977e+2, 5.372197e+1, 6103.5674, -395037.1, -6579.9355, -0.00078853976, 0.0569566, 6211.469, 6211.469, 0.0, 2.500439, 2.4991105 
3.363198e+2, 5.6221104e+1, 4037.31, -395932.1, -6748.05, -0.00066723576, 0.05960382, 4151.127, 4151.127, 0.0, 2.500435, 2.4991107 
3.3631983e+2, 5.872024e+1, 1969.4185, -396827.84, -6917.1206, -0.00054333225, 0.06225729, 2089.3594, 2089.3594, 0.0, 2.5004315, 2.499111 
3.3631983e+2, 6.1219454e+1, 45396.57, -305737.6, -6004.3477, -0.0013654814, 0.064833745, 45499.215, 45499.215, 0.0, 2.5004306, 2.4992678 
3.3631986e+2, 6.3718736e+1, 47375.51, -303352.1, -6106.6885, -0.0028118426, 0.06571385, 47481.805, 47481.805, 0.0, 2.5004325, 2.499271 
3.363199e+2, 6.621801e+1, 48499.3, -302739.8, -6586.8125, -0.004254469, 0.066586785, 48622.78, 48622.78, 0.0, 2.5004344, 2.4992712 
3.363199e+2, 6.8717295e+1, 49620.98, -302128.53, -7067.558, -0.00569541, 0.06746264, 49762.93, 49762.93, 0.0, 2.5004363, 2.4992712 
3.363199e+2, 7.121666e+1, 93525.97, -211267.78, -10083.263, -0.007119726, 0.06939029, 93859.18, 93859.18, 0.0, 2.5004365, 2.499427 
3.3631992e+2, 7.371609e+1, 93168.914, -210224.27, -8504.371, -0.0072195465, 0.07012423, 93407.12, 93407.12, 0.0, 2.5004346, 2.4994297 
3.3631995e+2, 7.621553e+1, 92065.98, -210719.53, -8685.324, -0.007312741, 0.070841216, 92314.914, 92314.914, 0.0, 2.5004327, 2.49943 
3.3631998e+2, 7.8714967e+1, 90959.55, -211216.47, -8866.912, -0.0074084764, 0.07155693, 91219.51, 91219.51, 0.0, 2.5004308, 2.49943 
3.3631998e+2, 8.121449e+1, 131916.77, -129538.664, -7107.6553, -0.0075516375, 0.07342516, 132109.84, 132109.84, 0.0, 2.5004344, 2.4995685 
3.3632e+2, 8.371407e+1, 137207.52, -126411.52, -3868.257, -0.009136723, 0.07475265, 137264.25, 137264.25, 0.0, 2.500443, 2.4995697 
3.3632007e+2, 8.621365e+1, 142136.36, -124017.734, -3783.6719, -0.010730066, 0.076068036, 142190.14, 142190.14, 0.0, 2.5004513, 2.4995697 
3.363201e+2, 8.871323e+1, 147058.25, -121627.3, -3698.9421, -0.012321436, 0.0773839, 147109.16, 147109.16, 0.0, 2.50046, 2.4995697 
3.363201e+2, 9.12129e+1, 188065.92, -41503.34, -6683.8545, -0.016024323, 0.08042209, 188260.36, 188260.36, 0.0, 2.5004652, 2.4997048 
3.3632016e+2, 9.3712586e+1, 188287.28, -41704.414, -2899.8223, -0.013463308, 0.079705715, 188323.84, 188323.84, 0.0, 2.5004659, 2.4997041 
3.3632025e+2, 9.621228e+1, 188700.81, -41476.766, -2557.031, -0.010858201, 0.078933686, 188729.22, 188729.22, 0.0, 2.5004666, 2.4997041 
3.3632034e+2, 9.8711973e+1, 189103.52, -41254.332, -2212.8215, -0.008276681, 0.07814924, 189124.78, 189124.78, 0.0, 2.5004673, 2.4997041 
3.388202e+2, 1.2491826e+0, -191707.14, -846180.9, -202.2977, 0.016109059, 0.0023681088, -191707.08, -191707.08, 0.0, 2.500482, 2.4983158 
3.388202e+2, 3.7475476e+0, -192682.28, -846941.94, -1052.4344, 0.01588787, 0.0071057873, -192680.6, -192680.6, 0.0, 2.500481, 2.498315 
3.388202e+2, 6.245913e+0, -193515.7, -847317.4, -1814.5281, 0.015662186, 0.011845414, -193510.66, -193510.66, 0.0, 2.5004792, 2.498315 
3.388202e+2, 8.744278e+0, -194406.27, -847720.4, -2573.525, 0.015432008, 0.01658699, -194396.14, -194396.14, 0.0, 2.5004778, 2.4983153 
3.388202e+2, 1.1242706e+1, -148804.58, -751770.44, -3851.5334, 0.014585264, 0.019434705, -148779.98, -148779.98, 0.0, 2.5004764, 2.4984803 
3.3882016e+2, 1.3741197e+1, -148919.23, -751395.94, -5088.219, 0.01324996, 0.020073859, -148876.27, -148876.27, 0.0, 2.500476, 2.4984813 
3.3882013e+2, 1.6239686e+1, -149298.9, -751509.6, -5270.7876, 0.011908643, 0.020720316, -149252.78, -149252.78, 0.0, 2.5004752, 2.4984815 
3.3882013e+2, 1.8738176e+1, -149718.0, -751642.4, -5448.759, 0.010561124, 0.021374444, -149668.67, -149668.67, 0.0, 2.5004742, 2.4984818 
3.388201e+2, 2.1236758e+1, -109531.625, -666697.1, -1242.3026, 0.009424384, 0.023734769, -109528.86, -109528.86, 0.0, 2.5004728, 2.4986281 
3.388201e+2, 2.3735423e+1, -109961.39, -666175.2, -3749.36, 0.008506273, 0.027311476, -109936.12, -109936.12, 0.0, 2.500471, 2.4986298 
3.388201e+2, 2.623409e+1, -110801.33, -666479.7, -4511.3667, 0.007587431, 0.030897414, -110764.7, -110764.7, 0.0, 2.5004697, 2.49863 
3.388201e+2, 2.873276e+1, -111658.7, -666792.56, -5265.0557, 0.006667868, 0.034493852, -111608.77, -111608.77, 0.0, 2.500468, 2.4986303 
3.3882013e+2, 3.1231502e+1, -70339.7, -578451.4, -3970.2517, 0.0056184, 0.037905637, -70308.68, -70308.68, 0.0, 2.5004654, 2.498783 
3.3882013e+2, 3.3730313e+1, -71596.8, -578146.3, -6396.397, 0.004774865, 0.04045629, -71516.04, -71516.04, 0.0, 2.5004623, 2.498785 
3.3882013e+2, 3.6229122e+1, -73360.43, -578881.0, -6803.682, 0.003932408, 0.043015767, -73268.88, -73268.88, 0.0, 2.5004592, 2.4987853 
3.3882013e+2, 3.8727936e+1, -75133.54, -579620.25, -7201.064, 0.0030898373, 0.045586463, -75030.766, -75030.766, 0.0, 2.5004559, 2.4987855 
3.3882013e+2, 4.1226822e+1, -31983.371, -486769.63, -3591.4695, 0.0020982728, 0.04769654, -31955.01, -31955.01, 0.0, 2.5004525, 2.4989464 
3.3882013e+2, 4.372578e+1, -32955.27, -486078.4, -5645.7837, 0.0012192318, 0.048446678, -32884.934, -32884.934, 0.0, 2.5004497, 2.498949 
3.3882016e+2, 4.622474e+1, -34586.01, -486747.44, -6028.9253, 0.00034144212, 0.04920453, -34505.64, -34505.64, 0.0, 2.5004466, 2.4989493 
3.3882016e+2, 4.8723695e+1, -36224.438, -487420.22, -6401.5146, -0.00053628336, 0.04997417, -36133.633, -36133.633, 0.0, 2.5004437, 2.4989495 
3.388202e+2, 5.122275e+1, 5839.6045, -396826.63, -5826.339, -0.0014305833, 0.05266865, 5923.8906, 5923.8906, 0.0, 2.5004401, 2.4991066 
3.388202e+2, 5.372189e+1, 4498.155, -396143.0, -6750.3413, -0.0017490727, 0.056005616, 4611.858, 4611.858, 0.0, 2.5004365, 2.4991097 
3.3882022e+2, 5.622103e+1, 2392.6567, -397059.8, -6748.0728, -0.002064135, 0.059343047, 2506.6216, 2506.6216, 0.0, 2.5004327, 2.49911 
3.3882022e+2, 5.872018e+1, 294.53137, -397973.03, -6733.985, -0.0023789431, 0.0626882, 408.35834, 408.35834, 0.0, 2.5004292, 2.4991102 
3.3882025e+2, 6.1219394e+1, 43255.676, -307849.47, -4809.503, -0.0030673028, 0.06569411, 43321.547, 43321.547, 0.0, 2.5004282, 2.4992652 
3.3882028e+2, 6.3718677e+1, 45117.12, -305665.38, -4689.1245, -0.0037437722, 0.06679783, 45179.79, 45179.79, 0.0, 2.5004299, 2.4992683 
3.388203e+2, 6.6217947e+1, 46224.902, -305063.25, -4949.6494, -0.0044188234, 0.06789617, 46294.63, 46294.63, 0.0, 2.5004318, 2.4992683 
3.3882034e+2, 6.871723e+1, 47343.24, -304456.1, -5202.5327, -0.005094824, 0.06899882, 47420.156, 47420.156, 0.0, 2.5004337, 2.4992685 
3.3882034e+2, 7.121659e+1, 92157.195, -212114.28, -8516.204, -0.006469538, 0.070571706, 92395.37, 92395.37, 0.0, 2.5004344, 2.4994266 
3.3882034e+2, 7.371602e+1, 92150.78, -211033.5, -6807.3086, -0.007159984, 0.07044335, 92303.55, 92303.55, 0.0, 2.5004332, 2.499429 
3.3882037e+2, 7.6215446e+1, 91468.734, -211328.2, -6785.456, -0.007847953, 0.07029878, 91620.72, 91620.72, 0.0, 2.500432, 2.4994292 
3.3882037e+2, 7.8714865e+1, 90772.81, -211629.61, -6755.7466, -0.008543256, 0.070153035, 90923.66, 90923.66, 0.0, 2.5004308, 2.4994292 
3.388204e+2, 8.1214386e+1, 132740.31, -128506.05, -3170.2976, -0.008793992, 0.0721238, 132778.78, 132778.78, 0.0, 2.500435, 2.49957 
3.3882046e+2, 8.3713984e+1, 138218.44, -125446.52, 187.81873, -0.009912665, 0.074618615, 138218.58, 138218.58, 0.0, 2.5004442, 2.4995708 
3.388205e+2, 8.6213577e+1, 143360.72, -122949.23, 457.71783, -0.0110499, 0.0771016, 143361.5, 143361.5, 0.0, 2.500453, 2.4995708 
3.3882055e+2, 8.8713175e+1, 148423.27, -120490.33, 726.5164, -0.012196013, 0.079584815, 148425.23, 148425.23, 0.0, 2.5004616, 2.4995708 
3.3882055e+2, 9.1212845e+1, 190619.5, -38824.797, -3153.4482, -0.015370381, 0.08272426, 190662.83, 190662.83, 0.0, 2.500468, 2.499708 
3.3882064e+2, 9.371253e+1, 191586.97, -38856.53, 597.78186, -0.011825328, 0.08130718, 191588.52, 191588.52, 0.0, 2.5004704, 2.4997067 
3.3882073e+2, 9.621222e+1, 192690.6, -38290.316, 1032.6069, -0.008250898, 0.079837285, 192695.2, 192695.2, 0.0, 2.500472, 2.499707 
3.3882084e+2, 9.8711914e+1, 193602.78, -37816.29, 1462.1467, -0.004717693, 0.0783555, 193612.02, 193612.02, 0.0, 2.5004737, 2.499707 
3.413207e+2, 1.24917984e+0, -187675.45, -845579.2, -305.1711, 0.0135287875, 0.0022489398, -187675.31, -187675.31, 0.0, 2.5004904, 2.4983127 
3.413207e+2, 3.7475395e+0, -190346.89, -847136.56, -484.14343, 0.014085649, 0.0067467927, -190346.53, -190346.53, 0.0, 2.5004861, 2.4983122 
3.413207e+2, 6.245899e+0, -192830.81, -848301.94, -577.95514, 0.014655758, 0.011244611, -192830.31, -192830.31, 0.0, 2.5004818, 2.4983122 
3.413207e+2, 8.744259e+0, -195316.27, -849468.0, -671.5792, 0.015239115, 0.015742393, -195315.58, -195315.58, 0.0, 2.5004776, 2.4983122 
3.413207e+2, 1.1242685e+1, -149702.58, -754137.25, -1434.165, 0.014445804, 0.018687703, -149699.17, -149699.17, 0.0, 2.500477, 2.498476 
3.4132063e+2, 1.3741174e+1, -147307.47, -752548.94, -3511.3196, 0.012382585, 0.019767577, -147287.11, -147287.11, 0.0, 2.5004807, 2.498477 
3.413206e+2, 1.6239664e+1, -145132.61, -751416.7, -4588.0728, 0.010334585, 0.020852761, -145097.89, -145097.89, 0.0, 2.5004842, 2.4984772 
3.4132057e+2, 1.8738155e+1, -142959.19, -750285.06, -5665.456, 0.0083016455, 0.021943629, -142906.33, -142906.33, 0.0, 2.500488, 2.4984775 
3.4132054e+2, 2.1236731e+1, -102334.24, -664722.7, -2500.1887, 0.0071148104, 0.024343904, -102323.125, -102323.125, 0.0, 2.5004866, 2.4986248 
3.4132057e+2, 2.3735392e+1, -104981.82, -665282.25, -4450.849, 0.006791024, 0.027575728, -104946.46, -104946.46, 0.0, 2.5004814, 2.4986265 
3.4132057e+2, 2.6234052e+1, -108001.266, -666614.9, -4744.452, 0.006474518, 0.030812439, -107960.97, -107960.97, 0.0, 2.5004761, 2.4986267 
3.4132057e+2, 2.8732714e+1, -111021.766, -667948.06, -5038.637, 0.0061652707, 0.034055263, -110976.18, -110976.18, 0.0, 2.5004706, 2.498627 
3.4132057e+2, 3.123145e+1, -69898.29, -579155.06, -3332.7175, 0.005180324, 0.03734313, -69876.48, -69876.48, 0.0, 2.500467, 2.498781 
3.4132057e+2, 3.3730263e+1, -69732.73, -578188.94, -5574.8047, 0.003797799, 0.040034596, -69671.61, -69671.61, 0.0, 2.5004663, 2.4987829 
3.4132054e+2, 3.6229074e+1, -70031.56, -578190.4, -5908.859, 0.0024233994, 0.042731643, -69962.87, -69962.87, 0.0, 2.5004659, 2.4987833 
3.4132054e+2, 3.8727883e+1, -70331.42, -578192.3, -6243.9326, 0.0010561107, 0.045436554, -70254.664, -70254.664, 0.0, 2.5004652, 2.4987836 
3.4132054e+2, 4.1226768e+1, -27444.143, -486138.28, -3233.7866, 0.0000718161, 0.04763582, -27421.346, -27421.346, 0.0, 2.5004618, 2.498943 
3.4132057e+2, 4.3725723e+1, -29635.688, -486096.78, -5676.7173, -0.0002364937, 0.04847204, -29565.1, -29565.1, 0.0, 2.500457, 2.4989455 
3.4132057e+2, 4.6224678e+1, -32424.342, -487297.34, -6544.2563, -0.0005350014, 0.049310464, -32330.209, -32330.209, 0.0, 2.500452, 2.4989457 
3.413206e+2, 4.8723632e+1, -35214.344, -488498.6, -7412.9004, -0.00082498736, 0.050154988, -35093.145, -35093.145, 0.0, 2.500447, 2.4989462 
3.413206e+2, 5.122268e+1, 7550.191, -396341.22, -7163.912, -0.0015486727, 0.05271594, 7677.2188, 7677.2188, 0.0, 2.5004435, 2.499106 
3.4132063e+2, 5.372182e+1, 7542.095, -395085.66, -8530.598, -0.0021461078, 0.055788275, 7722.7544, 7722.7544, 0.0, 2.5004423, 2.4991088 
3.4132063e+2, 5.622096e+1, 6825.6094, -395303.84, -9043.922, -0.0027325766, 0.058857907, 7028.9053, 7028.9053, 0.0, 2.5004408, 2.499109 
3.4132063e+2, 5.87201e+1, 6107.723, -395522.7, -9558.144, -0.003311155, 0.06193165, 6335.0625, 6335.0625, 0.0, 2.5004394, 2.4991093 
3.413207e+2, 6.1219317e+1, 47696.977, -306105.4, -7861.1943, -0.003968585, 0.06493937, 47871.563, 47871.563, 0.0, 2.500436, 2.4992645 
3.4132072e+2, 6.37186e+1, 45403.188, -306038.94, -7840.4346, -0.0042674, 0.066419676, 45578.016, 45578.016, 0.0, 2.500431, 2.499267 
3.4132075e+2, 6.621788e+1, 42428.793, -307383.3, -8217.333, -0.004554685, 0.067895286, 42621.715, 42621.715, 0.0, 2.5004258, 2.4992673 
3.4132078e+2, 6.8717164e+1, 39452.496, -308728.63, -8595.362, -0.0048331013, 0.06937532, 39664.555, 39664.555, 0.0, 2.5004206, 2.4992673 
3.4132078e+2, 7.1216524e+1, 84542.59, -216001.28, -11502.6875, -0.006146041, 0.07089174, 84982.195, 84982.195, 0.0, 2.5004215, 2.4994261 
3.4132078e+2, 7.3715943e+1, 89191.13, -212821.38, -10432.323, -0.007078597, 0.07038569, 89551.06, 89551.06, 0.0, 2.5004284, 2.4994283 
3.413208e+2, 7.621536e+1, 93276.23, -210803.78, -11022.841, -0.007986023, 0.06986489, 93675.28, 93675.28, 0.0, 2.5004356, 2.4994283 
3.413208e+2, 7.871478e+1, 97357.99, -208787.8, -11614.145, -0.008878394, 0.06934352, 97797.96, 97797.96, 0.0, 2.5004425, 2.4994285 
3.4132084e+2, 8.12143e+1, 137844.38, -125175.46, -8827.651, -0.009009666, 0.07118787, 138140.33, 138140.33, 0.0, 2.500443, 2.4995718 
3.413209e+2, 8.3713895e+1, 133498.33, -127007.16, -5952.7534, -0.00964905, 0.07390693, 133634.28, 133634.28, 0.0, 2.5004354, 2.4995723 
3.4132096e+2, 8.62135e+1, 128989.55, -129158.06, -6065.04, -0.010277558, 0.07661701, 129131.96, 129131.96, 0.0, 2.5004275, 2.4995723 
3.4132102e+2, 8.87131e+1, 124476.3, -131311.13, -6177.4873, -0.010885717, 0.079329476, 124625.4, 124625.4, 0.0, 2.5004196, 2.4995725 
3.4132102e+2, 9.121277e+1, 166005.66, -48999.477, -8892.837, -0.013883877, 0.08245573, 166372.84, 166372.84, 0.0, 2.500424, 2.4997118 
3.4132114e+2, 9.371246e+1, 174771.27, -45473.465, -5435.2705, -0.010245597, 0.0811529, 174905.33, 174905.33, 0.0, 2.50044, 2.49971 
3.4132123e+2, 9.621216e+1, 183973.56, -41017.207, -5222.4253, -0.006523095, 0.07979741, 184094.72, 184094.72, 0.0, 2.5004556, 2.4997103 
3.4132132e+2, 9.8711854e+1, 193166.34, -36565.527, -5007.3945, -0.0027890732, 0.0784272, 193275.44, 193275.44, 0.0, 2.5004714, 2.4997103 
3.4382114e+2, 1.2491758e+0, -187823.44, -845886.56, -960.9961, 0.011345491, 0.00188119, -187822.05, -187822.05, 0.0, 2.5004904, 2.4983122 
3.4382114e+2, 3.7475273e+0, -190486.13, -847425.5, -1136.1896, 0.012270017, 0.0056442795, -190484.16, -190484.16, 0.0, 2.5004861, 2.4983118 
3.4382114e+2, 6.245879e+0, -192971.5, -848593.6, -1227.6019, 0.013200574, 0.009408317, -192969.2, -192969.2, 0.0, 2.5004818, 2.4983118 
3.4382114e+2, 8.7442315e+0, -195458.42, -849762.5, -1318.8268, 0.014137161, 0.0131733, -195455.77, -195455.77, 0.0, 2.5004776, 2.4983118 
3.4382114e+2, 1.1242656e+1, -151642.69, -758188.1, -941.50604, 0.013417892, 0.0164534, -151641.22, -151641.22, 0.0, 2.500477, 2.498469 
3.438211e+2, 1.3741153e+1, -149255.92, -756620.94, -2963.2, 0.011115222, 0.018944426, -149241.47, -149241.47, 0.0, 2.5004807, 2.49847 
3.4382108e+2, 1.623965e+1, -147078.36, -755486.75, -4037.7764, 0.008822361, 0.0214411, -147051.56, -147051.56, 0.0, 2.5004842, 2.4984703 
3.4382105e+2, 1.8738148e+1, -144902.23, -754353.25, -5112.983, 0.006539203, 0.023943795, -144859.34, -144859.34, 0.0, 2.500488, 2.4984703 
3.4382105e+2, 2.123672e+1, -102776.42, -665680.25, -3391.1785, 0.005344406, 0.026455723, -102755.99, -102755.99, 0.0, 2.5004866, 2.4986231 
3.4382105e+2, 2.3735367e+1, -105449.84, -666297.9, -5259.6074, 0.005309091, 0.028520243, -105400.52, -105400.52, 0.0, 2.5004814, 2.4986246 
3.4382105e+2, 2.6234016e+1, -108467.875, -667632.0, -5551.6724, 0.005277713, 0.030591007, -108412.76, -108412.76, 0.0, 2.5004761, 2.4986248 
3.4382105e+2, 2.8732663e+1, -111486.95, -668966.6, -5844.319, 0.005250127, 0.03266916, -111425.695, -111425.695, 0.0, 2.5004709, 2.498625 
3.4382105e+2, 3.123139e+1, -70352.94, -580212.9, -3557.386, 0.004319872, 0.03529711, -70328.12, -70328.12, 0.0, 2.5004673, 2.498779 
3.4382102e+2, 3.3730197e+1, -70216.875, -579315.2, -5680.8555, 0.002689575, 0.0378818, -70153.49, -70153.49, 0.0, 2.5004666, 2.498781 
3.4382102e+2, 3.6229002e+1, -70513.28, -579318.3, -6013.886, 0.0010647199, 0.04047308, -70442.21, -70442.21, 0.0, 2.5004659, 2.4987812 
3.4382102e+2, 3.8727814e+1, -70810.71, -579321.94, -6347.9365, -0.00055543456, 0.043073095, -70731.48, -70731.48, 0.0, 2.5004652, 2.4987817 
3.4382102e+2, 4.12267e+1, -28816.617, -489151.2, -4070.4023, -0.0014440883, 0.045775726, -28780.629, -28780.629, 0.0, 2.500462, 2.4989378 
3.4382102e+2, 4.3725663e+1, -31068.832, -489241.8, -6429.785, -0.0012684169, 0.047779005, -30978.617, -30978.617, 0.0, 2.500457, 2.49894 
3.4382105e+2, 4.622462e+1, -33856.207, -490445.6, -7296.3193, -0.0010852617, 0.04978581, -33739.645, -33739.645, 0.0, 2.5004523, 2.4989402 
3.4382105e+2, 4.8723584e+1, -36644.93, -491650.06, -8163.9585, -0.00089604384, 0.051799834, -36498.492, -36498.492, 0.0, 2.5004473, 2.4989407 
3.4382108e+2, 5.122263e+1, 6906.424, -397914.38, -7463.9478, -0.0014319079, 0.0543413, 7043.9946, 7043.9946, 0.0, 2.5004437, 2.499103 
3.4382108e+2, 5.372175e+1, 6828.136, -396810.38, -8749.052, -0.0021594607, 0.05628058, 7017.687, 7017.687, 0.0, 2.5004425, 2.4991057 
3.4382108e+2, 5.622088e+1, 6112.6294, -397031.72, -9260.936, -0.0028782492, 0.05821831, 6325.257, 6325.257, 0.0, 2.500441, 2.499106 
3.438211e+2, 5.8720005e+1, 5395.722, -397253.72, -9773.717, -0.0035912609, 0.060160775, 5632.8247, 5632.8247, 0.0, 2.5004396, 2.4991062 
3.438211e+2, 6.121921e+1, 47367.266, -307085.4, -8662.421, -0.004330422, 0.06279807, 47578.84, 47578.84, 0.0, 2.5004365, 2.4992626 
3.4382114e+2, 6.37185e+1, 44991.83, -307194.0, -8635.017, -0.004618466, 0.06480496, 45203.418, 45203.418, 0.0, 2.5004313, 2.499265 
3.4382114e+2, 6.621778e+1, 42018.402, -308541.38, -9010.635, -0.00489738, 0.06680757, 42249.855, 42249.855, 0.0, 2.500426, 2.4992652 
3.4382117e+2, 6.871706e+1, 39043.08, -309889.63, -9387.384, -0.005170096, 0.068814285, 39295.445, 39295.445, 0.0, 2.5004208, 2.4992652 
3.4382117e+2, 7.121642e+1, 83904.42, -217695.53, -10456.415, -0.0064553637, 0.07054841, 84266.516, 84266.516, 0.0, 2.500422, 2.499423 
3.438212e+2, 7.371584e+1, 88442.15, -214751.27, -9393.057, -0.007343436, 0.07008877, 88732.875, 88732.875, 0.0, 2.500429, 2.4994247 
3.4382123e+2, 7.621526e+1, 92526.52, -212739.84, -9981.062, -0.008212154, 0.06961441, 92852.516, 92852.516, 0.0, 2.5004358, 2.4994247 
3.4382126e+2, 7.871468e+1, 96607.555, -210730.03, -10569.853, -0.009071634, 0.06913854, 96970.64, 96970.64, 0.0, 2.500443, 2.499425 
3.438213e+2, 8.1214195e+1, 138143.73, -124995.61, -9879.459, -0.008949001, 0.07064293, 138514.14, 138514.14, 0.0, 2.5004435, 2.4995718 
3.4382132e+2, 8.371378e+1, 133703.03, -127024.664, -7133.596, -0.009100473, 0.07273243, 133898.06, 133898.06, 0.0, 2.5004358, 2.499572 
3.4382138e+2, 8.621338e+1, 129194.875, -129174.08, -7243.532, -0.009249184, 0.07481284, 129397.8, 129397.8, 0.0, 2.500428, 2.499572 
3.4382144e+2, 8.8712966e+1, 124682.26, -131325.64, -7353.6284, -0.0093856985, 0.076894715, 124893.31, 124893.31, 0.0, 2.50042, 2.4995723 
3.4382147e+2, 9.1212636e+1, 166994.58, -47475.684, -6504.977, -0.012649179, 0.07986878, 167191.69, 167191.69, 0.0, 2.5004246, 2.4997141 
3.4382156e+2, 9.371234e+1, 175654.56, -44161.547, -3049.3853, -0.009872167, 0.07935663, 175696.84, 175696.84, 0.0, 2.5004404, 2.4997122 
3.4382167e+2, 9.621204e+1, 184855.03, -39699.914, -2828.4812, -0.007030374, 0.07879764, 184890.66, 184890.66, 0.0, 2.500456, 2.4997122 
3.4382176e+2, 9.871175e+1, 194044.94, -35243.38, -2605.8477, -0.0041977908, 0.078226246, 194074.55, 194074.55, 0.0, 2.5004718, 2.4997122 
3.4632158e+2, 1.2491719e+0, -187972.11, -846195.3, -1616.8926, 0.009162518, 0.0015126397, -187968.14, -187968.14, 0.0, 2.5004904, 2.4983118 
3.4632158e+2, 3.7475154e+0, -190627.05, -847717.9, -1788.2, 0.010455353, 0.0045393654, -190622.17, -190622.17, 0.0, 2.5004861, 2.498311 
3.4632158e+2, 6.245859e+0, -193113.89, -848888.8, -1877.2131, 0.011747003, 0.0075680204, -193108.52, -193108.52, 0.0, 2.5004818, 2.4983113 
3.4632158e+2, 8.744203e+0, -195602.27, -850060.5, -1966.0386, 0.013037465, 0.010598604, -195596.36, -195596.36, 0.0, 2.5004776, 2.4983113 
3.4632158e+2, 1.1242627e+1, -153588.05, -762249.94, -444.10867, 0.012386967, 0.014216547, -153587.72, -153587.72, 0.0, 2.500477, 2.4984622 
3.4632155e+2, 1.3741131e+1, -151206.05, -760696.4, -2414.7065, 0.009842417, 0.018115846, -151196.48, -151196.48, 0.0, 2.5004807, 2.4984632 
3.4632152e+2, 1.6239636e+1, -149025.78, -759560.3, -3487.1064, 0.007302282, 0.022021122, -149005.88, -149005.88, 0.0, 2.5004842, 2.4984632 
3.463215e+2, 1.873814e+1, -146846.95, -758424.94, -4560.136, 0.0047664917, 0.025932757, -146812.95, -146812.95, 0.0, 2.500488, 2.4984634 
3.463215e+2, 2.123671e+1, -103232.26, -666666.25, -4283.2363, 0.0035810217, 0.028560141, -103199.695, -103199.695, 0.0, 2.5004869, 2.4986215 
3.463215e+2, 2.3735341e+1, -105919.3, -667316.56, -6067.7363, 0.0038329347, 0.029454872, -105853.72, -105853.72, 0.0, 2.5004814, 2.498623 
3.463215e+2, 2.6233977e+1, -108935.91, -668652.06, -6358.262, 0.004085353, 0.030357173, -108863.69, -108863.69, 0.0, 2.5004761, 2.4986231 
3.463215e+2, 2.873261e+1, -111953.57, -669988.06, -6649.3706, 0.004338097, 0.03126814, -111874.35, -111874.35, 0.0, 2.5004709, 2.4986234 
3.463215e+2, 3.1231332e+1, -70816.7, -581289.56, -3771.8186, 0.0034611023, 0.0332449, -70788.836, -70788.836, 0.0, 2.5004673, 2.4987772 
3.4632146e+2, 3.3730134e+1, -70702.07, -580443.56, -5785.8467, 0.001581896, 0.035720978, -70636.41, -70636.41, 0.0, 2.5004666, 2.498779 
3.4632146e+2, 3.622894e+1, -70996.05, -580448.4, -6117.854, -0.00029454438, 0.03820458, -70922.586, -70922.586, 0.0, 2.500466, 2.4987793 
3.4632143e+2, 3.8727745e+1, -71291.04, -580453.7, -6450.881, -0.0021686947, 0.040697787, -71209.32, -71209.32, 0.0, 2.5004654, 2.4987795 
3.4632146e+2, 4.122663e+1, -30199.033, -492184.75, -4903.6616, -0.0029563706, 0.04390477, -30146.99, -30146.99, 0.0, 2.5004623, 2.4989326 
3.4632146e+2, 4.3725598e+1, -32502.795, -492388.56, -7181.5796, -0.0022966084, 0.047073197, -32390.674, -32390.674, 0.0, 2.5004573, 2.4989345 
3.4632146e+2, 4.6224564e+1, -35288.895, -493595.56, -8047.109, -0.0016317376, 0.05024645, -35147.645, -35147.645, 0.0, 2.5004525, 2.4989347 
3.463215e+2, 4.8723534e+1, -38076.336, -494803.22, -8913.743, -0.0009632628, 0.053428046, -37902.438, -37902.438, 0.0, 2.5004475, 2.4989352 
3.463215e+2, 5.1222575e+1, 6238.064, -399538.63, -7754.525, -0.0013130589, 0.055965625, 6386.2017, 6386.2017, 0.0, 2.500444, 2.4991002 
3.463215e+2, 5.3721684e+1, 6113.2183, -398537.1, -8966.462, -0.002170058, 0.05676855, 6311.804, 6311.804, 0.0, 2.5004427, 2.4991026 
3.4632152e+2, 5.6220794e+1, 5398.69, -398761.6, -9476.906, -0.0030204765, 0.0575709, 5620.786, 5620.786, 0.0, 2.5004413, 2.4991028 
3.4632152e+2, 5.8719903e+1, 4682.7617, -398986.75, -9988.247, -0.0038672315, 0.058378592, 4929.7563, 4929.7563, 0.0, 2.50044, 2.499103 
3.4632152e+2, 6.121911e+1, 47024.477, -308092.6, -9456.803, -0.0046875356, 0.060652304, 47276.133, 47276.133, 0.0, 2.5004368, 2.4992607 
3.4632155e+2, 6.3718396e+1, 44579.793, -308350.5, -9428.372, -0.0049630096, 0.06318361, 44831.49, 44831.49, 0.0, 2.5004315, 2.4992628 
3.4632155e+2, 6.6217685e+1, 41607.336, -309700.8, -9802.711, -0.0052317595, 0.06571095, 41880.652, 41880.652, 0.0, 2.5004265, 2.499263 
3.4632158e+2, 6.8716973e+1, 38632.98, -311052.03, -10178.181, -0.0054969843, 0.06824208, 38928.984, 38928.984, 0.0, 2.5004213, 2.499263 
3.4632158e+2, 7.121633e+1, 83244.36, -219435.28, -9399.494, -0.006767796, 0.07020722, 83535.98, 83535.98, 0.0, 2.5004225, 2.49942 
3.463216e+2, 7.3715746e+1, 87692.38, -216682.78, -8352.528, -0.007607253, 0.06979122, 87921.42, 87921.42, 0.0, 2.5004294, 2.4994211 
3.4632164e+2, 7.6215166e+1, 91776.03, -214677.55, -8938.02, -0.008432945, 0.06936034, 92036.49, 92036.49, 0.0, 2.5004363, 2.4994214 
3.4632167e+2, 7.871458e+1, 95856.34, -212673.9, -9524.297, -0.009255217, 0.06892699, 96150.08, 96150.08, 0.0, 2.5004432, 2.4994214 
3.463217e+2, 8.121408e+1, 138427.05, -124849.125, -10922.282, -0.008888731, 0.070098035, 138879.4, 138879.4, 0.0, 2.500444, 2.4995718 
3.463218e+2, 8.371367e+1, 133907.27, -127043.15, -8314.377, -0.008552144, 0.07155638, 134171.9, 134171.9, 0.0, 2.5004363, 2.4995718 
3.4632185e+2, 8.6213255e+1, 129399.74, -129191.07, -8421.963, -0.008220732, 0.07300539, 129673.74, 129673.74, 0.0, 2.5004284, 2.4995718 
3.4632188e+2, 8.8712835e+1, 124887.76, -131341.14, -8529.708, -0.007885273, 0.074454956, 125171.39, 125171.39, 0.0, 2.5004206, 2.4995718 
3.463219e+2, 9.121251e+1, 167963.77, -45992.93, -4106.626, -0.011389144, 0.077297255, 168042.55, 168042.55, 0.0, 2.500425, 2.4997163 
3.4632203e+2, 9.371223e+1, 176537.16, -42851.098, -665.5176, -0.009477105, 0.07757302, 176539.17, 176539.17, 0.0, 2.5004408, 2.4997141 
3.4632215e+2, 9.6211934e+1, 185735.81, -38384.098, -436.55502, -0.0075200996, 0.07780739, 185736.67, 185736.67, 0.0, 2.5004566, 2.4997141 
3.4632224e+2, 9.8711646e+1, 194923.9, -33922.188, -205.86273, -0.0055930335, 0.07803167, 194924.08, 194924.08, 0.0, 2.5004725, 2.4997144 
3.488221e+2, 1.2491678e+0, -186160.5, -845566.7, -2315.38, 0.006991056, 0.0011436824, -186152.38, -186152.38, 0.0, 2.5004938, 2.498311 
3.488221e+2, 3.7475035e+0, -188637.27, -846992.3, -2566.7488, 0.008650186, 0.0034332157, -188627.25, -188627.25, 0.0, 2.50049, 2.4983106 
3.488221e+2, 6.245839e+0, -191007.97, -848109.3, -2737.6284, 0.010301602, 0.0057256413, -190996.56, -190996.56, 0.0, 2.5004857, 2.4983108 
3.488221e+2, 8.744175e+0, -193434.02, -849253.0, -2908.0889, 0.011945306, 0.008020959, -193421.13, -193421.13, 0.0, 2.5004816, 2.4983108 
3.488221e+2, 1.12426e+1, -153353.34, -765273.0, -291.36133, 0.011358136, 0.011979603, -153353.2, -153353.2, 0.0, 2.500481, 2.498455 
3.4882206e+2, 1.374111e+1, -151283.61, -763875.5, -2235.2063, 0.00856995, 0.017283121, -151275.45, -151275.45, 0.0, 2.500484, 2.498456 
3.4882203e+2, 1.6239621e+1, -149453.02, -762907.2, -3323.3262, 0.0057811257, 0.02259281, -149435.02, -149435.02, 0.0, 2.500487, 2.4984562 
3.48822e+2, 1.8738133e+1, -147665.16, -761959.5, -4409.9907, 0.0029916144, 0.027909074, -147633.5, -147633.5, 0.0, 2.50049, 2.4984565 
3.48822e+2, 2.1236698e+1, -102817.43, -667257.44, -5600.9487, 0.0018325988, 0.030655535, -102761.85, -102761.85, 0.0, 2.5004883, 2.4986196 
3.4882197e+2, 2.3735318e+1, -105577.48, -667949.25, -7327.795, 0.0023688527, 0.030379083, -105482.016, -105482.016, 0.0, 2.5004828, 2.498621 
3.4882197e+2, 2.6233938e+1, -108681.9, -669328.8, -7640.434, 0.002902458, 0.030111425, -108577.79, -108577.79, 0.0, 2.5004776, 2.4986212 
3.4882197e+2, 2.8732556e+1, -111804.98, -670717.44, -7949.324, 0.0034332892, 0.029853623, -111691.94, -111691.94, 0.0, 2.500472, 2.4986215 
3.4882197e+2, 3.123127e+1, -70894.46, -582194.75, -4477.362, 0.0026076394, 0.031188246, -70855.26, -70855.26, 0.0, 2.5004683, 2.4987752 
3.4882194e+2, 3.3730072e+1, -71112.65, -581537.1, -6379.3853, 0.00047823202, 0.033553593, -71032.93, -71032.93, 0.0, 2.500467, 2.498777 
3.4882194e+2, 3.6228874e+1, -71721.21, -581695.94, -6691.9526, -0.0016508762, 0.035927236, -71633.414, -71633.414, 0.0, 2.5004659, 2.4987772 
3.488219e+2, 3.8727677e+1, -72328.34, -581854.0, -6998.8555, -0.0037799047, 0.038311277, -72232.23, -72232.23, 0.0, 2.5004647, 2.4987776 
3.488219e+2, 4.1226563e+1, -32396.885, -495621.72, -6118.2925, -0.0044615823, 0.042022873, -32316.09, -32316.09, 0.0, 2.500461, 2.498927 
3.4882194e+2, 4.3725535e+1, -34922.87, -496005.7, -8216.586, -0.0033185321, 0.046353508, -34776.496, -34776.496, 0.0, 2.5004559, 2.498929 
3.4882194e+2, 4.622451e+1, -37884.56, -497300.47, -8971.476, -0.002172579, 0.050690133, -37709.43, -37709.43, 0.0, 2.5004506, 2.4989293 
3.4882197e+2, 4.872348e+1, -40844.68, -498594.47, -9718.067, -0.0010252544, 0.0550361, -40638.457, -40638.457, 0.0, 2.5004454, 2.4989297 
3.4882197e+2, 5.122252e+1, 4057.791, -401923.38, -7977.7163, -0.0011909144, 0.057584886, 4214.4966, 4214.4966, 0.0, 2.5004418, 2.4990973 
3.4882197e+2, 5.372161e+1, 3797.8328, -401028.9, -9020.336, -0.0021765972, 0.057248626, 3998.7239, 3998.7239, 0.0, 2.5004401, 2.4990995 
3.4882197e+2, 5.622071e+1, 2988.3333, -401302.3, -9418.199, -0.0031576464, 0.05691261, 3207.617, 3207.617, 0.0, 2.5004387, 2.4990997 
3.4882197e+2, 5.871981e+1, 2193.616, -401568.63, -9810.367, -0.0041369274, 0.056582592, 2431.8418, 2431.8418, 0.0, 2.5004373, 2.4991 
3.4882197e+2, 6.1219007e+1, 44922.676, -309957.8, -9723.531, -0.005037408, 0.058499265, 45188.895, 45188.895, 0.0, 2.5004342, 2.4992588 
3.48822e+2, 6.3718295e+1, 42568.844, -310267.5, -9558.244, -0.00529825, 0.061551623, 42827.586, 42827.586, 0.0, 2.5004292, 2.4992607 
3.48822e+2, 6.6217583e+1, 39764.293, -311539.75, -9781.0, -0.005554469, 0.06460021, 40036.402, 40036.402, 0.0, 2.5004244, 2.499261 
3.4882203e+2, 6.871687e+1, 36977.04, -312803.66, -9996.009, -0.0058095204, 0.067652285, 37262.47, 37262.47, 0.0, 2.5004194, 2.499261 
3.4882203e+2, 7.121623e+1, 81524.375, -221708.17, -7200.73, -0.0070787063, 0.06986108, 81695.27, 81695.27, 0.0, 2.500421, 2.4994166 
3.4882206e+2, 7.3715645e+1, 86109.984, -219003.95, -6023.9507, -0.007865412, 0.06948603, 86228.87, 86228.87, 0.0, 2.5004282, 2.4994178 
3.488221e+2, 7.621506e+1, 90382.055, -216913.4, -6446.8706, -0.008643145, 0.06909595, 90517.25, 90517.25, 0.0, 2.5004356, 2.4994178 
3.4882215e+2, 7.871447e+1, 94633.734, -214832.67, -6866.0864, -0.009422661, 0.06870267, 94786.0, 94786.0, 0.0, 2.500443, 2.4994178 
3.4882218e+2, 8.1213975e+1, 138701.64, -124719.086, -10185.189, -0.008821483, 0.069547296, 139094.88, 139094.88, 0.0, 2.5004444, 2.4995718 
3.488222e+2, 8.3713555e+1, 134925.88, -126656.914, -7579.293, -0.0079961885, 0.07037291, 135145.3, 135145.3, 0.0, 2.500438, 2.4995716 
3.4882227e+2, 8.6213136e+1, 131203.44, -128425.67, -7541.325, -0.0071831592, 0.07118887, 131422.3, 131422.3, 0.0, 2.5004318, 2.4995716 
3.4882233e+2, 8.871271e+1, 127453.32, -130207.75, -7505.12, -0.006373575, 0.07200451, 127671.74, 127671.74, 0.0, 2.500425, 2.4995718 
3.4882233e+2, 9.121238e+1, 171833.16, -43131.77, 622.6035, -0.01009097, 0.07473569, 171834.95, 171834.95, 0.0, 2.5004308, 2.4997187 
3.4882244e+2, 9.3712103e+1, 180555.97, -40019.234, 4128.341, -0.009044232, 0.07579673, 180633.22, 180633.22, 0.0, 2.5004468, 2.499716 
3.4882256e+2, 9.621183e+1, 189769.55, -35539.844, 4444.858, -0.007970163, 0.07682117, 189857.2, 189857.2, 0.0, 2.5004625, 2.4997163 
3.4882268e+2, 9.871155e+1, 198772.34, -31161.947, 4750.967, -0.006944207, 0.07783752, 198870.47, 198870.47, 0.0, 2.500478, 2.4997163 
3.5132256e+2, 1.24916635e+0, -190074.13, -849000.7, -2624.105, 0.0064883893, 0.001181625, -190063.67, -190063.67, 0.0, 2.5004888, 2.4983077 
3.5132256e+2, 3.7474993e+0, -187808.77, -848125.0, -3509.8901, 0.0075477134, 0.0035466652, -187790.11, -187790.11, 0.0, 2.500493, 2.4983072 
3.5132253e+2, 6.245832e+0, -185392.56, -846933.1, -4319.135, 0.008624063, 0.005914093, -185364.36, -185364.36, 0.0, 2.500497, 2.4983072 
3.5132253e+2, 8.7441653e+0, -182978.08, -845742.06, -5128.6035, 0.009717437, 0.0082839085, -182938.39, -182938.39, 0.0, 2.5005012, 2.4983072 
3.5132253e+2, 1.1242584e+1, -142865.6, -761778.0, -2486.7368, 0.009140362, 0.012130147, -142855.61, -142855.61, 0.0, 2.5005004, 2.4984517 
3.513225e+2, 1.374109e+1, -145421.03, -762609.94, -3263.26, 0.00691499, 0.017124962, -145403.78, -145403.78, 0.0, 2.5004957, 2.4984524 
3.5132247e+2, 1.6239594e+1, -148171.23, -763846.25, -3234.4539, 0.004700419, 0.022120444, -148154.25, -148154.25, 0.0, 2.500491, 2.4984527 
3.5132247e+2, 1.8738098e+1, -150922.19, -765082.94, -3206.0894, 0.0024966036, 0.027117003, -150905.45, -150905.45, 0.0, 2.5004861, 2.498453 
3.5132244e+2, 2.123666e+1, -106291.47, -670481.9, -4245.738, 0.001430714, 0.029763494, -106259.52, -106259.52, 0.0, 2.500484, 2.4986162 
3.5132244e+2, 2.3735277e+1, -104926.64, -669202.3, -6312.585, 0.0015360052, 0.029629903, -104856.02, -104856.02, 0.0, 2.5004857, 2.4986176 
3.5132244e+2, 2.6233894e+1, -103872.12, -668567.6, -7059.3022, 0.0016507097, 0.029502459, -103783.88, -103783.88, 0.0, 2.5004873, 2.498618 
3.513224e+2, 2.873251e+1, -102818.836, -667933.5, -7806.888, 0.0017747704, 0.029382179, -102711.01, -102711.01, 0.0, 2.500489, 2.4986181 
3.513224e+2, 3.1231222e+1, -61053.176, -579364.4, -5180.844, 0.0009093398, 0.030737784, -61001.4, -61001.4, 0.0, 2.500487, 2.498771 
3.5132238e+2, 3.3730015e+1, -63189.11, -579650.5, -7697.8237, -0.0009206222, 0.033017356, -63074.402, -63074.402, 0.0, 2.5004826, 2.4987726 
3.5132238e+2, 3.6228812e+1, -65695.93, -580710.0, -8731.832, -0.0027443501, 0.03530244, -65547.93, -65547.93, 0.0, 2.5004783, 2.4987729 
3.5132235e+2, 3.872761e+1, -68203.54, -581769.8, -9766.926, -0.0045619616, 0.037595116, -68017.86, -68017.86, 0.0, 2.5004737, 2.4987733 
3.5132235e+2, 4.1226494e+1, -28448.104, -494781.2, -9298.52, -0.0051515917, 0.041235108, -28262.768, -28262.768, 0.0, 2.500469, 2.4989247 
3.5132235e+2, 4.3725464e+1, -30273.877, -494848.72, -10648.746, -0.004171518, 0.04555272, -30029.92, -30029.92, 0.0, 2.500465, 2.4989266 
3.5132238e+2, 4.6224433e+1, -32511.506, -495774.63, -10759.063, -0.0031816608, 0.04987324, -32261.768, -32261.768, 0.0, 2.5004609, 2.4989269 
3.5132238e+2, 4.8723403e+1, -34750.32, -496701.1, -10870.562, -0.002183395, 0.05419983, -34494.656, -34494.656, 0.0, 2.500457, 2.4989274 
3.5132238e+2, 5.122244e+1, 9709.965, -400889.88, -8752.559, -0.0022998955, 0.056799274, 9896.454, 9896.454, 0.0, 2.5004532, 2.4990935 
3.5132238e+2, 5.3721535e+1, 8684.247, -400423.7, -10252.466, -0.003034757, 0.05664777, 8941.019, 8941.019, 0.0, 2.5004504, 2.4990957 
3.5132238e+2, 5.6220627e+1, 7138.9375, -401038.4, -11179.477, -0.00375841, 0.056498278, 7444.9004, 7444.9004, 0.0, 2.5004478, 2.499096 
3.5132238e+2, 5.8719724e+1, 5592.372, -401653.7, -12107.645, -0.004473741, 0.05635623, 5952.0215, 5952.0215, 0.0, 2.500445, 2.4990962 
3.5132238e+2, 6.121891e+1, 49430.02, -308469.66, -12598.177, -0.0053000893, 0.058083896, 49872.934, 49872.934, 0.0, 2.5004425, 2.4992573 
3.513224e+2, 6.37182e+1, 48864.652, -307990.8, -12678.161, -0.0056809583, 0.060642205, 49314.508, 49314.508, 0.0, 2.5004408, 2.499259 
3.513224e+2, 6.621748e+1, 47887.816, -308364.2, -13163.192, -0.006047718, 0.0631976, 48373.523, 48373.523, 0.0, 2.500439, 2.4992592 
3.513224e+2, 6.8716764e+1, 46909.387, -308738.34, -13649.534, -0.006403838, 0.06575682, 47432.477, 47432.477, 0.0, 2.5004373, 2.4992595 
3.5132244e+2, 7.1216124e+1, 88944.77, -218802.61, -10242.982, -0.0075999247, 0.06790406, 89285.32, 89285.32, 0.0, 2.5004344, 2.4994152 
3.5132247e+2, 7.371554e+1, 86427.38, -219616.39, -9012.764, -0.008102811, 0.06805515, 86692.57, 86692.57, 0.0, 2.5004296, 2.499416 
3.513225e+2, 7.621496e+1, 83681.53, -220895.11, -9349.282, -0.00857571, 0.068200566, 83968.25, 83968.25, 0.0, 2.5004249, 2.499416 
3.5132256e+2, 7.871437e+1, 80933.234, -222175.0, -9686.396, -0.009029555, 0.068351194, 81242.46, 81242.46, 0.0, 2.50042, 2.499416 
3.513226e+2, 8.1213874e+1, 124943.7, -131484.5, -13334.447, -0.008374046, 0.06921093, 125635.234, 125635.234, 0.0, 2.500421, 2.4995716 
3.5132265e+2, 8.371345e+1, 127821.63, -130329.21, -11346.046, -0.007753604, 0.0695666, 128319.34, 128319.34, 0.0, 2.500426, 2.499571 
3.5132268e+2, 8.621302e+1, 130847.3, -128850.37, -11822.314, -0.0071234866, 0.06991484, 131384.38, 131384.38, 0.0, 2.5004313, 2.499571 
3.5132274e+2, 8.871259e+1, 133868.31, -127373.766, -12299.094, -0.006475014, 0.07026452, 134446.06, 134446.06, 0.0, 2.5004365, 2.499571 
3.5132274e+2, 9.1212255e+1, 175822.64, -40177.887, -3826.7444, -0.009919135, 0.07251667, 175890.4, 175890.4, 0.0, 2.5004365, 2.4997208 
3.5132292e+2, 9.3711984e+1, 170683.0, -43869.945, -758.2477, -0.008124027, 0.073461264, 170685.69, 170685.69, 0.0, 2.500429, 2.4997182 
3.5132304e+2, 9.621171e+1, 166297.73, -45966.137, -787.0041, -0.0062205195, 0.07436076, 166300.66, 166300.66, 0.0, 2.5004213, 2.4997182 
3.513232e+2, 9.871143e+1, 161904.14, -48066.336, -813.8069, -0.00428388, 0.07524065, 161907.28, 161907.28, 0.0, 2.500414, 2.4997182 
3.5382307e+2, 1.2491677e+0, -191562.53, -852093.5, -2012.1282, 0.00681305, 0.001579697, -191556.39, -191556.39, 0.0, 2.5004888, 2.4983025 
3.5382304e+2, 3.7475032e+0, -189285.78, -851195.1, -2891.2866, 0.0065558134, 0.004740877, -189273.16, -189273.16, 0.0, 2.500493, 2.498302 
3.5382304e+2, 6.2458384e+0, -186867.27, -849999.5, -3698.0293, 0.006308359, 0.007904439, -186846.64, -186846.64, 0.0, 2.500497, 2.498302 
3.53823e+2, 8.744174e+0, -184450.45, -848804.75, -4504.996, 0.006070686, 0.011070384, -184419.9, -184419.9, 0.0, 2.5005012, 2.498302 
3.53823e+2, 1.12425864e+1, -142767.13, -761589.7, -3273.2058, 0.005477071, 0.014390198, -142749.81, -142749.81, 0.0, 2.5005004, 2.498452 
3.53823e+2, 1.3741072e+1, -145320.22, -762420.3, -3993.165, 0.0045430353, 0.017534293, -145294.38, -145294.38, 0.0, 2.5004957, 2.498453 
3.5382298e+2, 1.6239557e+1, -148069.98, -763659.2, -3962.8784, 0.003616232, 0.020680146, -148044.47, -148044.47, 0.0, 2.500491, 2.4984531 
3.5382298e+2, 1.8738043e+1, -150820.5, -764898.5, -3933.0337, 0.0026966415, 0.023828166, -150795.31, -150795.31, 0.0, 2.5004861, 2.4984531 
3.5382295e+2, 2.1236601e+1, -107572.34, -673197.0, -4085.8367, 0.0017777905, 0.026184712, -107542.83, -107542.83, 0.0, 2.500484, 2.4986115 
3.5382295e+2, 2.3735225e+1, -106237.43, -671985.2, -6062.2017, 0.00089196727, 0.027360229, -106172.484, -106172.484, 0.0, 2.5004857, 2.4986126 
3.5382292e+2, 2.6233852e+1, -105180.016, -671350.0, -6807.369, 0.000012299342, 0.02854222, -105098.17, -105098.17, 0.0, 2.5004873, 2.498613 
3.538229e+2, 2.873248e+1, -104123.83, -670715.44, -7553.4063, -0.00086128974, 0.029731648, -104023.15, -104023.15, 0.0, 2.5004892, 2.4986134 
3.538229e+2, 3.1231186e+1, -62835.992, -583171.2, -5964.7744, -0.0018119612, 0.031709436, -62767.625, -62767.625, 0.0, 2.5004873, 2.4987643 
3.538229e+2, 3.3729976e+1, -64990.785, -583503.44, -8376.202, -0.0028118188, 0.033940718, -64855.508, -64855.508, 0.0, 2.5004828, 2.498766 
3.5382286e+2, 3.6228764e+1, -67495.52, -584565.3, -9409.48, -0.003806912, 0.036178194, -67324.35, -67324.35, 0.0, 2.5004783, 2.4987662 
3.5382286e+2, 3.8727555e+1, -70001.05, -585627.5, -10443.843, -0.0047973073, 0.038423844, -69789.59, -69789.59, 0.0, 2.5004737, 2.4987667 
3.5382283e+2, 4.122643e+1, -28477.549, -495013.06, -10014.149, -0.005292792, 0.041500855, -28262.693, -28262.693, 0.0, 2.5004692, 2.4989243 
3.5382283e+2, 4.3725386e+1, -30307.32, -495096.4, -11258.871, -0.0050257808, 0.04475815, -30034.75, -30034.75, 0.0, 2.5004652, 2.4989262 
3.5382283e+2, 4.6224347e+1, -32542.805, -496024.9, -11368.177, -0.0047514467, 0.048018925, -32264.135, -32264.135, 0.0, 2.500461, 2.4989264 
3.5382283e+2, 4.8723304e+1, -34779.473, -496954.0, -11478.663, -0.004470892, 0.051286235, -34494.563, -34494.563, 0.0, 2.500457, 2.4989269 
3.5382283e+2, 5.122234e+1, 8278.451, -404101.5, -9248.36, -0.0046535386, 0.0539898, 8485.758, 8485.758, 0.0, 2.5004535, 2.4990878 
3.5382283e+2, 5.3721446e+1, 7183.895, -403785.63, -10680.389, -0.0047807912, 0.055236135, 7461.2725, 7461.2725, 0.0, 2.5004506, 2.4990897 
3.5382286e+2, 5.6220543e+1, 5640.546, -404403.1, -11606.354, -0.004898811, 0.05648496, 5968.8027, 5968.8027, 0.0, 2.500448, 2.49909 
3.5382286e+2, 5.8719647e+1, 4095.9404, -405021.16, -12533.477, -0.0050105536, 0.057741143, 4479.549, 4479.549, 0.0, 2.5004451, 2.4990904 
3.5382286e+2, 6.1218834e+1, 48836.54, -309994.38, -12898.627, -0.0056492826, 0.059463438, 49299.598, 49299.598, 0.0, 2.500443, 2.4992545 
3.5382286e+2, 6.3718104e+1, 48228.168, -309612.84, -12956.554, -0.0062992913, 0.0606397, 48696.68, 48696.68, 0.0, 2.500441, 2.499256 
3.5382286e+2, 6.621737e+1, 47253.035, -309990.3, -13439.713, -0.006937817, 0.06181252, 47757.93, 47757.93, 0.0, 2.5004394, 2.4992561 
3.5382286e+2, 6.871664e+1, 46276.3, -310368.56, -13924.182, -0.0075681754, 0.06298827, 46819.105, 46819.105, 0.0, 2.5004375, 2.4992564 
3.5382286e+2, 7.121599e+1, 88712.984, -219660.14, -10925.585, -0.008643259, 0.064821966, 89099.586, 89099.586, 0.0, 2.5004349, 2.4994135 
3.5382292e+2, 7.3715407e+1, 86130.59, -220613.55, -9740.49, -0.008644947, 0.06594913, 86439.586, 86439.586, 0.0, 2.50043, 2.4994142 
3.5382295e+2, 7.621484e+1, 83386.61, -221892.2, -10075.431, -0.008621375, 0.06707061, 83718.78, 83718.78, 0.0, 2.5004253, 2.4994142 
3.53823e+2, 7.871426e+1, 80640.17, -223172.05, -10410.967, -0.008583374, 0.068195984, 80996.516, 80996.516, 0.0, 2.5004206, 2.4994142 
3.5382304e+2, 8.121376e+1, 124521.1, -132804.13, -12503.136, -0.008102515, 0.06936438, 125127.19, 125127.19, 0.0, 2.5004215, 2.499569 
3.5382307e+2, 8.371332e+1, 127331.984, -131793.45, -10571.994, -0.008367259, 0.0694028, 127762.59, 127762.59, 0.0, 2.5004265, 2.4995682 
3.5382313e+2, 8.62129e+1, 130359.26, -130315.805, -11045.276, -0.008631007, 0.06943285, 130826.43, 130826.43, 0.0, 2.5004318, 2.4995682 
3.5382316e+2, 8.8712466e+1, 133381.88, -128840.39, -11519.07, -0.008884904, 0.06946295, 133886.92, 133886.92, 0.0, 2.500437, 2.4995685 
3.5382318e+2, 9.121212e+1, 176293.48, -39714.773, -4853.8027, -0.011736507, 0.07087007, 176402.5, 176402.5, 0.0, 2.500437, 2.4997213 
3.5382333e+2, 9.3711835e+1, 171090.69, -43528.855, -1897.3628, -0.007885768, 0.07083404, 171107.45, 171107.45, 0.0, 2.5004294, 2.4997184 
3.5382348e+2, 9.6211547e+1, 166703.23, -45619.336, -1919.944, -0.003943112, 0.070759505, 166720.6, 166720.6, 0.0, 2.500422, 2.4997184 
3.5382363e+2, 9.8711264e+1, 162307.45, -47713.824, -1940.5715, 0.000016815711, 0.07066883, 162325.39, 162325.39, 0.0, 2.5004144, 2.4997187 
3.5632354e+2, 1.24916896e+0, -193051.69, -855187.8, -1400.1155, 0.0071365526, 0.0019767957, -193048.73, -193048.73, 0.0, 2.5004888, 2.498297 
3.563235e+2, 3.7475067e+0, -190764.72, -854269.3, -2272.819, 0.0055604405, 0.005932169, -190756.94, -190756.94, 0.0, 2.500493, 2.4982967 
3.5632348e+2, 6.245845e+0, -188343.88, -853069.94, -3077.0598, 0.003986866, 0.009889919, -188329.64, -188329.64, 0.0, 2.500497, 2.4982967 
3.5632348e+2, 8.744184e+0, -185924.77, -851871.4, -3881.5247, 0.0024158307, 0.013850045, -185902.14, -185902.14, 0.0, 2.5005012, 2.4982967 
3.5632345e+2, 1.1242587e+1, -142676.94, -761418.6, -4059.0957, 0.0018202255, 0.01664716, -142650.31, -142650.31, 0.0, 2.5005004, 2.4984522 
3.5632345e+2, 1.3741055e+1, -145221.25, -762234.5, -4722.564, 0.0021768706, 0.01793762, -145185.11, -145185.11, 0.0, 2.5004957, 2.4984531 
3.5632345e+2, 1.6239521e+1, -147970.58, -763476.0, -4690.797, 0.0025371395, 0.019230917, -147934.84, -147934.84, 0.0, 2.500491, 2.4984534 
3.5632345e+2, 1.873799e+1, -150720.66, -764717.9, -4659.4717, 0.0029010782, 0.020527469, -150685.3, -150685.3, 0.0, 2.5004861, 2.4984536 
3.5632342e+2, 2.1236542e+1, -108860.99, -675928.25, -3920.2297, 0.0021213186, 0.022598939, -108833.89, -108833.89, 0.0, 2.5004842, 2.4986067 
3.563234e+2, 2.3735175e+1, -107549.88, -674771.56, -5811.19, 0.00024239656, 0.025080597, -107490.35, -107490.35, 0.0, 2.500486, 2.4986079 
3.5632336e+2, 2.6233807e+1, -106489.555, -674135.9, -6554.808, -0.0016335837, 0.027569018, -106413.875, -106413.875, 0.0, 2.5004876, 2.498608 
3.5632336e+2, 2.8732443e+1, -105430.46, -673500.75, -7299.296, -0.0035067627, 0.030065145, -105336.69, -105336.69, 0.0, 2.5004892, 2.4986086 
3.5632333e+2, 3.1231153e+1, -64633.54, -587008.7, -6745.5835, -0.0045291083, 0.03267005, -64546.445, -64546.445, 0.0, 2.5004873, 2.4987578 
3.5632333e+2, 3.3729935e+1, -66793.7, -587359.0, -9053.482, -0.0046992516, 0.0348511, -66636.3, -66636.3, 0.0, 2.5004828, 2.4987593 
3.563233e+2, 3.6228713e+1, -69296.36, -588423.2, -10086.029, -0.0048662093, 0.037038967, -69100.48, -69100.48, 0.0, 2.5004785, 2.4987595 
3.563233e+2, 3.8727498e+1, -71799.805, -589487.8, -11119.662, -0.0050298874, 0.0392356, -71561.07, -71561.07, 0.0, 2.500474, 2.49876 
3.563233e+2, 4.1226363e+1, -28520.77, -495273.56, -10722.093, -0.005432316, 0.04176044, -28274.594, -28274.594, 0.0, 2.5004694, 2.4989238 
3.5632327e+2, 4.3725312e+1, -30341.758, -495346.16, -11867.7705, -0.0058785686, 0.043955375, -30039.068, -30039.068, 0.0, 2.5004654, 2.4989257 
3.5632327e+2, 4.6224257e+1, -32575.096, -496277.28, -11976.064, -0.0063199513, 0.046154253, -32265.996, -32265.996, 0.0, 2.5004613, 2.498926 
3.5632324e+2, 4.872321e+1, -34809.62, -497208.97, -12085.539, -0.006757301, 0.048360124, -34493.96, -34493.96, 0.0, 2.5004573, 2.4989262 
3.5632324e+2, 5.122224e+1, 6834.1177, -407339.75, -9737.222, -0.007005811, 0.05116906, 7062.913, 7062.913, 0.0, 2.5004537, 2.499082 
3.5632324e+2, 5.372135e+1, 5682.713, -407149.28, -11107.088, -0.00652481, 0.053810664, 5981.3286, 5981.3286, 0.0, 2.500451, 2.4990838 
3.5632327e+2, 5.622046e+1, 4141.3237, -407769.5, -12032.008, -0.006036559, 0.056455225, 4492.482, 4492.482, 0.0, 2.5004482, 2.4990842 
3.5632327e+2, 5.871957e+1, 2598.6782, -408390.34, -12958.087, -0.005544076, 0.059107054, 3006.8286, 3006.8286, 0.0, 2.5004454, 2.4990845 
3.5632327e+2, 6.1218756e+1, 48215.28, -311576.75, -13193.258, -0.0060008345, 0.060844064, 48698.418, 48698.418, 0.0, 2.5004432, 2.4992516 
3.5632327e+2, 6.3718003e+1, 47590.563, -311237.2, -13233.432, -0.006917852, 0.06063438, 48077.94, 48077.94, 0.0, 2.5004416, 2.499253 
3.5632327e+2, 6.6217256e+1, 46617.13, -311618.75, -13714.718, -0.007825944, 0.060420435, 47141.414, 47141.414, 0.0, 2.5004396, 2.4992533 
3.5632327e+2, 6.871651e+1, 45642.098, -312001.1, -14197.314, -0.00872834, 0.060208514, 46204.8, 46204.8, 0.0, 2.500438, 2.4992535 
3.5632327e+2, 7.121585e+1, 88463.77, -220553.86, -11599.211, -0.009684368, 0.061738454, 88898.55, 88898.55, 0.0, 2.5004354, 2.4994118 
3.5632333e+2, 7.371528e+1, 85833.32, -221611.72, -10467.604, -0.009183744, 0.06384016, 86189.305, 86189.305, 0.0, 2.5004306, 2.4994123 
3.5632336e+2, 7.621471e+1, 83091.2, -222890.31, -10800.966, -0.008662556, 0.065936014, 83471.99, 83471.99, 0.0, 2.5004258, 2.4994123 
3.5632342e+2, 7.8714144e+1, 80346.625, -224170.1, -11134.923, -0.008131564, 0.06803446, 80753.24, 80753.24, 0.0, 2.500421, 2.4994123 
3.5632345e+2, 8.121365e+1, 124081.1, -134159.89, -11664.824, -0.00782962, 0.06951728, 124606.94, 124606.94, 0.0, 2.500422, 2.4995666 
3.5632348e+2, 8.371321e+1, 126841.74, -133258.97, -9797.362, -0.008979326, 0.06923659, 127210.266, 127210.266, 0.0, 2.500427, 2.4995656 
3.563235e+2, 8.6212766e+1, 129870.62, -131782.5, -10267.659, -0.01013665, 0.068946466, 130272.914, 130272.914, 0.0, 2.5004323, 2.4995656 
3.5632357e+2, 8.8712335e+1, 132894.83, -130308.27, -10738.468, -0.011292628, 0.068655014, 133332.22, 133332.22, 0.0, 2.5004375, 2.4995656 
3.563236e+2, 9.121198e+1, 176746.86, -39287.977, -5874.742, -0.013538298, 0.069240615, 176906.5, 176906.5, 0.0, 2.5004375, 2.4997218 
3.5632375e+2, 9.3711686e+1, 171497.69, -43189.18, -3038.6438, -0.007636734, 0.06822134, 171540.69, 171540.69, 0.0, 2.50043, 2.499719 
3.5632393e+2, 9.6211386e+1, 167108.06, -45273.95, -3055.0498, -0.0016599003, 0.06716974, 167152.0, 167152.0, 0.0, 2.5004225, 2.499719 
3.563241e+2, 9.871109e+1, 162710.11, -47362.727, -3069.502, 0.0043183444, 0.066105485, 162754.95, 162754.95, 0.0, 2.5004148, 2.499719 
3.5882404e+2, 1.24917015e+0, -192349.88, -857230.8, -809.5385, 0.007465059, 0.0023727661, -192348.89, -192348.89, 0.0, 2.5004926, 2.4982917 
3.58824e+2, 3.7475106e+0, -190089.36, -856311.9, -1721.2966, 0.004568532, 0.0071200496, -190084.9, -190084.9, 0.0, 2.5004966, 2.4982915 
3.5882398e+2, 6.2458515e+0, -187763.33, -855155.8, -2572.2207, 0.0016679803, 0.011869668, -187753.42, -187753.42, 0.0, 2.5005007, 2.4982915 
3.5882396e+2, 8.744192e+0, -185500.66, -854030.25, -3427.174, -0.0012365963, 0.016621621, -185483.1, -185483.1, 0.0, 2.5005045, 2.4982915 
3.5882396e+2, 1.1242588e+1, -140823.55, -760416.1, -5076.253, -0.0018194548, 0.018900206, -140781.97, -140781.97, 0.0, 2.5005035, 2.4984524 
3.5882396e+2, 1.3741037e+1, -143420.67, -761236.8, -5753.04, -0.00017486878, 0.018335452, -143367.11, -143367.11, 0.0, 2.5004988, 2.4984534 
3.5882396e+2, 1.6239487e+1, -146259.47, -762524.25, -5789.0015, 0.0014698968, 0.01777457, -146205.1, -146205.1, 0.0, 2.5004938, 2.4984536 
3.5882396e+2, 1.8737936e+1, -149120.92, -763822.56, -5824.8794, 0.0031149944, 0.017218001, -149065.73, -149065.73, 0.0, 2.5004888, 2.4984539 
3.5882393e+2, 2.1236482e+1, -108866.375, -678057.06, -4241.976, 0.0024657494, 0.019009454, -108834.76, -108834.76, 0.0, 2.5004864, 2.498602 
3.588239e+2, 2.3735124e+1, -107875.4, -677088.44, -6087.3047, -0.00040780264, 0.022793362, -107810.305, -107810.305, 0.0, 2.5004876, 2.498603 
3.5882387e+2, 2.6233765e+1, -107128.28, -676604.56, -6862.9263, -0.0032812895, 0.026584223, -107045.586, -107045.586, 0.0, 2.5004888, 2.4986033 
3.5882384e+2, 2.8732407e+1, -106396.03, -676127.9, -7638.277, -0.00615496, 0.030382993, -106293.65, -106293.65, 0.0, 2.50049, 2.4986036 
3.588238e+2, 3.123112e+1, -66401.53, -590855.4, -8115.01, -0.007235451, 0.0336193, -66275.99, -66275.99, 0.0, 2.5004876, 2.4987512 
3.588238e+2, 3.3729893e+1, -68807.01, -591317.6, -10282.306, -0.006577454, 0.035747908, -68604.74, -68604.74, 0.0, 2.5004826, 2.4987526 
3.588238e+2, 3.622867e+1, -71557.4, -592504.4, -11270.396, -0.0059177573, 0.037883796, -71313.68, -71313.68, 0.0, 2.5004778, 2.4987528 
3.5882375e+2, 3.8727444e+1, -74304.98, -593689.75, -12254.9375, -0.005255996, 0.040028926, -74015.98, -74015.98, 0.0, 2.5004728, 2.4987533 
3.5882375e+2, 4.12263e+1, -29475.896, -495995.84, -11848.222, -0.005566969, 0.04201214, -29175.182, -29175.182, 0.0, 2.500468, 2.4989233 
3.5882372e+2, 4.3725234e+1, -31409.756, -496095.78, -12883.384, -0.0067268033, 0.043142788, -31052.84, -31052.84, 0.0, 2.5004637, 2.498925 
3.588237e+2, 4.622417e+1, -33775.688, -497094.34, -12970.063, -0.007883864, 0.04427771, -33412.887, -33412.887, 0.0, 2.5004597, 2.4989254 
3.5882366e+2, 4.872311e+1, -36143.16, -498093.66, -13055.243, -0.009038734, 0.04542008, -35774.496, -35774.496, 0.0, 2.5004554, 2.4989257 
3.5882366e+2, 5.122214e+1, 3920.9624, -411302.47, -10527.58, -0.009352874, 0.048334833, 4187.7075, 4187.7075, 0.0, 2.5004516, 2.4990764 
3.588237e+2, 5.3721255e+1, 2565.282, -411289.03, -11750.006, -0.008263723, 0.052367356, 2898.6155, 2898.6155, 0.0, 2.5004485, 2.499078 
3.588237e+2, 5.6220376e+1, 883.48206, -411980.4, -12579.007, -0.0071689854, 0.05640316, 1266.3801, 1266.3801, 0.0, 2.5004454, 2.4990783 
3.588237e+2, 5.871949e+1, -782.52655, -412664.2, -13405.285, -0.006071735, 0.060446046, -346.69333, -346.69333, 0.0, 2.5004425, 2.4990785 
3.588237e+2, 6.121867e+1, 45692.313, -314115.7, -13413.449, -0.0063521685, 0.06221697, 46191.668, 46191.668, 0.0, 2.5004404, 2.4992487 
3.588237e+2, 6.37179e+1, 45224.598, -313691.8, -13358.53, -0.007533941, 0.06061795, 45721.105, 45721.105, 0.0, 2.500439, 2.4992502 
3.588237e+2, 6.621714e+1, 44410.2, -314001.4, -13753.388, -0.008708876, 0.059013702, 44937.184, 44937.184, 0.0, 2.5004373, 2.4992504 
3.588237e+2, 6.871637e+1, 43604.758, -314306.7, -14146.607, -0.009880189, 0.05741071, 44163.04, 44163.04, 0.0, 2.5004358, 2.4992504 
3.588237e+2, 7.1215713e+1, 87073.445, -222017.25, -11841.767, -0.010718657, 0.05864639, 87526.45, 87526.45, 0.0, 2.5004337, 2.49941 
3.5882375e+2, 7.371515e+1, 84790.38, -222961.86, -10662.093, -0.009714717, 0.06171973, 85159.33, 85159.33, 0.0, 2.5004296, 2.4994104 
3.588238e+2, 7.6214594e+1, 82414.38, -224064.75, -10881.999, -0.00869449, 0.06478701, 82800.28, 82800.28, 0.0, 2.5004256, 2.4994104 
3.5882384e+2, 7.8714025e+1, 80021.61, -225175.72, -11100.503, -0.0076687, 0.06785567, 80424.81, 80424.81, 0.0, 2.5004213, 2.4994104 
3.588239e+2, 8.121354e+1, 124060.02, -135330.0, -9927.489, -0.007549015, 0.06965824, 124439.414, 124439.414, 0.0, 2.5004232, 2.499564 
3.5882393e+2, 8.371309e+1, 127358.97, -134228.4, -7977.8525, -0.00958178, 0.06905686, 127602.055, 127602.055, 0.0, 2.5004294, 2.4995627 
3.5882396e+2, 8.6212647e+1, 130917.9, -132498.53, -8293.31, -0.011629707, 0.068444975, 131178.75, 131178.75, 0.0, 2.5004354, 2.4995627 
3.5882398e+2, 8.8712204e+1, 134428.84, -130791.77, -8609.67, -0.013683786, 0.067830466, 134708.05, 134708.05, 0.0, 2.5004413, 2.499563 
3.58824e+2, 9.1211843e+1, 179820.95, -37612.773, -5394.6997, -0.015308229, 0.067619175, 179954.72, 179954.72, 0.0, 2.5004427, 2.4997222 
3.588242e+2, 9.3711543e+1, 175182.08, -41258.676, -2551.7212, -0.0073606665, 0.06561546, 175212.17, 175212.17, 0.0, 2.500436, 2.4997191 
3.5882437e+2, 9.6211225e+1, 171213.34, -43134.7, -2432.8179, 0.000646675, 0.063584775, 171240.95, 171240.95, 0.0, 2.5004294, 2.4997191 
3.5882455e+2, 9.8710924e+1, 167019.38, -45119.184, -2318.2778, 0.008640896, 0.061544463, 167044.7, 167044.7, 0.0, 2.500422, 2.4997194 
3.6132452e+2, 1.2491675e+0, -184444.69, -855928.5, -436.9218, 0.0057979897, 0.0023821495, -184444.39, -184444.39, 0.0, 2.5005088, 2.4982862 
3.613245e+2, 3.7475026e+0, -184044.23, -855902.25, -1315.076, 0.0031814899, 0.007146804, -184041.66, -184041.66, 0.0, 2.5005097, 2.4982858 
3.6132446e+2, 6.245838e+0, -183523.81, -855624.44, -2133.7117, 0.0005839638, 0.011911933, -183517.05, -183517.05, 0.0, 2.5005107, 2.4982858 
3.6132443e+2, 8.744173e+0, -183004.88, -855347.3, -2952.536, -0.0019945882, 0.016677538, -182991.9, -182991.9, 0.0, 2.5005114, 2.498286 
3.6132443e+2, 1.12425625e+1, -137332.7, -760363.5, -5880.421, -0.0024683685, 0.018768031, -137277.2, -137277.2, 0.0, 2.5005114, 2.4984488 
3.6132443e+2, 1.3741003e+1, -137392.89, -759966.6, -7488.555, -0.00095286226, 0.01782171, -137302.83, -137302.83, 0.0, 2.5005107, 2.4984498 
3.6132443e+2, 1.6239445e+1, -137670.84, -760020.44, -8506.338, 0.00056928466, 0.016878238, -137554.6, -137554.6, 0.0, 2.5005102, 2.49845 
3.6132443e+2, 1.8737887e+1, -137950.31, -760075.06, -9524.657, 0.0020982346, 0.015938036, -137804.52, -137804.52, 0.0, 2.5005097, 2.49845 
3.613244e+2, 2.1236427e+1, -97890.82, -675211.3, -8251.748, 0.001383878, 0.017597612, -97772.9, -97772.9, 0.0, 2.5005078, 2.4985967 
3.6132437e+2, 2.3735066e+1, -98764.266, -675148.4, -10107.735, -0.0015131652, 0.021488762, -98587.06, -98587.06, 0.0, 2.500506, 2.4985976 
3.6132434e+2, 2.6233703e+1, -99863.72, -675555.8, -10975.315, -0.0044010635, 0.025383787, -99654.56, -99654.56, 0.0, 2.5005038, 2.4985979 
3.613243e+2, 2.873234e+1, -100964.2, -675963.75, -11843.895, -0.007280037, 0.02928369, -100720.34, -100720.34, 0.0, 2.5005019, 2.498598 
3.6132428e+2, 3.1231046e+1, -61497.023, -590114.44, -12732.514, -0.008273353, 0.032495905, -61190.52, -61190.52, 0.0, 2.5004976, 2.4987473 
3.6132428e+2, 3.3729815e+1, -64061.8, -590657.1, -13954.3125, -0.007484752, 0.034497928, -63692.285, -63692.285, 0.0, 2.5004926, 2.498749 
3.6132425e+2, 3.6228585e+1, -66969.164, -591914.06, -14107.294, -0.006688518, 0.036503386, -66590.32, -66590.32, 0.0, 2.5004873, 2.4987493 
3.6132425e+2, 3.8727355e+1, -69877.516, -593171.5, -14261.411, -0.005884105, 0.038514152, -69489.14, -69489.14, 0.0, 2.5004823, 2.4987497 
3.6132422e+2, 4.1226208e+1, -24519.863, -495580.13, -13740.309, -0.006156194, 0.04042558, -24119.414, -24119.414, 0.0, 2.5004787, 2.4989188 
3.613242e+2, 4.372514e+1, -24667.596, -494824.9, -15847.133, -0.0074032303, 0.041563448, -24134.059, -24134.059, 0.0, 2.5004776, 2.4989207 
3.6132416e+2, 4.6224073e+1, -25242.234, -494958.25, -17102.174, -0.00863807, 0.042704795, -24620.373, -24620.373, 0.0, 2.5004764, 2.498921 
3.6132413e+2, 4.8723003e+1, -25818.453, -495092.38, -18358.498, -0.009861192, 0.04385275, -25101.344, -25101.344, 0.0, 2.5004752, 2.4989214 
3.6132413e+2, 5.122203e+1, 13893.205, -407754.75, -16660.773, -0.01020825, 0.046683867, 14550.506, 14550.506, 0.0, 2.50047, 2.4990737 
3.6132413e+2, 5.372114e+1, 9164.571, -409383.66, -17114.068, -0.009160326, 0.050586917, 9863.185, 9863.185, 0.0, 2.500461, 2.4990752 
3.6132413e+2, 5.622026e+1, 4107.134, -411696.28, -17235.654, -0.008097205, 0.054491043, 4820.353, 4820.353, 0.0, 2.5004523, 2.4990754 
3.6132416e+2, 5.871937e+1, -951.8314, -414009.66, -17358.543, -0.0070217256, 0.058399785, -223.63142, -223.63142, 0.0, 2.5004435, 2.4990757 
3.6132416e+2, 6.121855e+1, 44054.543, -316042.97, -16322.53, -0.00715925, 0.060127985, 44792.9, 44792.9, 0.0, 2.5004387, 2.4992461 
3.6132413e+2, 6.371778e+1, 43930.793, -315473.2, -16325.241, -0.008012982, 0.05863973, 44670.813, 44670.813, 0.0, 2.5004377, 2.4992476 
3.6132413e+2, 6.621701e+1, 43465.973, -315607.97, -16799.516, -0.008846099, 0.05715147, 44250.24, 44250.24, 0.0, 2.500437, 2.4992478 
3.6132413e+2, 6.871624e+1, 42999.23, -315743.7, -17274.78, -0.009661911, 0.05566934, 43829.156, 43829.156, 0.0, 2.500436, 2.499248 
3.6132413e+2, 7.121558e+1, 86410.11, -222499.52, -15532.6, -0.010414106, 0.056840893, 87189.16, 87189.16, 0.0, 2.5004327, 2.4994097 
3.613242e+2, 7.371502e+1, 82526.875, -224254.13, -14264.564, -0.0096747, 0.059767798, 83188.72, 83188.72, 0.0, 2.500426, 2.49941 
3.6132422e+2, 7.6214457e+1, 78593.44, -226101.86, -14344.143, -0.00890743, 0.062693074, 79267.23, 79267.23, 0.0, 2.5004191, 2.49941 
3.6132425e+2, 7.87139e+1, 74657.12, -227950.97, -14424.707, -0.008122515, 0.06562339, 75343.16, 75343.16, 0.0, 2.5004122, 2.4994102 
3.6132428e+2, 8.12134e+1, 116964.586, -138326.03, -11374.185, -0.0078776395, 0.06744548, 117470.35, 117470.35, 0.0, 2.5004106, 2.499565 
3.6132434e+2, 8.371296e+1, 117635.04, -138519.42, -8828.516, -0.009291526, 0.067098774, 117938.96, 117938.96, 0.0, 2.5004122, 2.4995637 
3.6132437e+2, 8.6212516e+1, 118629.9, -138021.7, -8482.379, -0.010685594, 0.06674526, 118909.94, 118909.94, 0.0, 2.500414, 2.4995637 
3.6132443e+2, 8.871207e+1, 119620.69, -137525.95, -8136.269, -0.0120515665, 0.06639229, 119877.87, 119877.87, 0.0, 2.5004156, 2.4995637 
3.6132446e+2, 9.121172e+1, 163953.61, -44200.473, -5920.6978, -0.0133117335, 0.06617194, 164121.88, 164121.88, 0.0, 2.5004141, 2.4997246 
3.6132464e+2, 9.371142e+1, 159311.89, -47874.125, -3050.9456, -0.005745671, 0.064166404, 159356.81, 159356.81, 0.0, 2.5004077, 2.4997215 
3.613248e+2, 9.621111e+1, 155564.6, -49660.574, -2791.2969, 0.0019171234, 0.06212083, 155602.56, 155602.56, 0.0, 2.5004013, 2.4997215 
3.6132497e+2, 9.8710805e+1, 151808.38, -51451.324, -2529.9446, 0.009607018, 0.06005018, 151839.88, 151839.88, 0.0, 2.5003948, 2.4997215 
3.63825e+2, 1.24916136e+0, -185950.58, -859057.75, -315.44162, 0.0018340615, 0.002037002, -185950.44, -185950.44, 0.0, 2.5005088, 2.4982808 
3.63825e+2, 3.747484e+0, -185541.84, -859015.56, -1185.2456, 0.0009791222, 0.006111753, -185539.75, -185539.75, 0.0, 2.5005097, 2.4982805 
3.63825e+2, 6.245807e+0, -185020.92, -858738.0, -2001.5476, 0.00013585076, 0.010187502, -185014.98, -185014.98, 0.0, 2.5005107, 2.4982805 
3.63825e+2, 8.744129e+0, -184501.5, -858461.1, -2818.0383, -0.00069575256, 0.014264247, -184489.7, -184489.7, 0.0, 2.5005114, 2.4982805 
3.6382496e+2, 1.1242513e+1, -139168.97, -764196.44, -6015.5894, -0.0009905342, 0.016453197, -139111.08, -139111.08, 0.0, 2.5005114, 2.4984422 
3.6382496e+2, 1.3740957e+1, -139245.81, -763838.25, -7577.6465, -0.00079815247, 0.016431088, -139153.9, -139153.9, 0.0, 2.500511, 2.4984431 
3.6382493e+2, 1.6239403e+1, -139521.63, -763891.6, -8593.232, -0.0006039223, 0.016412392, -139403.38, -139403.38, 0.0, 2.5005102, 2.4984434 
3.6382493e+2, 1.8737847e+1, -139798.94, -763945.75, -9609.356, -0.00040778032, 0.016397495, -139651.03, -139651.03, 0.0, 2.5005097, 2.4984436 
3.638249e+2, 2.123638e+1, -99451.15, -678509.7, -8643.031, -0.001322578, 0.018054914, -99322.17, -99322.17, 0.0, 2.500508, 2.498591 
3.6382487e+2, 2.3735003e+1, -100308.8, -678419.56, -10415.046, -0.0033493566, 0.02098271, -100121.22, -100121.22, 0.0, 2.500506, 2.498592 
3.638248e+2, 2.6233625e+1, -101406.766, -678829.4, -11281.362, -0.0053702267, 0.023914775, -101186.445, -101186.445, 0.0, 2.500504, 2.4985921 
3.6382478e+2, 2.8732246e+1, -102505.76, -679239.7, -12148.677, -0.0073852018, 0.026852181, -102249.97, -102249.97, 0.0, 2.5005019, 2.4985926 
3.6382475e+2, 3.1230944e+1, -61659.39, -590556.3, -13620.739, -0.0081643835, 0.029465418, -61308.848, -61308.848, 0.0, 2.5004978, 2.4987466 
3.6382475e+2, 3.3729708e+1, -64240.98, -591140.44, -14733.547, -0.007824914, 0.031285916, -63829.313, -63829.313, 0.0, 2.5004926, 2.498748 
3.6382473e+2, 3.6228478e+1, -67146.55, -592400.0, -14885.592, -0.0074797897, 0.033110466, -66725.02, -66725.02, 0.0, 2.5004876, 2.4987483 
3.638247e+2, 3.8727245e+1, -70053.09, -593660.06, -15038.771, -0.007128448, 0.03494076, -69621.516, -69621.516, 0.0, 2.5004823, 2.4987488 
3.638247e+2, 4.1226098e+1, -26673.715, -500222.06, -14012.112, -0.0073769493, 0.037232693, -26259.463, -26259.463, 0.0, 2.5004787, 2.4989107 
3.6382467e+2, 4.372503e+1, -26844.086, -499521.84, -16022.479, -0.00810922, 0.039373435, -26301.59, -26301.59, 0.0, 2.5004778, 2.4989126 
3.6382464e+2, 4.6223965e+1, -27416.32, -499657.8, -17276.182, -0.008832731, 0.041518163, -26785.143, -26785.143, 0.0, 2.5004766, 2.4989128 
3.638246e+2, 4.8722896e+1, -27990.135, -499794.53, -18531.166, -0.009547992, 0.043669768, -27263.402, -27263.402, 0.0, 2.5004754, 2.498913 
3.6382458e+2, 5.122192e+1, 13840.527, -408092.3, -18058.047, -0.009893067, 0.046292797, 14611.973, 14611.973, 0.0, 2.5004702, 2.499073 
3.6382458e+2, 5.3721017e+1, 9131.96, -409687.4, -18449.734, -0.009455207, 0.048743155, 9943.133, 9943.133, 0.0, 2.5004613, 2.4990745 
3.6382458e+2, 5.6220114e+1, 4077.029, -412002.34, -18569.871, -0.009005918, 0.051194392, 4904.169, 4904.169, 0.0, 2.5004525, 2.4990747 
3.6382458e+2, 5.871921e+1, -979.42957, -414318.03, -18691.31, -0.00854752, 0.05365012, -135.92363, -135.92363, 0.0, 2.5004437, 2.499075 
3.6382455e+2, 6.1218387e+1, 43459.863, -317577.94, -16486.41, -0.008573, 0.055307645, 44211.137, 44211.137, 0.0, 2.5004392, 2.4992433 
3.6382458e+2, 6.3717633e+1, 43296.6, -317097.84, -16465.123, -0.008543293, 0.055311218, 44047.27, 44047.27, 0.0, 2.5004382, 2.4992447 
3.6382458e+2, 6.6216874e+1, 42834.17, -317234.7, -16937.566, -0.00849686, 0.05531532, 43629.156, 43629.156, 0.0, 2.5004373, 2.4992447 
3.6382458e+2, 6.871612e+1, 42369.816, -317372.5, -17411.0, -0.008437205, 0.05532518, 43210.52, 43210.52, 0.0, 2.5004363, 2.499245 
3.6382458e+2, 7.1215457e+1, 86585.53, -222502.16, -16522.182, -0.009163191, 0.056666806, 87466.21, 87466.21, 0.0, 2.5004332, 2.4994094 
3.638246e+2, 7.371488e+1, 82684.69, -224300.67, -15297.893, -0.009406704, 0.058479182, 83445.14, 83445.14, 0.0, 2.5004263, 2.4994097 
3.638246e+2, 7.621431e+1, 78754.22, -226148.94, -15375.051, -0.009629833, 0.06028948, 79527.56, 79527.56, 0.0, 2.5004196, 2.4994097 
3.6382464e+2, 7.871374e+1, 74820.87, -227998.6, -15453.195, -0.009841838, 0.062103868, 75607.414, 75607.414, 0.0, 2.5004127, 2.4994097 
3.6382467e+2, 8.121324e+1, 117977.375, -136657.1, -11070.051, -0.009240281, 0.06368875, 118457.734, 118457.734, 0.0, 2.500411, 2.4995675 
3.6382473e+2, 8.3712804e+1, 118643.17, -136861.83, -8579.831, -0.008718803, 0.064120695, 118930.95, 118930.95, 0.0, 2.5004127, 2.4995663 
3.6382478e+2, 8.621238e+1, 119638.5, -136364.06, -8230.889, -0.008184673, 0.064546965, 119902.86, 119902.86, 0.0, 2.5004144, 2.4995663 
3.638249e+2, 8.8711953e+1, 120629.76, -135868.28, -7881.973, -0.0076310164, 0.0649741, 120871.734, 120871.734, 0.0, 2.500416, 2.4995663 
3.6382493e+2, 9.12116e+1, 164908.88, -42752.484, -6808.7197, -0.00889937, 0.0654123, 165131.88, 165131.88, 0.0, 2.5004148, 2.4997268 
3.6382505e+2, 9.3711305e+1, 160277.5, -46394.375, -4023.8555, -0.003992566, 0.064237736, 160355.83, 160355.83, 0.0, 2.5004084, 2.4997237 
3.638252e+2, 9.6211016e+1, 156525.9, -48177.824, -3756.818, 0.0009867938, 0.06302924, 156594.83, 156594.83, 0.0, 2.500402, 2.4997237 
3.6382532e+2, 9.871072e+1, 152765.38, -49965.57, -3488.077, 0.0059743505, 0.061799463, 152825.38, 152825.38, 0.0, 2.5003953, 2.499724 
3.6632547e+2, 1.2491552e+0, -187457.28, -862188.7, -193.88545, -0.0021302942, 0.001690951, -187457.22, -187457.22, 0.0, 2.5005088, 2.4982755 
3.6632547e+2, 3.7474653e+0, -187041.34, -862132.9, -1055.2773, -0.0012245278, 0.005073992, -187039.69, -187039.69, 0.0, 2.5005097, 2.498275 
3.6632547e+2, 6.245776e+0, -186519.94, -861855.5, -1869.2458, -0.00031439945, 0.008458553, -186514.77, -186514.77, 0.0, 2.5005107, 2.4982753 
3.663255e+2, 8.744086e+0, -186000.02, -861578.9, -2683.4028, 0.0006000911, 0.011844633, -185989.36, -185989.36, 0.0, 2.5005114, 2.4982753 
3.663255e+2, 1.1242465e+1, -141012.44, -768044.4, -6148.6436, 0.000488525, 0.0141349435, -140952.14, -140952.14, 0.0, 2.5005114, 2.4984357 
3.6632547e+2, 1.3740912e+1, -141100.67, -767713.9, -7666.431, -0.000644058, 0.015033927, -141006.89, -141006.89, 0.0, 2.500511, 2.4984365 
3.6632544e+2, 1.6239358e+1, -141374.33, -767766.75, -8679.821, -0.0017795947, 0.015936878, -141254.08, -141254.08, 0.0, 2.5005102, 2.4984367 
3.663254e+2, 1.8737806e+1, -141649.5, -767820.4, -9693.749, -0.0029181105, 0.016844152, -141499.47, -141499.47, 0.0, 2.5005097, 2.498437 
3.6632538e+2, 2.1236333e+1, -101021.78, -681829.5, -9030.347, -0.004027897, 0.01850543, -100881.414, -100881.414, 0.0, 2.500508, 2.4985852 
3.6632535e+2, 2.3734939e+1, -101854.945, -681694.06, -10721.426, -0.0051847063, 0.020467194, -101656.766, -101656.766, 0.0, 2.500506, 2.4985864 
3.6632532e+2, 2.6233548e+1, -102951.43, -682106.3, -11586.479, -0.0063388743, 0.022433573, -102719.73, -102719.73, 0.0, 2.500504, 2.4985867 
3.663253e+2, 2.8732154e+1, -104048.93, -682519.0, -12452.529, -0.0074901762, 0.024405759, -103780.99, -103780.99, 0.0, 2.500502, 2.498587 
3.663253e+2, 3.123084e+1, -61832.6, -591020.6, -14503.633, -0.0080564525, 0.026425587, -61435.395, -61435.395, 0.0, 2.5004978, 2.4987457 
3.6632526e+2, 3.3729604e+1, -64421.508, -591626.5, -15511.736, -0.008166233, 0.028062321, -63965.508, -63965.508, 0.0, 2.5004928, 2.498747 
3.6632523e+2, 3.6228368e+1, -67325.27, -592888.75, -15662.844, -0.008272328, 0.029703666, -66858.9, -66858.9, 0.0, 2.5004876, 2.4987476 
3.663252e+2, 3.872713e+1, -70230.02, -594151.44, -15815.088, -0.008374169, 0.031351194, -69753.06, -69753.06, 0.0, 2.5004826, 2.4987478 
3.6632517e+2, 4.1225982e+1, -28840.736, -504891.38, -14276.66, -0.008598972, 0.034027964, -28412.967, -28412.967, 0.0, 2.500479, 2.4989026 
3.6632514e+2, 4.3724918e+1, -29021.643, -504221.0, -16196.614, -0.008816749, 0.037169624, -28470.24, -28470.24, 0.0, 2.5004778, 2.4989045 
3.663251e+2, 4.6223855e+1, -29591.473, -504359.56, -17448.979, -0.009029204, 0.040315717, -28951.041, -28951.041, 0.0, 2.5004768, 2.4989047 
3.663251e+2, 4.872279e+1, -30162.885, -504498.88, -18702.623, -0.009236879, 0.04346896, -29426.602, -29426.602, 0.0, 2.5004756, 2.498905 
3.6632508e+2, 5.12218e+1, 13773.394, -408459.94, -19449.39, -0.009577167, 0.04589361, 14667.4, 14667.4, 0.0, 2.5004704, 2.4990723 
3.6632505e+2, 5.3720886e+1, 9098.472, -409993.0, -19784.13, -0.009749415, 0.046889003, 10030.353, 10030.353, 0.0, 2.5004616, 2.4990737 
3.6632502e+2, 5.621997e+1, 4046.0469, -412310.25, -19902.818, -0.0099140415, 0.047884963, 4995.2847, 4995.2847, 0.0, 2.500453, 2.499074 
3.6632502e+2, 5.8719057e+1, -1007.905, -414628.22, -20022.809, -0.010072808, 0.048885282, -40.888332, -40.888332, 0.0, 2.5004442, 2.4990745 
3.66325e+2, 6.1218226e+1, 42846.56, -319151.63, -16642.443, -0.009988763, 0.050479997, 43610.063, 43610.063, 0.0, 2.5004394, 2.4992404 
3.6632502e+2, 6.371748e+1, 42661.703, -318723.97, -16603.97, -0.009075368, 0.051972833, 43422.973, 43422.973, 0.0, 2.5004385, 2.4992416 
3.6632502e+2, 6.621674e+1, 42201.66, -318862.9, -17074.584, -0.008149106, 0.053466618, 43007.313, 43007.313, 0.0, 2.5004377, 2.4992418 
3.6632505e+2, 6.8715996e+1, 41739.695, -319002.78, -17546.186, -0.0072137034, 0.05496579, 42591.113, 42591.113, 0.0, 2.5004368, 2.499242 
3.6632505e+2, 7.121533e+1, 86741.5, -222545.22, -17505.322, -0.007912341, 0.056491368, 87729.125, 87729.125, 0.0, 2.5004334, 2.4994092 
3.6632505e+2, 7.3714745e+1, 82841.97, -224348.31, -16330.293, -0.009138969, 0.057187364, 83707.65, 83707.65, 0.0, 2.5004268, 2.4994092 
3.6632505e+2, 7.6214164e+1, 78914.47, -226197.14, -16405.031, -0.010352713, 0.057880625, 79793.984, 79793.984, 0.0, 2.5004199, 2.4994094 
3.6632505e+2, 7.871358e+1, 74984.08, -228047.36, -16480.756, -0.011561858, 0.05857702, 75877.766, 75877.766, 0.0, 2.5004132, 2.4994094 
3.6632508e+2, 8.121308e+1, 118973.086, -135023.66, -10760.126, -0.010602544, 0.059931193, 119428.11, 119428.11, 0.0, 2.5004115, 2.4995701 
3.6632517e+2, 8.371266e+1, 119650.97, -135204.9, -8331.053, -0.008146126, 0.061140638, 119923.016, 119923.016, 0.0, 2.5004132, 2.499569 
3.6632526e+2, 8.621224e+1, 120646.766, -134707.13, -7979.304, -0.005684236, 0.06234541, 120895.86, 120895.86, 0.0, 2.5004148, 2.499569 
3.6632535e+2, 8.871182e+1, 121638.49, -134211.3, -7627.5835, -0.0032113863, 0.06355138, 121865.69, 121865.69, 0.0, 2.5004165, 2.499569 
3.6632538e+2, 9.121148e+1, 165847.42, -41339.27, -7682.439, -0.004479151, 0.06467163, 166131.89, 166131.89, 0.0, 2.5004153, 2.499729 
3.6632547e+2, 9.37112e+1, 161242.34, -44916.266, -4998.375, -0.0022347078, 0.06432449, 161363.45, 161363.45, 0.0, 2.500409, 2.499726 
3.663256e+2, 9.6210915e+1, 157486.42, -46696.71, -4723.9487, 0.000057999692, 0.06394913, 157595.66, 157595.66, 0.0, 2.5004025, 2.499726 
3.6632568e+2, 9.871063e+1, 153721.6, -48481.457, -4447.819, 0.002340002, 0.0635563, 153819.38, 153819.38, 0.0, 2.500396, 2.499726 
3.6882594e+2, 1.249149e+0, -186908.52, -864332.94, -94.321434, -0.0060842456, 0.0013442961, -186908.5, -186908.5, 0.0, 2.5005124, 2.49827 
3.6882597e+2, 3.7474468e+0, -186560.23, -864301.3, -990.6998, -0.003420867, 0.004034403, -186558.8, -186558.8, 0.0, 2.500513, 2.4982698 
3.68826e+2, 6.245745e+0, -186177.81, -864091.5, -1846.0571, -0.0007598515, 0.0067265294, -186172.78, -186172.78, 0.0, 2.5005138, 2.4982698 
3.6882603e+2, 8.744043e+0, -185862.63, -863914.1, -2701.8306, 0.0018988005, 0.009420676, -185851.86, -185851.86, 0.0, 2.5005143, 2.4982698 
3.6882603e+2, 1.1242417e+1, -141356.52, -771184.2, -6475.411, 0.001974226, 0.01181542, -141289.94, -141289.94, 0.0, 2.500514, 2.498429 
3.6882597e+2, 1.3740866e+1, -141492.55, -770890.9, -7995.794, -0.00048490564, 0.01363213, -141390.98, -141390.98, 0.0, 2.5005133, 2.4984298 
3.6882594e+2, 1.6239315e+1, -141849.77, -770985.0, -9056.276, -0.0029511119, 0.015453283, -141719.42, -141719.42, 0.0, 2.5005126, 2.49843 
3.6882585e+2, 1.8737765e+1, -142252.48, -771101.06, -10121.535, -0.0054244986, 0.017279217, -142089.61, -142089.61, 0.0, 2.500512, 2.4984303 
3.6882585e+2, 2.1236286e+1, -101577.09, -684679.3, -9798.358, -0.006723508, 0.01895049, -101412.49, -101412.49, 0.0, 2.5005097, 2.4985793 
3.6882582e+2, 2.3734877e+1, -102676.54, -684625.06, -11435.245, -0.0070119184, 0.019944191, -102451.92, -102451.92, 0.0, 2.5005074, 2.4985807 
3.688258e+2, 2.623347e+1, -104095.91, -685196.06, -12322.257, -0.0073006507, 0.020942684, -103834.73, -103834.73, 0.0, 2.5005047, 2.498581 
3.688258e+2, 2.873206e+1, -105541.26, -685779.6, -13209.7705, -0.0075892136, 0.021947311, -105240.68, -105240.68, 0.0, 2.500502, 2.4985812 
3.6882576e+2, 3.123074e+1, -62208.87, -591605.5, -15869.834, -0.007944446, 0.02337941, -61733.563, -61733.563, 0.0, 2.5004978, 2.498745 
3.6882573e+2, 3.37295e+1, -64914.51, -592270.9, -16823.787, -0.008504293, 0.024830014, -64378.344, -64378.344, 0.0, 2.5004923, 2.4987464 
3.6882567e+2, 3.622826e+1, -67939.04, -593594.8, -17018.557, -0.0090621505, 0.026285643, -67388.625, -67388.625, 0.0, 2.500487, 2.4987466 
3.6882564e+2, 3.872702e+1, -70968.21, -594921.06, -17212.805, -0.00961745, 0.02774781, -70403.35, -70403.35, 0.0, 2.5004816, 2.4987469 
3.688256e+2, 4.122587e+1, -31805.45, -509967.34, -15159.678, -0.009818735, 0.030812897, -31325.309, -31325.309, 0.0, 2.5004778, 2.4988945 
3.688256e+2, 4.3724808e+1, -32304.572, -509455.84, -16956.834, -0.009522645, 0.03495203, -31702.725, -31702.725, 0.0, 2.5004761, 2.4988961 
3.6882558e+2, 4.6223748e+1, -33187.43, -509749.16, -18168.564, -0.0092242705, 0.03909584, -32495.77, -32495.77, 0.0, 2.5004745, 2.4988966 
3.6882555e+2, 4.8722687e+1, -34067.523, -510041.1, -19380.717, -0.008924179, 0.04324692, -33279.684, -33279.684, 0.0, 2.5004728, 2.4988968 
3.6882553e+2, 5.122169e+1, 11862.345, -409742.22, -21311.605, -0.009257049, 0.04548192, 12936.882, 12936.882, 0.0, 2.5004675, 2.4990714 
3.688255e+2, 5.3720754e+1, 7348.672, -411130.38, -21578.334, -0.010040103, 0.045020197, 8458.389, 8458.389, 0.0, 2.500459, 2.4990733 
3.6882547e+2, 5.621983e+1, 2404.3047, -413399.25, -21681.656, -0.010818798, 0.044558685, 3531.8154, 3531.8154, 0.0, 2.5004504, 2.4990735 
3.6882544e+2, 5.8718896e+1, -2550.1157, -415672.97, -21788.07, -0.011594304, 0.044101484, -1404.193, -1404.193, 0.0, 2.5004418, 2.4990737 
3.688254e+2, 6.1218065e+1, 40753.445, -321468.25, -17200.98, -0.011403266, 0.04564042, 41568.44, 41568.44, 0.0, 2.5004373, 2.4992375 
3.6882544e+2, 6.371733e+1, 40575.563, -321050.63, -17112.252, -0.009606684, 0.048617948, 41383.51, 41383.51, 0.0, 2.5004363, 2.4992387 
3.6882547e+2, 6.62166e+1, 40127.574, -321186.94, -17539.893, -0.007800609, 0.051596783, 40977.047, 40977.047, 0.0, 2.5004356, 2.499239 
3.6882547e+2, 6.8715864e+1, 39676.68, -321324.66, -17967.25, -0.0059890226, 0.05458069, 40568.715, 40568.715, 0.0, 2.5004346, 2.499239 
3.6882547e+2, 7.121521e+1, 85695.71, -223195.5, -18711.547, -0.0066589266, 0.05630324, 86825.06, 86825.06, 0.0, 2.500432, 2.4994087 
3.6882547e+2, 7.3714614e+1, 82314.734, -224723.66, -17522.19, -0.008868318, 0.055881217, 83311.46, 83311.46, 0.0, 2.500426, 2.499409 
3.6882544e+2, 7.621401e+1, 78877.04, -226338.38, -17524.23, -0.011071582, 0.055455565, 79879.914, 79879.914, 0.0, 2.50042, 2.4994092 
3.6882544e+2, 7.871342e+1, 75424.93, -227960.05, -17526.04, -0.0132760005, 0.05503208, 76434.02, 76434.02, 0.0, 2.5004141, 2.4994092 
3.6882547e+2, 8.121292e+1, 120663.22, -133074.89, -10373.662, -0.011957339, 0.05616166, 121086.62, 121086.62, 0.0, 2.5004132, 2.4995725 
3.6882558e+2, 8.3712506e+1, 121725.56, -133026.42, -7901.5156, -0.007567612, 0.058146454, 121970.41, 121970.41, 0.0, 2.5004153, 2.4995716 
3.6882567e+2, 8.62121e+1, 123019.1, -132385.3, -7434.159, -0.0031788438, 0.060127437, 123235.31, 123235.31, 0.0, 2.5004177, 2.4995716 
3.688258e+2, 8.871169e+1, 124250.24, -131774.22, -6963.93, 0.0012130756, 0.062109895, 124439.516, 124439.516, 0.0, 2.5004196, 2.4995716 
3.6882582e+2, 9.1211355e+1, 168965.9, -38889.53, -7990.895, -0.000043468106, 0.063935556, 169272.66, 169272.66, 0.0, 2.5004196, 2.499731 
3.6882588e+2, 9.371109e+1, 165287.77, -41942.688, -5266.8145, -0.00046024876, 0.06441304, 165421.53, 165421.53, 0.0, 2.5004148, 2.4997282 
3.68826e+2, 9.6210814e+1, 162214.9, -43389.438, -4829.9043, -0.0008512271, 0.0648673, 162328.3, 162328.3, 0.0, 2.5004094, 2.4997284 
3.6882606e+2, 9.871054e+1, 158935.56, -44935.617, -4392.8096, -0.0012698655, 0.065307565, 159030.17, 159030.17, 0.0, 2.500404, 2.4997284 
3.7132648e+2, 1.2491437e+0, -169807.52, -859329.4, -634.8015, -0.006307204, 0.0011882911, -169806.94, -169806.94, 0.0, 2.5005453, 2.498263 
3.7132648e+2, 3.7474313e+0, -172615.34, -860811.3, -1967.5597, -0.003862697, 0.0035654078, -172609.72, -172609.72, 0.0, 2.5005405, 2.4982626 
3.713265e+2, 6.245719e+0, -175329.0, -862094.75, -3265.9478, -0.0014029066, 0.005943238, -175313.47, -175313.47, 0.0, 2.500536, 2.4982626 
3.7132654e+2, 8.744006e+0, -178044.47, -863379.06, -4564.946, 0.0010721668, 0.008321782, -178014.06, -178014.06, 0.0, 2.5005312, 2.4982626 
3.7132654e+2, 1.12423725e+1, -134445.88, -771541.5, -8324.706, 0.0010598267, 0.010680562, -134337.11, -134337.11, 0.0, 2.5005298, 2.4984207 
3.7132648e+2, 1.3740815e+1, -132858.86, -770437.2, -10168.161, -0.0013776032, 0.012739228, -132696.73, -132696.73, 0.0, 2.5005322, 2.4984214 
3.7132645e+2, 1.6239257e+1, -131445.63, -769692.0, -11583.828, -0.0037994354, 0.014799223, -131235.45, -131235.45, 0.0, 2.5005345, 2.4984217 
3.713264e+2, 1.8737702e+1, -130033.92, -768947.5, -12999.769, -0.0062057856, 0.016860891, -129769.53, -129769.53, 0.0, 2.500537, 2.498422 
3.713264e+2, 2.1236216e+1, -89017.16, -680860.0, -13679.03, -0.007324283, 0.01841704, -88701.164, -88701.164, 0.0, 2.5005338, 2.4985745 
3.7132636e+2, 2.3734796e+1, -93011.914, -682207.4, -14962.46, -0.0073666717, 0.018964812, -92632.19, -92632.19, 0.0, 2.5005264, 2.4985757 
3.7132633e+2, 2.6233378e+1, -97300.35, -684165.75, -15579.676, -0.0073999823, 0.019512659, -96887.05, -96887.05, 0.0, 2.5005188, 2.498576 
3.713263e+2, 2.8731963e+1, -101590.05, -686124.75, -16197.847, -0.007423615, 0.02006185, -101141.54, -101141.54, 0.0, 2.5005114, 2.4985762 
3.7132627e+2, 3.123063e+1, -58252.945, -592147.44, -19034.313, -0.00786341, 0.02129781, -57575.2, -57575.2, 0.0, 2.500507, 2.4987395 
3.7132624e+2, 3.372939e+1, -57872.09, -591328.25, -21085.777, -0.0088502895, 0.022812204, -57039.938, -57039.938, 0.0, 2.500507, 2.498741 
3.7132618e+2, 3.6228144e+1, -57807.652, -591167.5, -22470.121, -0.009828171, 0.024328727, -56862.676, -56862.676, 0.0, 2.500507, 2.4987411 
3.7132615e+2, 3.8726902e+1, -57744.625, -591007.44, -23855.635, -0.010796545, 0.025848918, -56679.566, -56679.566, 0.0, 2.500507, 2.4987414 
3.7132612e+2, 4.1225746e+1, -19193.248, -505699.47, -22437.268, -0.011017361, 0.028908374, -18160.652, -18160.652, 0.0, 2.5005014, 2.4988904 
3.713261e+2, 4.3724677e+1, -24762.342, -507628.13, -22963.11, -0.010397989, 0.03300653, -23672.77, -23672.77, 0.0, 2.5004911, 2.498892 
3.7132606e+2, 4.6223614e+1, -30724.535, -510375.13, -22986.127, -0.009764299, 0.037105285, -29625.496, -29625.496, 0.0, 2.5004807, 2.4988925 
3.7132606e+2, 4.8722544e+1, -36688.332, -513122.9, -23010.432, -0.009116561, 0.041207086, -35579.574, -35579.574, 0.0, 2.5004704, 2.4988928 
3.7132603e+2, 5.122155e+1, 9165.6, -412100.2, -24434.088, -0.009386923, 0.04336351, 10578.08, 10578.08, 0.0, 2.5004642, 2.499069 
3.7132597e+2, 5.372061e+1, 8742.255, -411497.88, -25095.822, -0.010403234, 0.042813443, 10235.615, 10235.615, 0.0, 2.5004625, 2.499071 
3.7132594e+2, 5.621968e+1, 7879.1514, -411807.7, -25648.219, -0.0113965105, 0.042264998, 9440.774, 9440.774, 0.0, 2.5004609, 2.4990711 
3.7132588e+2, 5.871874e+1, 7013.881, -412118.56, -26201.979, -0.012367885, 0.04172219, 8645.54, 8645.54, 0.0, 2.5004592, 2.4990714 
3.7132585e+2, 6.121791e+1, 49691.63, -317667.94, -21783.295, -0.012216564, 0.043243546, 50978.8, 50978.8, 0.0, 2.500453, 2.4992363 
3.7132588e+2, 6.371718e+1, 43362.906, -320210.7, -21203.96, -0.010364034, 0.046329826, 44595.363, 44595.363, 0.0, 2.5004416, 2.4992375 
3.713259e+2, 6.6216445e+1, 36762.727, -323311.47, -21144.016, -0.008488025, 0.04941927, 38000.08, 38000.08, 0.0, 2.5004303, 2.4992378 
3.713259e+2, 6.8715715e+1, 30160.35, -326413.28, -21085.336, -0.006592157, 0.052515294, 31402.863, 31402.863, 0.0, 2.500419, 2.499238 
3.713259e+2, 7.121506e+1, 74752.41, -228357.44, -21093.102, -0.007045678, 0.05416752, 76213.21, 76213.21, 0.0, 2.500413, 2.499409 
3.7132588e+2, 7.3714453e+1, 74263.62, -228459.78, -19894.52, -0.008989511, 0.05354264, 75565.45, 75565.45, 0.0, 2.500412, 2.4994094 
3.7132588e+2, 7.621386e+1, 73712.984, -228680.55, -19859.67, -0.010902774, 0.05291407, 75011.69, 75011.69, 0.0, 2.500411, 2.4994094 
3.7132585e+2, 7.8713256e+1, 73159.57, -228902.64, -19825.691, -0.012792082, 0.052287206, 74455.266, 74455.266, 0.0, 2.50041, 2.4994094 
3.7132588e+2, 8.121276e+1, 116602.94, -133453.53, -12826.273, -0.011358097, 0.053384133, 117259.12, 117259.12, 0.0, 2.5004044, 2.499576 
3.71326e+2, 8.371236e+1, 109227.336, -137400.64, -10414.423, -0.0069517083, 0.055573698, 109666.33, 109666.33, 0.0, 2.5003922, 2.4995751 
3.713261e+2, 8.621195e+1, 102100.8, -140809.58, -9928.689, -0.002521187, 0.05775838, 102505.945, 102505.945, 0.0, 2.5003798, 2.4995754 
3.713262e+2, 8.8711554e+1, 94969.805, -144220.66, -9443.116, 0.001936751, 0.059942994, 95342.03, 95342.03, 0.0, 2.5003676, 2.4995754 
3.7132624e+2, 9.121123e+1, 139242.84, -50977.484, -9038.747, 0.00093785266, 0.06202848, 139671.38, 139671.38, 0.0, 2.5003662, 2.499736 
3.7132633e+2, 9.371097e+1, 143528.1, -50105.836, -5951.7144, 0.00027193423, 0.06302576, 143710.86, 143710.86, 0.0, 2.5003748, 2.4997334 
3.713264e+2, 9.62107e+1, 148564.33, -47653.438, -5107.06, -0.00031446197, 0.06399157, 148697.17, 148697.17, 0.0, 2.5003836, 2.4997334 
3.7132645e+2, 9.871044e+1, 153593.42, -45204.49, -4261.2954, -0.00086904113, 0.064933516, 153684.72, 153684.72, 0.0, 2.5003922, 2.4997337 
3.7382704e+2, 1.24913946e+0, -172204.52, -864311.2, -1354.1886, -0.0037025898, 0.0011936519, -172201.88, -172201.88, 0.0, 2.5005453, 2.4982543 
3.7382704e+2, 3.7474185e+0, -175005.97, -865783.3, -2677.9739, -0.0031902408, 0.0035815956, -174995.6, -174995.6, 0.0, 2.5005405, 2.498254 
3.7382704e+2, 6.245698e+0, -177718.38, -867067.5, -3973.7466, -0.0026706862, 0.0059703933, -177695.47, -177695.47, 0.0, 2.500536, 2.498254 
3.7382704e+2, 8.7439764e+0, -180432.58, -868352.56, -5270.1294, -0.0021439255, 0.008360044, -180392.2, -180392.2, 0.0, 2.5005312, 2.498254 
3.7382704e+2, 1.12423316e+1, -137049.77, -776965.1, -8008.9663, -0.0024757315, 0.01054045, -136949.53, -136949.53, 0.0, 2.5005298, 2.4984114 
3.73827e+2, 1.3740762e+1, -135462.05, -775860.4, -9815.262, -0.003621774, 0.012217788, -135311.64, -135311.64, 0.0, 2.5005322, 2.4984121 
3.7382695e+2, 1.6239192e+1, -134048.97, -775116.5, -11228.524, -0.004757797, 0.013898374, -133852.36, -133852.36, 0.0, 2.5005345, 2.4984124 
3.7382692e+2, 1.8737622e+1, -132637.42, -774373.4, -12642.062, -0.0058838623, 0.015582573, -132388.47, -132388.47, 0.0, 2.500537, 2.4984126 
3.738269e+2, 2.1236126e+1, -90075.95, -683123.6, -14896.855, -0.006499331, 0.01690683, -89701.99, -89701.99, 0.0, 2.5005338, 2.4985704 
3.7382686e+2, 2.3734705e+1, -94095.78, -684528.56, -16094.184, -0.0067954944, 0.017459005, -93657.41, -93657.41, 0.0, 2.5005264, 2.4985716 
3.7382683e+2, 2.6233283e+1, -98382.42, -686488.4, -16709.893, -0.0070860866, 0.018012216, -97908.02, -97908.02, 0.0, 2.500519, 2.4985719 
3.738268e+2, 2.8731862e+1, -102670.31, -688448.9, -17326.557, -0.0073705763, 0.018567493, -102158.266, -102158.266, 0.0, 2.5005114, 2.498572 
3.7382677e+2, 3.1230527e+1, -60738.516, -597413.44, -19126.086, -0.008125159, 0.019965664, -60057.76, -60057.76, 0.0, 2.5005074, 2.4987304 
3.738267e+2, 3.3729276e+1, -60354.477, -596593.56, -21092.3, -0.009471439, 0.02178223, -59526.113, -59526.113, 0.0, 2.500507, 2.4987319 
3.7382668e+2, 3.6228028e+1, -60288.67, -596435.75, -22475.318, -0.010811884, 0.023601575, -59348.156, -59348.156, 0.0, 2.500507, 2.498732 
3.7382662e+2, 3.8726777e+1, -60224.277, -596278.6, -23859.504, -0.0121460315, 0.025425326, -59164.402, -59164.402, 0.0, 2.500507, 2.4987323 
3.738266e+2, 4.1225612e+1, -19127.04, -505714.56, -24086.85, -0.012416807, 0.028163925, -17937.61, -17937.61, 0.0, 2.5005016, 2.4988904 
3.7382656e+2, 4.3724537e+1, -24682.48, -507622.1, -24531.281, -0.011630438, 0.031334795, -23439.594, -23439.594, 0.0, 2.5004911, 2.498892 
3.7382653e+2, 4.6223462e+1, -30643.004, -510372.63, -24552.959, -0.010834117, 0.03450683, -29389.639, -29389.639, 0.0, 2.500481, 2.4988923 
3.738265e+2, 4.8722386e+1, -36605.133, -513123.94, -24575.922, -0.010027622, 0.037682347, -35341.01, -35341.01, 0.0, 2.5004704, 2.4988925 
3.7382647e+2, 5.122139e+1, 8320.159, -414083.22, -24736.078, -0.010167054, 0.03992039, 9763.778, 9763.778, 0.0, 2.5004644, 2.4990656 
3.738264e+2, 5.3720456e+1, 7894.481, -413494.2, -25338.482, -0.01101029, 0.040558938, 9412.638, 9412.638, 0.0, 2.5004628, 2.4990673 
3.7382638e+2, 5.621953e+1, 7034.387, -413805.66, -25888.816, -0.011834892, 0.041198943, 8621.008, 8621.008, 0.0, 2.500461, 2.4990675 
3.7382632e+2, 5.871861e+1, 6172.126, -414118.16, -26440.51, -0.012642402, 0.04184399, 7828.9697, 7828.9697, 0.0, 2.5004597, 2.4990678 
3.738263e+2, 6.121777e+1, 50006.25, -317298.75, -23508.07, -0.012676823, 0.04343604, 51504.688, 51504.688, 0.0, 2.5004535, 2.4992368 
3.738263e+2, 6.371703e+1, 43691.145, -319822.16, -22932.307, -0.0115002645, 0.04545958, 45132.12, 45132.12, 0.0, 2.500442, 2.499238 
3.738263e+2, 6.6216296e+1, 37094.168, -322924.78, -22870.547, -0.010305894, 0.04748482, 38541.227, 38541.227, 0.0, 2.5004306, 2.4992383 
3.738263e+2, 6.871555e+1, 30495.0, -326028.5, -22810.049, -0.009096496, 0.049515106, 31948.441, 31948.441, 0.0, 2.5004191, 2.4992385 
3.738263e+2, 7.1214885e+1, 75074.89, -228049.9, -21242.064, -0.009171095, 0.050897688, 76556.234, 76556.234, 0.0, 2.5004134, 2.4994094 
3.7382627e+2, 7.371429e+1, 74606.5, -228115.86, -20046.906, -0.0096997125, 0.050920725, 75928.27, 75928.27, 0.0, 2.5004125, 2.4994097 
3.7382627e+2, 7.62137e+1, 74058.08, -228337.31, -20009.965, -0.010204118, 0.05093986, 75376.414, 75376.414, 0.0, 2.5004115, 2.49941 
3.7382627e+2, 7.8713113e+1, 73506.875, -228560.11, -19973.895, -0.010690529, 0.05095983, 74821.91, 74821.91, 0.0, 2.5004103, 2.49941 
3.738263e+2, 8.1212616e+1, 117811.734, -131377.94, -14588.664, -0.009413331, 0.052224774, 118662.914, 118662.914, 0.0, 2.5004048, 2.4995794 
3.7382638e+2, 8.3712214e+1, 110484.195, -135226.61, -12271.037, -0.0067127543, 0.05414213, 111095.5, 111095.5, 0.0, 2.5003927, 2.4995787 
3.7382644e+2, 8.6211807e+1, 103356.63, -138638.31, -11782.416, -0.0039955648, 0.056055438, 103928.95, 103928.95, 0.0, 2.5003803, 2.4995787 
3.7382653e+2, 8.871141e+1, 96224.625, -142052.17, -11293.955, -0.0012589026, 0.05796911, 96758.74, 96758.74, 0.0, 2.500368, 2.4995787 
3.7382656e+2, 9.121108e+1, 141211.89, -47421.0, -7760.2583, -0.00190407, 0.059907056, 141530.61, 141530.61, 0.0, 2.500367, 2.499742 
3.7382665e+2, 9.371083e+1, 145570.83, -46388.203, -4645.6123, -0.0008066151, 0.061086092, 145683.19, 145683.19, 0.0, 2.5003755, 2.4997396 
3.7382674e+2, 9.621058e+1, 150602.36, -43935.82, -3795.534, 0.00035123542, 0.062237356, 150676.39, 150676.39, 0.0, 2.500384, 2.4997396 
3.7382686e+2, 9.871033e+1, 155626.75, -41486.88, -2944.3447, 0.0015275716, 0.06336687, 155670.72, 155670.72, 0.0, 2.5003927, 2.4997396 
3.763276e+2, 1.2491353e+0, -174602.47, -869295.0, -2072.8206, -0.001098388, 0.0011980984, -174596.28, -174596.28, 0.0, 2.5005453, 2.4982457 
3.7632757e+2, 3.7474057e+0, -177398.67, -870759.56, -3387.8809, -0.0025190217, 0.0035950406, -177382.11, -177382.11, 0.0, 2.5005405, 2.4982455 
3.7632754e+2, 6.245676e+0, -180109.8, -872044.56, -4681.0386, -0.003940527, 0.0059929765, -180078.14, -180078.14, 0.0, 2.500536, 2.4982455 
3.7632754e+2, 8.743947e+0, -182822.73, -873330.4, -5974.806, -0.0053629037, 0.0083919065, -182771.03, -182771.03, 0.0, 2.5005312, 2.4982455 
3.763275e+2, 1.1242291e+1, -139660.22, -782402.44, -7692.9595, -0.006009228, 0.010395194, -139568.16, -139568.16, 0.0, 2.5005298, 2.498402 
3.763275e+2, 1.3740708e+1, -138067.31, -781287.9, -9462.135, -0.0058651776, 0.011687735, -137928.16, -137928.16, 0.0, 2.5005322, 2.4984028 
3.7632748e+2, 1.6239125e+1, -136654.4, -780545.3, -10872.996, -0.005716696, 0.012985432, -136470.86, -136470.86, 0.0, 2.5005345, 2.498403 
3.7632748e+2, 1.8737541e+1, -135243.02, -779803.56, -12284.13, -0.0055637825, 0.0142886825, -135008.98, -135008.98, 0.0, 2.500537, 2.4984033 
3.7632746e+2, 2.1236038e+1, -91148.38, -685415.56, -16105.777, -0.005677046, 0.015392472, -90712.2, -90712.2, 0.0, 2.500534, 2.4985664 
3.7632743e+2, 2.3734611e+1, -95181.234, -686853.0, -17225.166, -0.0062280255, 0.015946476, -94680.19, -94680.19, 0.0, 2.5005264, 2.4985676 
3.7632737e+2, 2.6233184e+1, -99466.07, -688814.3, -17839.367, -0.0067769345, 0.016502397, -98926.57, -98926.57, 0.0, 2.500519, 2.4985678 
3.7632734e+2, 2.873176e+1, -103752.164, -690776.25, -18454.525, -0.0073233163, 0.017061109, -103172.57, -103172.57, 0.0, 2.5005116, 2.498568 
3.763273e+2, 3.123042e+1, -63233.992, -602700.06, -19215.27, -0.00838282, 0.01862189, -62550.43, -62550.43, 0.0, 2.5005074, 2.4987211 
3.7632725e+2, 3.3729163e+1, -62838.19, -601861.6, -21097.799, -0.010088623, 0.020738468, -62013.668, -62013.668, 0.0, 2.5005074, 2.4987226 
3.763272e+2, 3.622791e+1, -62771.02, -601706.8, -22479.486, -0.011791831, 0.02285846, -61835.008, -61835.008, 0.0, 2.5005074, 2.498723 
3.7632713e+2, 3.8726652e+1, -62705.26, -601552.6, -23862.344, -0.013491951, 0.024983594, -61650.605, -61650.605, 0.0, 2.5005074, 2.4987233 
3.763271e+2, 4.1225484e+1, -19073.344, -505755.7, -25729.195, -0.013824038, 0.027409423, -17716.912, -17716.912, 0.0, 2.5005019, 2.4988902 
3.7632704e+2, 4.3724397e+1, -24603.674, -507618.28, -26098.31, -0.01287058, 0.029651128, -23197.62, -23197.62, 0.0, 2.5004914, 2.498892 
3.76327e+2, 4.6223313e+1, -30562.531, -510372.38, -26118.646, -0.011911432, 0.03189447, -29144.94, -29144.94, 0.0, 2.5004811, 2.4988923 
3.7632698e+2, 4.8722225e+1, -36522.992, -513127.22, -26140.27, -0.01094598, 0.03414173, -35093.566, -35093.566, 0.0, 2.5004706, 2.4988925 
3.7632692e+2, 5.122123e+1, 7459.5938, -416097.66, -25030.2, -0.0109447455, 0.036468726, 8933.629, 8933.629, 0.0, 2.5004647, 2.499062 
3.7632686e+2, 5.372031e+1, 7045.7476, -415492.47, -25580.018, -0.011614772, 0.038293406, 8588.7, 8588.7, 0.0, 2.500463, 2.4990637 
3.763268e+2, 5.621939e+1, 6188.6626, -415805.6, -26128.287, -0.012270674, 0.040119283, 7800.2725, 7800.2725, 0.0, 2.5004613, 2.499064 
3.7632677e+2, 5.871847e+1, 5329.411, -416119.78, -26677.918, -0.012914294, 0.041949607, 7011.422, 7011.422, 0.0, 2.50046, 2.4990642 
3.7632674e+2, 6.1217636e+1, 50302.9, -316966.94, -25226.275, -0.013145262, 0.043620575, 52027.49, 52027.49, 0.0, 2.5004537, 2.4992373 
3.763267e+2, 6.371688e+1, 44018.75, -319434.94, -24659.498, -0.0126444185, 0.04457938, 45684.207, 45684.207, 0.0, 2.5004423, 2.4992385 
3.7632668e+2, 6.6216135e+1, 37424.98, -322539.47, -24595.92, -0.012131301, 0.045538295, 39097.816, 39097.816, 0.0, 2.5004308, 2.4992387 
3.7632668e+2, 6.8715376e+1, 30829.018, -325645.06, -24533.605, -0.0116079915, 0.046500724, 32509.57, 32509.57, 0.0, 2.5004194, 2.499239 
3.7632665e+2, 7.121471e+1, 75381.266, -227775.88, -21384.07, -0.011297728, 0.04762559, 76882.22, 76882.22, 0.0, 2.5004137, 2.4994097 
3.7632668e+2, 7.3714125e+1, 74948.91, -227772.94, -20198.465, -0.010410841, 0.04829522, 76290.66, 76290.66, 0.0, 2.5004127, 2.4994102 
3.7632668e+2, 7.6213545e+1, 74402.695, -227995.1, -20159.432, -0.009506192, 0.04896056, 75740.7, 75740.7, 0.0, 2.5004117, 2.4994102 
3.763267e+2, 7.871296e+1, 73853.7, -228218.58, -20121.27, -0.00858951, 0.04962585, 75188.1, 75188.1, 0.0, 2.5004108, 2.4994104 
3.763267e+2, 8.121247e+1, 119004.27, -129336.14, -16341.38, -0.0074743545, 0.05106259, 120074.95, 120074.95, 0.0, 2.5004053, 2.4995828 
3.7632677e+2, 8.3712065e+1, 111740.59, -133053.58, -14127.187, -0.006478151, 0.052705962, 112553.18, 112553.18, 0.0, 2.5003932, 2.4995823 
3.763268e+2, 8.621167e+1, 104612.016, -136468.05, -13635.679, -0.0054727704, 0.05434604, 105380.805, 105380.805, 0.0, 2.5003808, 2.4995823 
3.7632686e+2, 8.871127e+1, 97478.98, -139884.66, -13144.331, -0.0044558626, 0.055986907, 98204.65, 98204.65, 0.0, 2.5003686, 2.4995823 
3.7632692e+2, 9.1210943e+1, 143157.52, -43913.23, -6465.1196, -0.004754802, 0.057809323, 143380.69, 143380.69, 0.0, 2.5003674, 2.4997478 
3.7632704e+2, 9.37107e+1, 147612.86, -42672.0, -3340.2974, -0.001893341, 0.059166938, 147671.48, 147671.48, 0.0, 2.500376, 2.4997456 
3.7632716e+2, 9.6210456e+1, 152639.72, -40219.633, -2484.7942, 0.0010095191, 0.060499936, 152671.72, 152671.72, 0.0, 2.5003846, 2.4997458 
3.7632728e+2, 9.8710215e+1, 157659.4, -37770.707, -1628.1805, 0.0039175334, 0.061813295, 157672.97, 157672.97, 0.0, 2.5003932, 2.4997458 
3.788282e+2, 1.249131e+0, -175610.02, -873611.4, -2801.9768, 0.0015098746, 0.0012017435, -175598.77, -175598.77, 0.0, 2.5005476, 2.4982371 
3.7882814e+2, 3.747393e+0, -178303.22, -875023.1, -4131.6396, -0.0018436122, 0.003606022, -178278.72, -178278.72, 0.0, 2.500543, 2.498237 
3.788281e+2, 6.245655e+0, -180966.02, -876286.3, -5445.9595, -0.0052053556, 0.0060113566, -180923.36, -180923.36, 0.0, 2.5005386, 2.498237 
3.7882802e+2, 8.7439173e+0, -183682.38, -877575.25, -6761.4653, -0.008575355, 0.008417746, -183616.48, -183616.48, 0.0, 2.5005338, 2.4982371 
3.78828e+2, 1.124225e+1, -140841.42, -787162.25, -7476.73, -0.009530949, 0.010245608, -140754.94, -140754.94, 0.0, 2.5005324, 2.4983928 
3.78828e+2, 1.3740654e+1, -139426.33, -786119.2, -9218.927, -0.008100063, 0.01115067, -139294.94, -139294.94, 0.0, 2.5005343, 2.4983935 
3.7882802e+2, 1.6239057e+1, -138254.88, -785494.56, -10638.712, -0.006669925, 0.012062554, -138080.05, -138080.05, 0.0, 2.5005364, 2.4983938 
3.7882802e+2, 1.873746e+1, -137138.75, -784896.56, -12059.99, -0.0052404646, 0.012981696, -136914.3, -136914.3, 0.0, 2.500538, 2.4983938 
3.78828e+2, 2.1235949e+1, -91718.82, -687492.0, -17473.465, -0.004853073, 0.013876649, -91206.78, -91206.78, 0.0, 2.500535, 2.4985626 
3.7882793e+2, 2.3734517e+1, -95816.33, -688968.0, -18580.781, -0.0056603123, 0.014430145, -95234.84, -95234.84, 0.0, 2.5005274, 2.4985635 
3.788279e+2, 2.623309e+1, -100173.26, -690966.75, -19253.479, -0.006468709, 0.014986322, -99546.47, -99546.47, 0.0, 2.5005198, 2.4985638 
3.7882784e+2, 2.8731656e+1, -104541.65, -692971.06, -19929.434, -0.007277889, 0.015545958, -103867.43, -103867.43, 0.0, 2.5005121, 2.498564 
3.7882778e+2, 3.1230313e+1, -65684.586, -607984.8, -19684.332, -0.008632152, 0.017269496, -64971.023, -64971.023, 0.0, 2.5005076, 2.498712 
3.7882772e+2, 3.372905e+1, -65659.89, -607299.1, -21489.078, -0.010697088, 0.019683205, -64808.67, -64808.67, 0.0, 2.5005069, 2.4987135 
3.7882766e+2, 3.6227787e+1, -65985.26, -607337.5, -22876.045, -0.012762391, 0.022100756, -65020.3, -65020.3, 0.0, 2.5005062, 2.4987137 
3.788276e+2, 3.872653e+1, -66314.51, -607377.75, -24266.46, -0.014827459, 0.024523996, -65228.348, -65228.348, 0.0, 2.5005054, 2.498714 
3.7882757e+2, 4.122535e+1, -20353.984, -506467.9, -27796.23, -0.015232497, 0.026644442, -18769.746, -18769.746, 0.0, 2.5004997, 2.49889 
3.788275e+2, 4.3724254e+1, -25837.424, -508257.22, -28149.912, -0.014113576, 0.027954984, -24200.39, -24200.39, 0.0, 2.5004892, 2.4988918 
3.7882748e+2, 4.622316e+1, -31794.0, -511014.88, -28224.246, -0.012992628, 0.029267509, -30137.428, -30137.428, 0.0, 2.500479, 2.498892 
3.7882742e+2, 4.8722064e+1, -37761.918, -513778.0, -28301.4, -0.011868757, 0.030584347, -36085.17, -36085.17, 0.0, 2.5004685, 2.4988923 
3.7882736e+2, 5.122106e+1, 5194.556, -418819.75, -25954.53, -0.01171737, 0.033006553, 6777.362, 6777.362, 0.0, 2.5004625, 2.4990582 
3.7882733e+2, 5.372015e+1, 4683.949, -418228.47, -26481.945, -0.012213993, 0.036012933, 6335.745, 6335.745, 0.0, 2.5004606, 2.4990602 
3.7882727e+2, 5.6219244e+1, 3710.4668, -418601.06, -27053.488, -0.012700796, 0.039020166, 5436.4727, 5436.4727, 0.0, 2.500459, 2.4990604 
3.7882724e+2, 5.8718336e+1, 2738.1514, -418973.1, -27628.281, -0.013179807, 0.04203127, 4540.5063, 4540.5063, 0.0, 2.500457, 2.4990606 
3.7882718e+2, 6.12175e+1, 48885.402, -317495.2, -27669.955, -0.013617941, 0.0437883, 50963.32, 50963.32, 0.0, 2.500451, 2.4992378 
3.7882715e+2, 6.3716733e+1, 42873.92, -319763.84, -27128.88, -0.013792778, 0.043680236, 44892.2, 44892.2, 0.0, 2.5004401, 2.499239 
3.7882712e+2, 6.6215974e+1, 36506.32, -322763.06, -27077.223, -0.013960282, 0.043570675, 38535.6, 38535.6, 0.0, 2.5004292, 2.4992392 
3.788271e+2, 6.871521e+1, 30135.064, -325764.0, -27029.23, -0.014121955, 0.043463204, 32176.129, 32176.129, 0.0, 2.500418, 2.4992394 
3.7882707e+2, 7.1214545e+1, 74898.555, -227908.11, -22279.04, -0.013421184, 0.04434153, 76528.96, 76528.96, 0.0, 2.500413, 2.49941 
3.788271e+2, 7.3713964e+1, 74787.37, -227673.81, -21063.328, -0.011119759, 0.045654904, 76247.164, 76247.164, 0.0, 2.5004122, 2.4994106 
3.7882712e+2, 7.6213384e+1, 74485.586, -227779.88, -20974.754, -0.008806431, 0.04696363, 75934.12, 75934.12, 0.0, 2.5004117, 2.4994106 
3.7882715e+2, 7.8712815e+1, 74153.74, -227900.42, -20885.363, -0.006486346, 0.048271637, 75591.01, 75591.01, 0.0, 2.5004113, 2.4994106 
3.7882715e+2, 8.1212324e+1, 120553.75, -127144.12, -18640.816, -0.005537862, 0.049883258, 121948.734, 121948.734, 0.0, 2.5004065, 2.4995859 
3.7882718e+2, 8.371192e+1, 114030.625, -130379.14, -16470.37, -0.0062437025, 0.051250435, 115135.54, 115135.54, 0.0, 2.5003953, 2.4995859 
3.7882718e+2, 8.6211526e+1, 107553.234, -133482.23, -15906.389, -0.006947307, 0.05261502, 108598.4, 108598.4, 0.0, 2.500384, 2.4995859 
3.788272e+2, 8.871112e+1, 101062.59, -136591.72, -15341.816, -0.007646915, 0.053980842, 102048.89, 102048.89, 0.0, 2.5003731, 2.4995859 
3.7882724e+2, 9.1210806e+1, 147886.64, -39091.117, -5389.209, -0.007605809, 0.055719238, 148041.84, 148041.84, 0.0, 2.500373, 2.4997535 
3.788274e+2, 9.371057e+1, 152652.22, -37502.508, -2118.503, -0.0029780203, 0.057251733, 152675.83, 152675.83, 0.0, 2.5003817, 2.4997518 
3.7882754e+2, 9.6210325e+1, 157709.86, -35033.504, -1108.7183, 0.0016737654, 0.058762312, 157716.23, 157716.23, 0.0, 2.5003903, 2.4997518 
3.788277e+2, 9.871009e+1, 162604.86, -32642.818, -102.115654, 0.006318837, 0.060255446, 162604.92, 162604.92, 0.0, 2.5003989, 2.499752 
3.8132873e+2, 1.24912605e+0, -161682.73, -871134.7, -3147.0366, 0.0011266407, 0.0011906885, -161668.78, -161668.78, 0.0, 2.500576, 2.4982278 
3.8132867e+2, 3.7473783e+0, -160985.27, -870910.44, -4683.7217, -0.0022387765, 0.0035705448, -160954.38, -160954.38, 0.0, 2.5005774, 2.4982276 
3.8132864e+2, 6.245631e+0, -160208.5, -870519.6, -6209.1396, -0.0055909157, 0.0059483745, -160154.23, -160154.23, 0.0, 2.5005786, 2.4982276 
3.8132858e+2, 8.7438834e+0, -159432.9, -870129.4, -7734.304, -0.008929776, 0.008324177, -159348.75, -159348.75, 0.0, 2.50058, 2.4982276 
3.8132855e+2, 1.12422064e+1, -116894.766, -779251.56, -8490.016, -0.009833622, 0.010001738, -116785.96, -116785.96, 0.0, 2.5005774, 2.4983847 
3.8132855e+2, 1.3740599e+1, -120286.73, -780535.0, -9808.611, -0.0083627505, 0.010642214, -120141.04, -120141.04, 0.0, 2.5005713, 2.4983854 
3.8132858e+2, 1.623899e+1, -123866.73, -782207.56, -10845.216, -0.0068814806, 0.01128131, -123688.12, -123688.12, 0.0, 2.500565, 2.4983857 
3.8132858e+2, 1.8737385e+1, -127448.164, -783880.8, -11882.692, -0.0053897044, 0.01191945, -127233.13, -127233.13, 0.0, 2.5005589, 2.4983857 
3.8132855e+2, 2.1235862e+1, -82518.586, -686474.75, -17967.209, -0.005081288, 0.012720675, -81984.55, -81984.55, 0.0, 2.5005543, 2.498555 
3.813285e+2, 2.3734425e+1, -83341.96, -686395.5, -19931.986, -0.0060759597, 0.013377071, -82683.89, -82683.89, 0.0, 2.5005524, 2.498556 
3.8132843e+2, 2.6232988e+1, -84408.43, -686821.2, -21512.627, -0.007064326, 0.014033912, -83641.18, -83641.18, 0.0, 2.5005505, 2.4985561 
3.8132837e+2, 2.8731552e+1, -85475.945, -687247.4, -23094.084, -0.008046113, 0.014691974, -84590.97, -84590.97, 0.0, 2.5005486, 2.4985564 
3.813283e+2, 3.12302e+1, -47413.7, -601841.3, -23063.033, -0.009275136, 0.016386129, -46455.98, -46455.98, 0.0, 2.5005417, 2.498706 
3.8132825e+2, 3.372893e+1, -53290.023, -604006.6, -23785.12, -0.010957648, 0.01866881, -52264.668, -52264.668, 0.0, 2.500531, 2.4987075 
3.813282e+2, 3.622766e+1, -59518.625, -606905.3, -24162.164, -0.012629741, 0.020948876, -58454.156, -58454.156, 0.0, 2.5005202, 2.4987078 
3.8132814e+2, 3.872639e+1, -65748.5, -609804.56, -24540.203, -0.014290626, 0.023228059, -64643.836, -64643.836, 0.0, 2.5005093, 2.498708 
3.8132808e+2, 4.1225207e+1, -20138.994, -507649.84, -28117.434, -0.014805779, 0.025119783, -18522.666, -18522.666, 0.0, 2.5005014, 2.498887 
3.8132802e+2, 4.3724105e+1, -22149.59, -507749.4, -28998.14, -0.014302577, 0.026118428, -20424.066, -20424.066, 0.0, 2.500497, 2.498889 
3.8132793e+2, 4.622301e+1, -24641.639, -508849.3, -29663.266, -0.013781951, 0.027116163, -22831.193, -22831.193, 0.0, 2.5004926, 2.4988892 
3.8132787e+2, 4.8721904e+1, -27135.555, -509950.13, -30329.584, -0.013243085, 0.028115328, -25237.762, -25237.762, 0.0, 2.5004883, 2.4988894 
3.813278e+2, 5.12209e+1, 14812.918, -415567.63, -28049.03, -0.013116014, 0.030412365, 16633.248, 16633.248, 0.0, 2.5004804, 2.4990551 
3.8132778e+2, 5.371999e+1, 8824.759, -417601.3, -28240.68, -0.013125417, 0.033523083, 10686.906, 10686.906, 0.0, 2.5004692, 2.499057 
3.8132772e+2, 5.621908e+1, 2354.8267, -420633.0, -28508.402, -0.013116182, 0.03663497, 4267.5776, 4267.5776, 0.0, 2.500458, 2.4990573 
3.813277e+2, 5.871817e+1, -4117.201, -423665.7, -28777.588, -0.013090024, 0.03975088, -2152.495, -2152.495, 0.0, 2.5004468, 2.4990575 
3.8132763e+2, 6.1217326e+1, 40893.445, -321376.16, -29105.809, -0.013429956, 0.041425616, 43216.99, 43216.99, 0.0, 2.5004375, 2.4992375 
3.8132757e+2, 6.3716567e+1, 36653.297, -322734.78, -28580.871, -0.013950672, 0.04106351, 38912.035, 38912.035, 0.0, 2.5004294, 2.4992392 
3.8132754e+2, 6.6215795e+1, 32018.514, -324907.34, -28544.842, -0.014448558, 0.040703595, 34286.945, 34286.945, 0.0, 2.5004213, 2.4992392 
3.8132748e+2, 6.8715036e+1, 27381.205, -327081.13, -28509.908, -0.0149249, 0.040349346, 29659.65, 29659.65, 0.0, 2.5004134, 2.4992394 
3.8132745e+2, 7.121437e+1, 71009.95, -229315.78, -22890.057, -0.0141653195, 0.041172408, 72744.56, 72744.56, 0.0, 2.5004056, 2.4994109 
3.8132748e+2, 7.371379e+1, 66350.98, -231189.83, -21505.613, -0.011541658, 0.042666167, 67897.32, 67897.32, 0.0, 2.5003972, 2.4994118 
3.813275e+2, 7.6213217e+1, 61478.598, -233494.9, -21227.79, -0.008884157, 0.044162072, 62998.426, 62998.426, 0.0, 2.5003889, 2.4994118 
3.8132754e+2, 7.871265e+1, 56602.95, -235801.55, -20951.14, -0.006197093, 0.0456638, 58096.496, 58096.496, 0.0, 2.5003805, 2.499412 
3.8132754e+2, 8.1212157e+1, 102063.92, -135097.34, -19380.4, -0.0053345794, 0.047279697, 103637.21, 103637.21, 0.0, 2.5003736, 2.499588 
3.8132754e+2, 8.371176e+1, 98332.83, -136864.1, -17763.0, -0.0065527335, 0.048487984, 99666.8, 99666.8, 0.0, 2.5003672, 2.4995883 
3.8132754e+2, 8.621136e+1, 94584.18, -138651.48, -17679.227, -0.0077551636, 0.049693886, 95916.65, 95916.65, 0.0, 2.5003607, 2.4995883 
3.8132754e+2, 8.871096e+1, 90831.805, -140440.67, -17595.756, -0.008940458, 0.050900966, 92162.87, 92162.87, 0.0, 2.5003543, 2.4995883 
3.813276e+2, 9.1210645e+1, 135297.02, -43155.324, -6671.1055, -0.008433009, 0.052467488, 135546.06, 135546.06, 0.0, 2.500349, 2.4997578 
3.8132775e+2, 9.371041e+1, 131437.53, -45517.836, -4169.403, -0.0029933879, 0.05387594, 131535.7, 131535.7, 0.0, 2.5003428, 2.4997568 
3.813279e+2, 9.6210176e+1, 127890.95, -47202.184, -3890.5608, 0.0025074317, 0.055263933, 127977.36, 127977.36, 0.0, 2.500337, 2.4997568 
3.8132808e+2, 9.8709947e+1, 124336.27, -48890.434, -3610.6326, 0.00804399, 0.056635436, 124411.5, 124411.5, 0.0, 2.5003307, 2.4997568 
3.838293e+2, 1.2491207e+0, -164513.5, -877015.3, -2957.0457, -0.0023766588, 0.0011577669, -164501.22, -164501.22, 0.0, 2.500576, 2.4982176 
3.8382927e+2, 3.7473622e+0, -163813.97, -876785.25, -4486.594, -0.0039850627, 0.0034729827, -163785.73, -163785.73, 0.0, 2.5005774, 2.4982173 
3.8382924e+2, 6.2456036e+0, -163038.83, -876396.25, -6010.097, -0.0055853957, 0.0057877754, -162988.2, -162988.2, 0.0, 2.5005786, 2.4982173 
3.838292e+2, 8.743845e+0, -162264.86, -876007.8, -7533.347, -0.0071776574, 0.008102144, -162185.34, -162185.34, 0.0, 2.50058, 2.4982176 
3.8382918e+2, 1.1242159e+1, -118779.34, -783197.56, -9471.86, -0.007716215, 0.009632266, -118644.34, -118644.34, 0.0, 2.5005774, 2.4983778 
3.8382918e+2, 1.3740543e+1, -122179.164, -784501.44, -10747.826, -0.007253604, 0.010074033, -122004.8, -122004.8, 0.0, 2.5005713, 2.4983788 
3.8382915e+2, 1.6238926e+1, -125757.3, -786174.06, -11782.693, -0.0067845904, 0.010515201, -125547.15, -125547.15, 0.0, 2.500565, 2.4983788 
3.8382915e+2, 1.873731e+1, -129336.875, -787847.4, -12818.432, -0.0063090855, 0.010956143, -129087.445, -129087.445, 0.0, 2.5005589, 2.498379 
3.8382906e+2, 2.1235779e+1, -85407.66, -692527.5, -18307.838, -0.0065704547, 0.011755365, -84856.086, -84856.086, 0.0, 2.5005546, 2.4985445 
3.83829e+2, 2.3734336e+1, -86237.78, -692466.56, -20226.152, -0.007657526, 0.012593743, -85563.71, -85563.71, 0.0, 2.5005524, 2.4985454 
3.8382894e+2, 2.623289e+1, -87303.51, -692894.94, -21805.438, -0.008740631, 0.013433875, -86519.375, -86519.375, 0.0, 2.5005505, 2.4985456 
3.8382888e+2, 2.8731444e+1, -88370.266, -693323.75, -23385.543, -0.009819553, 0.014276583, -87467.61, -87467.61, 0.0, 2.5005486, 2.498546 
3.8382882e+2, 3.1230083e+1, -48047.555, -603249.94, -24763.893, -0.0105603505, 0.015787587, -46945.19, -46945.19, 0.0, 2.500542, 2.4987037 
3.8382876e+2, 3.3728805e+1, -53927.22, -605427.2, -25417.822, -0.011191127, 0.017579155, -52758.227, -52758.227, 0.0, 2.5005312, 2.4987051 
3.838287e+2, 3.6227527e+1, -60154.777, -608328.5, -25793.742, -0.011813881, 0.019369338, -58943.758, -58943.758, 0.0, 2.5005202, 2.4987054 
3.8382864e+2, 3.8726252e+1, -66383.62, -611230.44, -26170.656, -0.012427693, 0.02115962, -65129.445, -65129.445, 0.0, 2.5005095, 2.4987056 
3.8382858e+2, 4.1225064e+1, -21268.387, -510158.72, -28844.08, -0.013051865, 0.022932341, -19572.496, -19572.496, 0.0, 2.5005016, 2.4988828 
3.8382852e+2, 4.3723962e+1, -23271.662, -510249.2, -29662.656, -0.013786811, 0.024201129, -21471.512, -21471.512, 0.0, 2.500497, 2.4988847 
3.8382843e+2, 4.622286e+1, -25762.03, -511351.28, -30326.293, -0.014507724, 0.025469517, -23875.406, -23875.406, 0.0, 2.5004928, 2.498885 
3.8382837e+2, 4.8721755e+1, -28254.268, -512454.28, -30991.123, -0.015214038, 0.026739795, -26278.746, -26278.746, 0.0, 2.5004885, 2.4988852 
3.8382828e+2, 5.1220745e+1, 14433.48, -416545.9, -29772.016, -0.015274555, 0.028773973, 16480.406, 16480.406, 0.0, 2.5004807, 2.4990535 
3.8382825e+2, 5.3719825e+1, 8460.313, -418557.84, -29934.785, -0.014499817, 0.031093312, 10548.587, 10548.587, 0.0, 2.5004694, 2.4990554 
3.838282e+2, 5.6218904e+1, 1993.749, -421591.8, -30200.783, -0.013711287, 0.033412676, 4136.167, 4136.167, 0.0, 2.5004582, 2.4990556 
3.8382813e+2, 5.8717984e+1, -4474.9116, -424626.8, -30468.24, -0.012910068, 0.035734832, -2276.9382, -2276.9382, 0.0, 2.500447, 2.4990559 
3.838281e+2, 6.121714e+1, 41119.31, -321193.3, -30332.916, -0.0128647555, 0.03723862, 43641.234, 43641.234, 0.0, 2.5004377, 2.4992378 
3.8382804e+2, 6.371639e+1, 36918.65, -322478.4, -29791.912, -0.01340338, 0.037397202, 39371.484, 39371.484, 0.0, 2.5004296, 2.4992394 
3.8382798e+2, 6.621562e+1, 32287.965, -324650.13, -29753.908, -0.013923899, 0.037556417, 34751.215, 34751.215, 0.0, 2.5004218, 2.4992394 
3.8382792e+2, 6.871487e+1, 27654.754, -326823.06, -29717.002, -0.014427584, 0.03771942, 30128.758, 30128.758, 0.0, 2.5004137, 2.4992397 
3.838279e+2, 7.1214205e+1, 71719.14, -228179.86, -24137.455, -0.013914566, 0.038714822, 73649.43, 73649.43, 0.0, 2.500406, 2.4994128 
3.838279e+2, 7.3713624e+1, 67117.164, -229944.8, -22777.105, -0.011911087, 0.04005229, 68853.445, 68853.445, 0.0, 2.5003977, 2.4994137 
3.838279e+2, 7.621305e+1, 62248.43, -232251.3, -22496.96, -0.009880459, 0.04138965, 63957.07, 63957.07, 0.0, 2.5003893, 2.4994137 
3.8382792e+2, 7.871248e+1, 57376.42, -234559.39, -22217.992, -0.00782594, 0.04273039, 59057.656, 59057.656, 0.0, 2.5003808, 2.499414 
3.8382792e+2, 8.121199e+1, 102472.15, -134678.27, -20317.584, -0.00701401, 0.044236254, 104200.24, 104200.24, 0.0, 2.500374, 2.4995885 
3.8382792e+2, 8.3711594e+1, 98816.23, -136292.05, -18737.52, -0.0076707886, 0.045424808, 100300.195, 100300.195, 0.0, 2.5003676, 2.499589 
3.8382792e+2, 8.62112e+1, 95068.984, -138078.77, -18652.018, -0.008317159, 0.046609864, 96551.734, 96551.734, 0.0, 2.5003612, 2.499589 
3.8382792e+2, 8.871079e+1, 91318.02, -139867.3, -18566.82, -0.008951799, 0.047794726, 92799.66, 92799.66, 0.0, 2.5003548, 2.499589 
3.8382798e+2, 9.121048e+1, 136145.5, -41913.906, -7535.1787, -0.007948566, 0.04913023, 136463.81, 136463.81, 0.0, 2.5003495, 2.4997597 
3.838281e+2, 9.3710244e+1, 132421.69, -43990.074, -5080.7334, -0.0026943535, 0.05015694, 132567.9, 132567.9, 0.0, 2.5003436, 2.4997592 
3.8382825e+2, 9.621001e+1, 128872.41, -45674.26, -4796.48, 0.0026035542, 0.051163785, 129004.12, 129004.12, 0.0, 2.5003374, 2.4997592 
3.838284e+2, 9.870978e+1, 125315.016, -47362.35, -4511.14, 0.007924661, 0.05215423, 125432.79, 125432.79, 0.0, 2.5003312, 2.4997592 
3.8632983e+2, 1.2491153e+0, -167345.03, -882897.56, -2766.6584, -0.0058798925, 0.0011237218, -167334.33, -167334.33, 0.0, 2.500576, 2.4982076 
3.863298e+2, 3.7473458e+0, -166644.84, -882664.6, -4289.6104, -0.0057311505, 0.0033720501, -166619.16, -166619.16, 0.0, 2.5005774, 2.4982073 
3.863298e+2, 6.245577e+0, -165871.33, -882277.44, -5811.1987, -0.0055795447, 0.0056215585, -165824.2, -165824.2, 0.0, 2.5005786, 2.4982073 
3.8632977e+2, 8.7438077e+0, -165098.98, -881890.8, -7332.5337, -0.005425075, 0.007872246, -165023.98, -165023.98, 0.0, 2.50058, 2.4982073 
3.8632977e+2, 1.1242111e+1, -120672.234, -787160.8, -10445.736, -0.005601832, 0.009261251, -120508.56, -120508.56, 0.0, 2.5005774, 2.4983711 
3.8632974e+2, 1.3740486e+1, -124073.45, -788471.7, -11686.522, -0.006149375, 0.00950109, -123867.95, -123867.95, 0.0, 2.5005713, 2.4983718 
3.863297e+2, 1.6238861e+1, -127649.73, -790144.4, -12719.652, -0.006694501, 0.009741085, -127405.6, -127405.6, 0.0, 2.500565, 2.4983718 
3.8632968e+2, 1.8737236e+1, -131227.44, -791817.8, -13753.654, -0.0072371513, 0.009981586, -130941.2, -130941.2, 0.0, 2.5005589, 2.498372 
3.8632962e+2, 2.1235697e+1, -88310.3, -698608.44, -18648.31, -0.008055195, 0.010781137, -87741.01, -87741.01, 0.0, 2.5005546, 2.498534 
3.8632956e+2, 2.3734243e+1, -89135.26, -698541.0, -20519.66, -0.009235236, 0.01179822, -88445.11, -88445.11, 0.0, 2.5005527, 2.498535 
3.863295e+2, 2.6232788e+1, -90200.23, -698972.06, -22097.594, -0.010413719, 0.01281834, -89399.164, -89399.164, 0.0, 2.5005507, 2.4985352 
3.8632944e+2, 2.8731334e+1, -91266.234, -699403.56, -23676.344, -0.011590416, 0.013842395, -90345.85, -90345.85, 0.0, 2.5005488, 2.4985354 
3.8632938e+2, 3.1229964e+1, -48693.52, -604683.75, -26458.025, -0.01185408, 0.015183628, -47437.293, -47437.293, 0.0, 2.500542, 2.498701 
3.8632932e+2, 3.3728683e+1, -54565.656, -606850.4, -27049.734, -0.011433679, 0.01648171, -53243.98, -53243.98, 0.0, 2.5005312, 2.4987025 
3.8632926e+2, 3.62274e+1, -60792.176, -609754.3, -27424.531, -0.011007563, 0.017779514, -59425.527, -59425.527, 0.0, 2.5005205, 2.4987028 
3.863292e+2, 3.8726112e+1, -67019.97, -612658.8, -27800.32, -0.010574772, 0.019078402, -65607.2, -65607.2, 0.0, 2.5005095, 2.498703 
3.863291e+2, 4.122492e+1, -22412.164, -512697.44, -29562.018, -0.011295924, 0.020735351, -20636.139, -20636.139, 0.0, 2.5005019, 2.4988782 
3.86329e+2, 4.3723816e+1, -24394.783, -512751.2, -30326.25, -0.013269304, 0.022272076, -22518.771, -22518.771, 0.0, 2.5004973, 2.4988804 
3.863289e+2, 4.6222714e+1, -26883.473, -513855.47, -30988.398, -0.015232159, 0.023808863, -24919.451, -24919.451, 0.0, 2.500493, 2.4988806 
3.8632882e+2, 4.872161e+1, -29374.03, -514960.63, -31651.742, -0.017184056, 0.025348, -27319.582, -27319.582, 0.0, 2.5004885, 2.4988806 
3.8632873e+2, 5.122059e+1, 14037.392, -417558.8, -31491.885, -0.017441882, 0.027128488, 16323.126, 16323.126, 0.0, 2.500481, 2.4990516 
3.863287e+2, 5.3719664e+1, 8094.9126, -419516.34, -31627.713, -0.015883125, 0.028653786, 10421.557, 10421.557, 0.0, 2.5004697, 2.4990537 
3.8632864e+2, 5.621873e+1, 1631.7153, -422552.63, -31891.982, -0.014315322, 0.030177841, 4016.0874, 4016.0874, 0.0, 2.5004585, 2.4990537 
3.8632858e+2, 5.87178e+1, -4833.5776, -425589.94, -32157.713, -0.012739064, 0.03170346, -2390.008, -2390.008, 0.0, 2.5004473, 2.499054 
3.8632852e+2, 6.1216956e+1, 41330.54, -321040.88, -31549.854, -0.012302389, 0.033046562, 44056.914, 44056.914, 0.0, 2.500438, 2.4992378 
3.8632846e+2, 6.37162e+1, 37183.22, -322223.7, -31002.195, -0.012859407, 0.03372338, 39837.84, 39837.84, 0.0, 2.50043, 2.4992397 
3.863284e+2, 6.6215444e+1, 32556.633, -324394.56, -30962.217, -0.013403128, 0.034399122, 35222.41, 35222.41, 0.0, 2.500422, 2.49924 
3.863283e+2, 6.8714696e+1, 27927.521, -326566.66, -30923.338, -0.013934721, 0.03507677, 30604.814, 30604.814, 0.0, 2.500414, 2.49924 
3.8632828e+2, 7.121403e+1, 72407.82, -227086.55, -25380.963, -0.013672918, 0.036257174, 74543.53, 74543.53, 0.0, 2.5004063, 2.4994144 
3.8632828e+2, 7.3713464e+1, 67882.69, -228701.17, -24047.488, -0.012288885, 0.037435852, 69819.84, 69819.84, 0.0, 2.500398, 2.4994156 
3.8632828e+2, 7.6212883e+1, 63017.59, -231009.13, -23765.025, -0.010884352, 0.038611952, 64926.035, 64926.035, 0.0, 2.5003896, 2.4994156 
3.8632828e+2, 7.871231e+1, 58149.22, -233318.64, -23483.734, -0.009461599, 0.039788995, 60029.19, 60029.19, 0.0, 2.5003812, 2.4994159 
3.8632825e+2, 8.121183e+1, 102863.08, -134295.13, -21245.09, -0.008700645, 0.04119137, 104751.22, 104751.22, 0.0, 2.5003746, 2.499589 
3.8632825e+2, 8.371143e+1, 99299.19, -135720.92, -19711.719, -0.008795164, 0.042358488, 100940.99, 100940.99, 0.0, 2.500368, 2.4995897 
3.8632825e+2, 8.621103e+1, 95553.36, -137506.98, -19624.488, -0.0088845845, 0.04352086, 97194.25, 97194.25, 0.0, 2.5003617, 2.4995897 
3.8632828e+2, 8.871063e+1, 91803.805, -139294.83, -19537.564, -0.008967682, 0.044681672, 93443.914, 93443.914, 0.0, 2.5003552, 2.4995897 
3.863283e+2, 9.121031e+1, 136974.36, -40713.242, -8385.982, -0.007479059, 0.045811016, 137369.27, 137369.27, 0.0, 2.5003502, 2.4997616 
3.8632846e+2, 9.3710077e+1, 133405.17, -42463.758, -5992.8296, -0.002408983, 0.046452757, 133609.14, 133609.14, 0.0, 2.500344, 2.4997613 
3.8632858e+2, 9.6209836e+1, 129853.17, -44147.78, -5703.1646, 0.0026874398, 0.047074806, 130039.91, 130039.91, 0.0, 2.5003378, 2.4997616 
3.8632873e+2, 9.87096e+1, 126293.06, -45835.71, -5412.413, 0.0077945227, 0.047680553, 126463.086, 126463.086, 0.0, 2.5003319, 2.4997616 
3.8883036e+2, 1.24910995e+0, -169529.95, -888469.44, -2576.3901, -0.009373882, 0.0010888076, -169520.72, -169520.72, 0.0, 2.5005772, 2.4981976 
3.888304e+2, 3.74733e+0, -168734.03, -888189.94, -4093.6875, -0.0074702706, 0.0032684668, -168710.73, -168710.73, 0.0, 2.5005786, 2.4981973 
3.888304e+2, 6.24555e+0, -167902.33, -887775.75, -5612.6997, -0.0055686473, 0.0054508513, -167858.58, -167858.58, 0.0, 2.50058, 2.4981973 
3.888304e+2, 8.7437695e+0, -167108.44, -887379.75, -7130.2124, -0.003669013, 0.0076359618, -167037.86, -167037.86, 0.0, 2.5005815, 2.4981973 
3.8883036e+2, 1.1242063e+1, -121805.43, -790772.3, -11418.734, -0.003487833, 0.008890397, -121610.58, -121610.58, 0.0, 2.5005789, 2.4983642 
3.8883033e+2, 1.374043e+1, -125322.12, -792134.94, -12651.555, -0.005046615, 0.008925246, -125082.164, -125082.164, 0.0, 2.5005724, 2.498365 
3.8883027e+2, 1.6238797e+1, -129026.52, -793870.56, -13703.528, -0.0066067916, 0.008960978, -128744.195, -128744.195, 0.0, 2.500566, 2.4983652 
3.8883024e+2, 1.8737161e+1, -132741.84, -795611.44, -14757.196, -0.008168346, 0.00899794, -132413.47, -132413.47, 0.0, 2.5005596, 2.4983652 
3.8883016e+2, 2.1235615e+1, -91014.164, -704616.7, -19064.27, -0.009529508, 0.009800318, -90422.42, -90422.42, 0.0, 2.500555, 2.4985235 
3.888301e+2, 2.3734152e+1, -92018.72, -704613.4, -20881.621, -0.01080325, 0.0109928865, -91307.75, -91307.75, 0.0, 2.5005527, 2.4985247 
3.8883e+2, 2.623269e+1, -93294.83, -705149.7, -22454.4, -0.01207763, 0.012189528, -92471.88, -92471.88, 0.0, 2.5005505, 2.4985247 
3.8882995e+2, 2.8731227e+1, -94587.195, -705693.9, -24030.73, -0.013352338, 0.013391231, -93643.69, -93643.69, 0.0, 2.5005481, 2.498525 
3.888299e+2, 3.1229848e+1, -49933.832, -606431.06, -28240.219, -0.013150517, 0.01457582, -48504.414, -48504.414, 0.0, 2.5005412, 2.4986985 
3.8882983e+2, 3.3728558e+1, -55866.973, -608603.3, -28840.164, -0.011681098, 0.0153780645, -54366.25, -54366.25, 0.0, 2.5005302, 2.4987001 
3.8882977e+2, 3.6227265e+1, -62173.285, -611549.3, -29281.475, -0.010207986, 0.016180914, -60617.008, -60617.008, 0.0, 2.5005193, 2.4987004 
3.888297e+2, 3.8725975e+1, -68482.336, -614496.7, -29726.91, -0.008730269, 0.016985726, -66868.67, -66868.67, 0.0, 2.5005083, 2.4987006 
3.8882962e+2, 4.1224778e+1, -24519.748, -515733.8, -30639.934, -0.009536312, 0.018529622, -22615.932, -22615.932, 0.0, 2.5005004, 2.4988737 
3.8882953e+2, 4.372367e+1, -26634.176, -515803.63, -31430.19, -0.012747065, 0.02033124, -24622.988, -24622.988, 0.0, 2.5004957, 2.4988759 
3.888294e+2, 4.6222565e+1, -29284.465, -516989.3, -32167.422, -0.01595074, 0.02213321, -27171.957, -27171.957, 0.0, 2.500491, 2.498876 
3.888293e+2, 4.872146e+1, -31934.135, -518174.72, -32909.848, -0.019146917, 0.023937866, -29716.834, -29716.834, 0.0, 2.5004864, 2.4988763 
3.888292e+2, 5.1220435e+1, 12128.731, -419337.75, -33877.29, -0.019611826, 0.025473107, 14772.462, 14772.462, 0.0, 2.5004785, 2.4990497 
3.8882917e+2, 5.3719497e+1, 6273.491, -421189.06, -34050.28, -0.017270826, 0.026201569, 8968.831, 8968.831, 0.0, 2.5004675, 2.4990518 
3.888291e+2, 5.621855e+1, -155.17812, -424213.06, -34379.504, -0.014924926, 0.026927512, 2613.9768, 2613.9768, 0.0, 2.5004563, 2.499052 
3.8882905e+2, 5.8717614e+1, -6595.6606, -427242.78, -34714.68, -0.012574319, 0.027653897, -3750.0178, -3750.0178, 0.0, 2.5004451, 2.4990523 
3.88829e+2, 6.121677e+1, 40243.992, -321544.88, -33679.773, -0.011740726, 0.028845696, 43352.61, 43352.61, 0.0, 2.500436, 2.499238 
3.8882887e+2, 6.3716024e+1, 36384.51, -322490.7, -33174.89, -0.0123170875, 0.030036503, 39425.473, 39425.473, 0.0, 2.5004284, 2.49924 
3.888288e+2, 6.621527e+1, 31967.678, -324562.03, -33177.816, -0.012884569, 0.031224547, 35028.844, 35028.844, 0.0, 2.5004208, 2.4992402 
3.8882872e+2, 6.8714523e+1, 27533.268, -326641.88, -33186.68, -0.0134441545, 0.0324128, 30616.07, 30616.07, 0.0, 2.5004132, 2.4992402 
3.8882867e+2, 7.1213865e+1, 72607.65, -226265.02, -27696.768, -0.013437862, 0.03378973, 75152.664, 75152.664, 0.0, 2.500406, 2.499416 
3.8882867e+2, 7.3713297e+1, 68376.88, -227593.11, -26378.29, -0.012672354, 0.03480628, 70709.46, 70709.46, 0.0, 2.500398, 2.4994175 
3.8882864e+2, 7.6212716e+1, 63687.62, -229819.8, -26082.16, -0.011892516, 0.0358177, 65987.36, 65987.36, 0.0, 2.5003898, 2.4994178 
3.888286e+2, 7.871214e+1, 58969.574, -232060.36, -25790.508, -0.011099695, 0.03682774, 61237.406, 61237.406, 0.0, 2.5003817, 2.4994178 
3.888286e+2, 8.121166e+1, 103643.96, -133747.47, -23156.309, -0.010389976, 0.038132235, 105881.65, 105881.65, 0.0, 2.5003757, 2.4995894 
3.888286e+2, 8.3711267e+1, 100767.625, -134671.42, -21589.229, -0.009921879, 0.03927497, 102730.94, 102730.94, 0.0, 2.5003703, 2.4995904 
3.888286e+2, 8.621086e+1, 97562.266, -136197.19, -21411.174, -0.009453086, 0.040411815, 99507.24, 99507.24, 0.0, 2.5003648, 2.4995904 
3.888286e+2, 8.8710463e+1, 94313.51, -137743.88, -21234.033, -0.008982477, 0.041545946, 96240.49, 96240.49, 0.0, 2.5003593, 2.4995906 
3.8882867e+2, 9.121015e+1, 140225.97, -38364.777, -9804.7295, -0.0070181163, 0.042493593, 140762.64, 140762.64, 0.0, 2.5003548, 2.4997633 
3.8882878e+2, 9.370991e+1, 137066.92, -39636.684, -7284.708, -0.002130185, 0.042747043, 137366.73, 137366.73, 0.0, 2.5003493, 2.4997637 
3.8882893e+2, 9.620967e+1, 133573.52, -41291.44, -6790.616, 0.0027686476, 0.04298054, 133836.81, 133836.81, 0.0, 2.500343, 2.499764 
3.8882908e+2, 9.8709434e+1, 129896.664, -43034.527, -6298.6025, 0.007667344, 0.04319781, 130125.77, 130125.77, 0.0, 2.500337, 2.499764 
3.9133096e+2, 1.2491051e+0, -151866.1, -884082.25, -2087.193, -0.009765634, 0.00106339, -151860.14, -151860.14, 0.0, 2.500612, 2.4981883 
3.9133096e+2, 3.747315e+0, -150046.66, -883307.5, -3337.3083, -0.0076383553, 0.0031904012, -150031.47, -150031.47, 0.0, 2.5006151, 2.498188 
3.9133096e+2, 6.2455255e+0, -148155.33, -882381.75, -4594.5317, -0.005503429, 0.005317721, -148126.58, -148126.58, 0.0, 2.5006185, 2.498188 
3.91331e+2, 8.7437356e+0, -146265.0, -881456.5, -5852.1787, -0.0033608563, 0.00744535, -146218.4, -146218.4, 0.0, 2.5006218, 2.498188 
3.9133096e+2, 1.12420194e+1, -100509.73, -784007.6, -11610.789, -0.0031158584, 0.008585413, -100312.55, -100312.55, 0.0, 2.5006192, 2.4983563 
3.913309e+2, 1.3740377e+1, -105087.266, -785892.06, -13072.062, -0.004772924, 0.008453025, -104836.36, -104836.36, 0.0, 2.5006108, 2.498357 
3.9133084e+2, 1.6238733e+1, -109839.72, -788138.9, -14367.655, -0.006427123, 0.008320179, -109535.52, -109535.52, 0.0, 2.5006027, 2.4983573 
3.913308e+2, 1.873709e+1, -114593.04, -790386.06, -15663.914, -0.008078472, 0.008187222, -114230.164, -114230.164, 0.0, 2.5005946, 2.4983573 
3.9133075e+2, 2.1235533e+1, -74496.44, -700094.06, -19256.48, -0.009430091, 0.008916381, -73904.266, -73904.266, 0.0, 2.500587, 2.4985158 
3.9133066e+2, 2.3734063e+1, -77819.06, -701223.4, -20193.602, -0.010625097, 0.010144561, -77165.625, -77165.625, 0.0, 2.5005808, 2.4985168 
3.913306e+2, 2.6232594e+1, -81399.13, -702886.9, -20929.13, -0.011812772, 0.011368936, -80695.125, -80695.125, 0.0, 2.5005746, 2.498517 
3.9133054e+2, 2.8731123e+1, -84980.625, -704551.0, -21665.355, -0.012992711, 0.012590459, -84223.95, -84223.95, 0.0, 2.5005684, 2.498517 
3.9133045e+2, 3.1229737e+1, -39602.613, -603241.8, -26407.143, -0.0128797665, 0.013677194, -38368.113, -38368.113, 0.0, 2.5005608, 2.4986947 
3.913304e+2, 3.3728445e+1, -44139.266, -604747.75, -27192.945, -0.011650587, 0.014259382, -42823.33, -42823.33, 0.0, 2.5005522, 2.498696 
3.913303e+2, 3.6227143e+1, -49055.273, -607041.06, -27853.979, -0.0104119815, 0.014837942, -47668.285, -47668.285, 0.0, 2.5005438, 2.4986963 
3.9133024e+2, 3.8725844e+1, -53972.75, -609335.06, -28516.031, -0.009163179, 0.015414253, -52512.387, -52512.387, 0.0, 2.5005352, 2.4986963 
3.9133015e+2, 4.1224644e+1, -11330.3955, -511593.75, -29223.473, -0.009904429, 0.016802574, -9629.059, -9629.059, 0.0, 2.5005255, 2.498869 
3.9133e+2, 4.372353e+1, -17082.117, -513420.94, -29874.365, -0.01277533, 0.018542966, -15290.462, -15290.462, 0.0, 2.5005145, 2.4988708 
3.9132988e+2, 4.622242e+1, -23381.283, -516383.75, -30501.367, -0.015635336, 0.020279525, -21501.375, -21501.375, 0.0, 2.5005035, 2.498871 
3.913298e+2, 4.872131e+1, -29682.396, -519347.5, -31129.537, -0.018483927, 0.022014493, -27711.33, -27711.33, 0.0, 2.5004926, 2.4988713 
3.9132968e+2, 5.1220286e+1, 13353.722, -419499.66, -32426.564, -0.01904611, 0.023441518, 15769.427, 15769.427, 0.0, 2.5004814, 2.499048 
3.9132962e+2, 5.3719336e+1, 7242.8706, -421434.88, -32261.688, -0.017279329, 0.024029234, 9657.242, 9657.242, 0.0, 2.50047, 2.4990504 
3.9132953e+2, 5.62184e+1, 533.40515, -424609.6, -32272.844, -0.01549133, 0.024616579, 2969.2983, 2969.2983, 0.0, 2.5004582, 2.4990504 
3.9132947e+2, 5.8717453e+1, -6178.717, -427785.56, -32285.09, -0.013682104, 0.025206508, -3720.7742, -3720.7742, 0.0, 2.5004466, 2.4990506 
3.9132938e+2, 6.1216605e+1, 40227.563, -322026.72, -30680.268, -0.012892238, 0.026255587, 42807.582, 42807.582, 0.0, 2.5004365, 2.4992368 
3.9132932e+2, 6.371586e+1, 35651.188, -323255.8, -30337.887, -0.013038878, 0.02729544, 38197.54, 38197.54, 0.0, 2.5004277, 2.499239 
3.9132923e+2, 6.6215104e+1, 30485.98, -325700.75, -30499.77, -0.013161683, 0.028338142, 33078.758, 33078.758, 0.0, 2.500419, 2.4992392 
3.9132917e+2, 6.8714356e+1, 25317.555, -328147.25, -30662.88, -0.0132614095, 0.029386703, 27957.82, 27957.82, 0.0, 2.5004098, 2.4992392 
3.913291e+2, 7.121369e+1, 68571.33, -227549.77, -25738.982, -0.013129033, 0.030601138, 70791.92, 70791.92, 0.0, 2.5003984, 2.4994175 
3.9132905e+2, 7.371312e+1, 60120.656, -230781.05, -24461.063, -0.0126897, 0.03142264, 62163.176, 62163.176, 0.0, 2.500383, 2.4994195 
3.9132902e+2, 7.621255e+1, 51149.418, -235079.88, -24167.96, -0.012225145, 0.032243624, 53175.71, 53175.71, 0.0, 2.5003674, 2.4994195 
3.91329e+2, 7.8711975e+1, 42174.023, -239380.69, -23875.43, -0.011735909, 0.033067886, 44184.27, 44184.27, 0.0, 2.500352, 2.4994195 
3.9132896e+2, 8.121149e+1, 85369.445, -141577.7, -19850.49, -0.011039975, 0.034317028, 87092.63, 87092.63, 0.0, 2.5003433, 2.4995916 
3.91329e+2, 8.37111e+1, 84161.15, -141503.44, -17948.277, -0.010238676, 0.035556182, 85579.75, 85579.75, 0.0, 2.5003405, 2.499593 
3.91329e+2, 8.6210704e+1, 82543.45, -142263.28, -17409.223, -0.009407091, 0.036796123, 83883.65, 83883.65, 0.0, 2.5003378, 2.499593 
3.91329e+2, 8.87103e+1, 80920.01, -143025.89, -16870.807, -0.008544373, 0.0380399, 82183.83, 82183.83, 0.0, 2.500335, 2.499593 
3.9132902e+2, 9.120999e+1, 124949.76, -44011.707, -6085.574, -0.006121269, 0.03884787, 125168.66, 125168.66, 0.0, 2.5003269, 2.499767 
3.9132914e+2, 9.3709755e+1, 116029.37, -47777.324, -3488.5835, -0.0013190346, 0.03864581, 116103.63, 116103.63, 0.0, 2.500311, 2.4997683 
3.9132926e+2, 9.620952e+1, 106767.89, -52219.168, -2833.7717, 0.0035388346, 0.038423363, 106818.38, 106818.38, 0.0, 2.500295, 2.4997683 
3.9132938e+2, 9.870928e+1, 97496.734, -56665.676, -2177.6726, 0.008446362, 0.03818466, 97527.484, 97527.484, 0.0, 2.500279, 2.4997683 
3.9383158e+2, 1.2491006e+0, -154203.17, -888939.1, -1604.797, -0.0077977995, 0.0010315565, -154199.67, -154199.67, 0.0, 2.500612, 2.49818 
3.938316e+2, 3.7473017e+0, -152381.95, -888162.8, -2851.6672, -0.006740459, 0.003094747, -152370.9, -152370.9, 0.0, 2.5006151, 2.4981797 
3.938316e+2, 6.245503e+0, -150489.39, -887236.7, -4107.6777, -0.0056788623, 0.0051580407, -150466.48, -150466.48, 0.0, 2.5006185, 2.4981797 
3.938316e+2, 8.743704e+0, -148597.81, -886311.0, -5364.1123, -0.0046130107, 0.0072214375, -148558.81, -148558.81, 0.0, 2.5006218, 2.4981797 
3.9383158e+2, 1.12419784e+1, -102896.1, -788984.94, -12865.782, -0.0045550433, 0.008251139, -102654.92, -102654.92, 0.0, 2.5006192, 2.498348 
3.9383152e+2, 1.3740325e+1, -107480.47, -790886.8, -14314.705, -0.0054924977, 0.007972646, -107180.766, -107180.766, 0.0, 2.5006108, 2.4983485 
3.9383146e+2, 1.6238672e+1, -112232.57, -793136.06, -15609.255, -0.0064287786, 0.00769437, -111874.93, -111874.93, 0.0, 2.5006027, 2.4983487 
3.938314e+2, 1.8737018e+1, -116985.53, -795385.75, -16904.469, -0.0073639117, 0.007416646, -116564.56, -116564.56, 0.0, 2.5005946, 2.4983487 
3.9383134e+2, 2.1235454e+1, -75817.72, -702892.6, -20240.564, -0.008226262, 0.007997084, -75165.08, -75165.08, 0.0, 2.500587, 2.498511 
3.9383128e+2, 2.3733978e+1, -79153.836, -704052.7, -21134.963, -0.009168267, 0.00912517, -78439.836, -78439.836, 0.0, 2.5005808, 2.498512 
3.9383116e+2, 2.6232502e+1, -82733.62, -705718.1, -21869.299, -0.010105071, 0.010250278, -81966.86, -81966.86, 0.0, 2.5005746, 2.498512 
3.938311e+2, 2.8731024e+1, -86314.82, -707384.25, -22604.332, -0.011036244, 0.011373227, -85493.2, -85493.2, 0.0, 2.5005684, 2.4985123 
3.93831e+2, 3.1229636e+1, -40782.434, -605783.0, -27719.703, -0.011489632, 0.012429097, -39425.727, -39425.727, 0.0, 2.5005608, 2.4986901 
3.9383093e+2, 3.3728337e+1, -45316.633, -607288.6, -28483.336, -0.011609505, 0.013044054, -43876.652, -43876.652, 0.0, 2.5005524, 2.4986916 
3.9383084e+2, 3.6227036e+1, -50231.734, -609584.6, -29143.148, -0.011722086, 0.013655771, -48717.43, -48717.43, 0.0, 2.5005438, 2.4986918 
3.9383075e+2, 3.872573e+1, -55148.305, -611881.3, -29803.982, -0.011826774, 0.014265654, -53557.336, -53557.336, 0.0, 2.5005352, 2.498692 
3.9383063e+2, 4.122452e+1, -12413.443, -513966.16, -30898.066, -0.0123760365, 0.01549486, -10517.144, -10517.144, 0.0, 2.5005255, 2.4988647 
3.9383054e+2, 4.3723404e+1, -18174.244, -515818.7, -31522.365, -0.013503381, 0.01691642, -16185.467, -16185.467, 0.0, 2.5005145, 2.4988668 
3.9383042e+2, 4.6222287e+1, -24471.656, -518784.2, -32147.826, -0.014623297, 0.01833448, -22389.678, -22389.678, 0.0, 2.5005038, 2.498867 
3.9383033e+2, 4.8721167e+1, -30771.016, -521750.6, -32774.457, -0.015735166, 0.019751132, -28592.879, -28592.879, 0.0, 2.5004928, 2.498867 
3.938302e+2, 5.1220137e+1, 13423.477, -419550.53, -34197.59, -0.016279312, 0.021242945, 16107.862, 16107.862, 0.0, 2.5004816, 2.4990478 
3.9383012e+2, 5.37192e+1, 7341.053, -421434.13, -34011.234, -0.016260067, 0.022315297, 10022.122, 10022.122, 0.0, 2.5004702, 2.4990501 
3.9383e+2, 5.621826e+1, 634.58923, -424609.5, -34020.625, -0.016224395, 0.023387235, 3339.1262, 3339.1262, 0.0, 2.5004585, 2.4990504 
3.9382988e+2, 5.871732e+1, -6074.5313, -427786.16, -34031.105, -0.016172228, 0.024461573, -3345.958, -3345.958, 0.0, 2.5004468, 2.4990504 
3.938298e+2, 6.1216474e+1, 40048.027, -322648.78, -32038.738, -0.015808161, 0.025433524, 42856.414, 42856.414, 0.0, 2.5004368, 2.4992356 
3.938297e+2, 6.371572e+1, 35511.273, -323805.4, -31685.457, -0.015060524, 0.0258097, 38283.984, 38283.984, 0.0, 2.500428, 2.499238 
3.9382964e+2, 6.621496e+1, 30351.035, -326249.53, -31845.045, -0.014294986, 0.026187303, 33172.527, 33172.527, 0.0, 2.5004191, 2.499238 
3.9382955e+2, 6.87142e+1, 25187.578, -328695.2, -32005.861, -0.013512021, 0.026569417, 28058.953, 28058.953, 0.0, 2.50041, 2.4992383 
3.938295e+2, 7.121353e+1, 69268.07, -226437.9, -28027.89, -0.012914356, 0.027353544, 71901.195, 71901.195, 0.0, 2.5003986, 2.4994192 
3.9382944e+2, 7.3712957e+1, 60898.367, -229506.86, -26787.865, -0.012539153, 0.028005334, 63348.688, 63348.688, 0.0, 2.5003831, 2.4994214 
3.9382938e+2, 7.621239e+1, 51929.883, -233805.08, -26492.217, -0.012147054, 0.028656134, 54365.38, 54365.38, 0.0, 2.5003679, 2.4994214 
3.9382935e+2, 7.8711814e+1, 42957.242, -238105.3, -26197.14, -0.011737855, 0.029309643, 45378.16, 45378.16, 0.0, 2.5003524, 2.4994216 
3.9382932e+2, 8.1211334e+1, 86544.414, -139548.16, -20273.504, -0.011025857, 0.030599667, 88347.93, 88347.93, 0.0, 2.5003438, 2.499595 
3.9382932e+2, 8.3710945e+1, 85469.75, -139202.95, -18367.209, -0.010065987, 0.03212375, 86961.38, 86961.38, 0.0, 2.500341, 2.4995968 
3.9382932e+2, 8.6210555e+1, 83855.55, -139961.28, -17824.904, -0.009085079, 0.03364679, 85266.24, 85266.24, 0.0, 2.500338, 2.4995968 
3.9382932e+2, 8.8710177e+1, 82235.59, -140722.39, -17283.238, -0.008082657, 0.035171643, 83567.4, 83567.4, 0.0, 2.5003355, 2.4995968 
3.9382935e+2, 9.1209865e+1, 126446.336, -41420.832, -8396.555, -0.005269223, 0.035896763, 126865.28, 126865.28, 0.0, 2.5003273, 2.4997714 
3.9382946e+2, 9.3709624e+1, 117706.4, -44803.137, -5876.1743, -0.00049054954, 0.03518176, 117918.59, 117918.59, 0.0, 2.5003114, 2.499773 
3.9382955e+2, 9.6209383e+1, 108439.57, -49246.31, -5214.598, 0.0043211207, 0.034446716, 108611.82, 108611.82, 0.0, 2.5002954, 2.4997733 
3.9382967e+2, 9.870914e+1, 99163.055, -53694.145, -4551.734, 0.009165165, 0.033696223, 99298.48, 99298.48, 0.0, 2.5002797, 2.4997733 
3.963322e+2, 1.2490962e+0, -156540.9, -893797.4, -1121.3286, -0.0058303038, 0.0009988745, -156539.2, -156539.2, 0.0, 2.500612, 2.4981716 
3.963322e+2, 3.7472883e+0, -154718.89, -893021.56, -2365.7756, -0.005843581, 0.002996547, -154711.31, -154711.31, 0.0, 2.5006151, 2.4981713 
3.963322e+2, 6.245481e+0, -152825.08, -892094.94, -3620.5732, -0.0058559934, 0.0049941177, -152807.36, -152807.36, 0.0, 2.5006185, 2.4981713 
3.963322e+2, 8.7436724e+0, -150932.27, -891168.9, -4875.795, -0.005867542, 0.0069915857, -150900.16, -150900.16, 0.0, 2.5006218, 2.4981713 
3.9633217e+2, 1.12419374e+1, -105290.586, -793979.1, -14118.787, -0.005993458, 0.007914118, -105001.26, -105001.26, 0.0, 2.5006192, 2.4983394 
3.9633211e+2, 1.3740274e+1, -109875.29, -795884.94, -15556.777, -0.0062111234, 0.007486491, -109522.69, -109522.69, 0.0, 2.500611, 2.49834 
3.9633206e+2, 1.6238612e+1, -114627.03, -798136.6, -16850.283, -0.0064293155, 0.007059742, -114211.88, -114211.88, 0.0, 2.5006027, 2.4983401 
3.96332e+2, 1.8736948e+1, -119379.63, -800388.75, -18144.455, -0.0066480627, 0.0066342084, -118896.54, -118896.54, 0.0, 2.5005946, 2.4983401 
3.9633194e+2, 2.1235375e+1, -77148.98, -705711.9, -21219.018, -0.007026698, 0.007074283, -76433.48, -76433.48, 0.0, 2.500587, 2.498506 
3.9633185e+2, 2.3733893e+1, -80489.9, -706884.6, -22075.814, -0.0077158837, 0.008099478, -79712.85, -79712.85, 0.0, 2.5005808, 2.498507 
3.963318e+2, 2.623241e+1, -84069.39, -708552.06, -22808.957, -0.008401968, 0.009122466, -83237.41, -83237.41, 0.0, 2.5005746, 2.4985073 
3.963317e+2, 2.873093e+1, -87650.3, -710220.25, -23542.797, -0.0090845255, 0.010143989, -86761.29, -86761.29, 0.0, 2.5005684, 2.4985073 
3.963316e+2, 3.1229535e+1, -41976.97, -608354.8, -29026.719, -0.010102714, 0.011174845, -40493.246, -40493.246, 0.0, 2.500561, 2.4986856 
3.963315e+2, 3.372823e+1, -46495.113, -609831.9, -29772.922, -0.01157132, 0.01181981, -44925.953, -44925.953, 0.0, 2.5005524, 2.4986873 
3.9633137e+2, 3.6226925e+1, -51409.31, -612130.56, -30431.514, -0.01303478, 0.012461864, -49762.563, -49762.563, 0.0, 2.5005438, 2.4986875 
3.9633125e+2, 3.872562e+1, -56324.973, -614429.94, -31091.125, -0.01449265, 0.013102502, -54598.28, -54598.28, 0.0, 2.5005355, 2.4986875 
3.9633113e+2, 4.1224402e+1, -13509.752, -516366.16, -32568.65, -0.014853293, 0.01418179, -11409.143, -11409.143, 0.0, 2.5005257, 2.4988606 
3.96331e+2, 4.372328e+1, -19267.383, -518218.53, -33169.46, -0.014237187, 0.015281797, -17071.99, -17071.99, 0.0, 2.5005147, 2.4988625 
3.9633092e+2, 4.6222153e+1, -25563.04, -521186.72, -33793.383, -0.013617088, 0.016378533, -23269.5, -23269.5, 0.0, 2.5005038, 2.4988627 
3.9633083e+2, 4.8721024e+1, -31860.645, -524155.8, -34418.473, -0.012992305, 0.01747404, -29465.951, -29465.951, 0.0, 2.500493, 2.498863 
3.963307e+2, 5.1219994e+1, 13480.497, -419627.84, -35958.848, -0.01351832, 0.019037845, 16445.682, 16445.682, 0.0, 2.5004818, 2.4990475 
3.9633057e+2, 5.371906e+1, 7438.4644, -421435.03, -35760.03, -0.0152480425, 0.020592788, 10399.735, 10399.735, 0.0, 2.5004704, 2.4990501 
3.9633045e+2, 5.621813e+1, 735.0021, -424611.03, -35767.652, -0.016966125, 0.022147175, 3721.7568, 3721.7568, 0.0, 2.5004587, 2.4990501 
3.9633033e+2, 5.871719e+1, -5971.1167, -427788.34, -35776.367, -0.01867244, 0.023703776, -2958.2683, -2958.2683, 0.0, 2.500447, 2.4990504 
3.963302e+2, 6.121634e+1, 39851.668, -323305.8, -33392.86, -0.018727453, 0.02460773, 42896.66, 42896.66, 0.0, 2.5004373, 2.4992344 
3.9633015e+2, 6.371558e+1, 35370.605, -324356.6, -33032.203, -0.017087633, 0.024317618, 38378.66, 38378.66, 0.0, 2.5004282, 2.4992368 
3.9633006e+2, 6.621481e+1, 30215.336, -326799.88, -33189.5, -0.015435947, 0.024027366, 33274.543, 33274.543, 0.0, 2.5004194, 2.499237 
3.9632997e+2, 6.871404e+1, 25056.848, -329244.72, -33348.023, -0.013772489, 0.023740279, 28168.346, 28168.346, 0.0, 2.5004106, 2.499237 
3.963299e+2, 7.1213377e+1, 69949.63, -225357.63, -30308.357, -0.0127067, 0.024104271, 73028.18, 73028.18, 0.0, 2.500399, 2.499421 
3.9632982e+2, 7.371281e+1, 61675.543, -228233.81, -29114.225, -0.012397091, 0.02458452, 64570.44, 64570.44, 0.0, 2.5003836, 2.4994235 
3.9632976e+2, 7.6212233e+1, 52709.816, -232531.44, -28816.031, -0.012078964, 0.025063146, 55591.79, 55591.79, 0.0, 2.500368, 2.4994235 
3.9632967e+2, 7.8711665e+1, 43739.93, -236831.06, -28518.41, -0.0117513165, 0.025543911, 46609.316, 46609.316, 0.0, 2.5003529, 2.4994235 
3.9632964e+2, 8.121118e+1, 87704.69, -137549.13, -20687.059, -0.01101753, 0.02688265, 89588.805, 89588.805, 0.0, 2.5003443, 2.499598 
3.9632964e+2, 8.37108e+1, 86777.8, -136903.61, -18785.605, -0.009899258, 0.02868962, 88344.51, 88344.51, 0.0, 2.5003414, 2.4996004 
3.9632964e+2, 8.621042e+1, 85167.08, -137660.45, -18240.05, -0.008769315, 0.03049357, 86650.29, 86650.29, 0.0, 2.5003386, 2.4996006 
3.9632964e+2, 8.871004e+1, 83550.62, -138420.06, -17695.135, -0.007627476, 0.032297313, 84952.39, 84952.39, 0.0, 2.500336, 2.4996006 
3.9632967e+2, 9.120972e+1, 127924.06, -38869.168, -10693.186, -0.0044379574, 0.03295892, 128606.81, 128606.81, 0.0, 2.5003278, 2.4997754 
3.9632976e+2, 9.3709487e+1, 119382.71, -41830.47, -8264.471, 0.00031930453, 0.03172776, 119805.28, 119805.28, 0.0, 2.500312, 2.499778 
3.9632985e+2, 9.620925e+1, 110110.53, -46274.973, -7596.13, 0.0050871586, 0.030476557, 110478.63, 110478.63, 0.0, 2.500296, 2.499778 
3.9632997e+2, 9.870902e+1, 100828.664, -50724.133, -6926.5015, 0.009870103, 0.029210713, 101144.57, 101144.57, 0.0, 2.5002801, 2.499778 
3.9883286e+2, 1.2490916e+0, -158425.17, -898437.0, -631.1058, -0.0038609535, 0.0009654036, -158424.63, -158424.63, 0.0, 2.5006127, 2.4981632 
3.9883286e+2, 3.747275e+0, -156928.05, -897820.25, -1860.5925, -0.004944961, 0.0028959871, -156923.38, -156923.38, 0.0, 2.5006154, 2.498163 
3.9883283e+2, 6.245458e+0, -155381.5, -897061.25, -3100.7302, -0.006031196, 0.004826273, -155368.53, -155368.53, 0.0, 2.500618, 2.498163 
3.9883283e+2, 8.743642e+0, -153859.7, -896314.2, -4341.4526, -0.0071196584, 0.0067562605, -153834.31, -153834.31, 0.0, 2.5006206, 2.4981632 
3.988328e+2, 1.12418965e+1, -108383.3, -799321.75, -15305.131, -0.007426209, 0.00757518, -108044.44, -108044.44, 0.0, 2.500618, 2.4983306 
3.9883274e+2, 1.3740224e+1, -112781.24, -801131.2, -16714.531, -0.0069248807, 0.0069959317, -112375.62, -112375.62, 0.0, 2.50061, 2.4983313 
3.9883268e+2, 1.6238551e+1, -117374.55, -803309.4, -17988.492, -0.006425477, 0.006418117, -116903.125, -116903.125, 0.0, 2.5006022, 2.4983315 
3.9883262e+2, 1.8736875e+1, -121991.22, -805498.9, -19263.68, -0.0059280214, 0.0058420897, -121448.734, -121448.734, 0.0, 2.5005941, 2.4983315 
3.9883253e+2, 2.1235296e+1, -78742.08, -708676.06, -22073.002, -0.0058288476, 0.006150296, -77969.58, -77969.58, 0.0, 2.5005867, 2.4985013 
3.9883247e+2, 2.3733808e+1, -82282.96, -709942.25, -22917.084, -0.0062658316, 0.0070697605, -81447.33, -81447.33, 0.0, 2.50058, 2.4985023 
3.9883238e+2, 2.623232e+1, -86076.06, -711715.3, -23671.229, -0.006701585, 0.007987672, -85181.734, -85181.734, 0.0, 2.5005736, 2.4985023 
3.9883226e+2, 2.873083e+1, -89880.664, -713493.8, -24428.52, -0.0071357237, 0.008904752, -88925.2, -88925.2, 0.0, 2.500567, 2.4985025 
3.9883217e+2, 3.1229433e+1, -44206.773, -611456.6, -30321.842, -0.008716575, 0.009916269, -42590.55, -42590.55, 0.0, 2.5005593, 2.498681 
3.9883202e+2, 3.3728123e+1, -48722.633, -612890.8, -31128.375, -0.011532377, 0.010588358, -47010.3, -47010.3, 0.0, 2.5005507, 2.4986827 
3.988319e+2, 3.6226815e+1, -53672.54, -615210.56, -31863.715, -0.014345022, 0.011257758, -51870.26, -51870.26, 0.0, 2.5005422, 2.498683 
3.9883175e+2, 3.8725507e+1, -58633.188, -617535.5, -32605.016, -0.017154207, 0.011926103, -56737.52, -56737.52, 0.0, 2.5005336, 2.4986832 
3.9883164e+2, 4.122428e+1, -15793.666, -519370.3, -34538.664, -0.01732995, 0.012864316, -13435.8125, -13435.8125, 0.0, 2.5005238, 2.4988563 
3.9883155e+2, 4.3723148e+1, -21581.027, -521219.44, -35187.582, -0.014972648, 0.013639622, -19115.074, -19115.074, 0.0, 2.5005128, 2.4988585 
3.9883146e+2, 4.6222016e+1, -27929.373, -524217.06, -35882.43, -0.012614362, 0.014411764, -25348.436, -25348.436, 0.0, 2.5005019, 2.4988585 
3.9883137e+2, 4.872088e+1, -34288.96, -527220.1, -36582.438, -0.010254366, 0.015182839, -31588.818, -31588.818, 0.0, 2.500491, 2.4988587 
3.9883122e+2, 5.121985e+1, 12207.801, -420378.97, -38326.65, -0.010762173, 0.016825058, 15577.249, 15577.249, 0.0, 2.50048, 2.4990473 
3.9883107e+2, 5.3718925e+1, 6321.9263, -422035.3, -38241.7, -0.014240959, 0.018859359, 9709.179, 9709.179, 0.0, 2.5004685, 2.49905 
3.988309e+2, 5.621799e+1, -295.64645, -425172.5, -38368.195, -0.01771253, 0.020892726, 3141.3618, 3141.3618, 0.0, 2.500457, 2.4990501 
3.9883074e+2, 5.8717066e+1, -6936.841, -428321.06, -38499.074, -0.021176701, 0.022927994, -3448.3167, -3448.3167, 0.0, 2.5004456, 2.4990501 
3.9883062e+2, 6.121621e+1, 38643.957, -324486.28, -35805.08, -0.021643866, 0.023772404, 42140.71, 42140.71, 0.0, 2.5004358, 2.499233 
3.9883053e+2, 6.371544e+1, 34320.023, -325357.28, -35488.266, -0.019115565, 0.022813613, 37788.1, 37788.1, 0.0, 2.500427, 2.4992359 
3.9883044e+2, 6.621467e+1, 29231.059, -327770.7, -35698.152, -0.016581109, 0.021852892, 32765.676, 32765.676, 0.0, 2.5004182, 2.4992359 
3.9883038e+2, 6.871389e+1, 24114.805, -330197.28, -35916.445, -0.014040106, 0.020893913, 27718.975, 27718.975, 0.0, 2.5004094, 2.4992359 
3.988303e+2, 7.121322e+1, 70041.414, -224590.4, -33844.145, -0.012504082, 0.020847527, 73879.08, 73879.08, 0.0, 2.5003984, 2.4994226 
3.988302e+2, 7.3712647e+1, 62316.47, -227032.27, -32714.098, -0.012261989, 0.021153545, 65969.055, 65969.055, 0.0, 2.5003839, 2.4994254 
3.9883015e+2, 7.621207e+1, 53749.96, -231138.64, -32425.873, -0.012019024, 0.02145706, 57394.047, 57394.047, 0.0, 2.500369, 2.4994254 
3.9883006e+2, 7.8711504e+1, 45136.793, -235267.47, -32140.48, -0.011773344, 0.021762066, 48773.63, 48773.63, 0.0, 2.5003543, 2.4994254 
3.9883e+2, 8.121103e+1, 89736.45, -135151.5, -22370.625, -0.011012164, 0.02315609, 91940.164, 91940.164, 0.0, 2.5003462, 2.4996011 
3.9883e+2, 8.371065e+1, 89119.58, -134105.1, -20424.11, -0.009736921, 0.025242528, 90972.91, 90972.91, 0.0, 2.5003436, 2.4996042 
3.9883e+2, 8.6210275e+1, 87570.59, -134832.61, -19820.838, -0.008458495, 0.027323917, 89323.24, 89323.24, 0.0, 2.500341, 2.4996042 
3.9883e+2, 8.87099e+1, 85926.03, -135606.14, -19222.553, -0.0071768044, 0.029403161, 87581.62, 87581.62, 0.0, 2.500338, 2.4996042 
3.9883003e+2, 9.1209596e+1, 130795.83, -35664.414, -13964.737, -0.0036255317, 0.030020252, 131959.23, 131959.23, 0.0, 2.500331, 2.4997795 
3.9883012e+2, 9.3709356e+1, 123143.43, -37843.484, -11443.188, 0.0011123687, 0.028270349, 123952.766, 123952.766, 0.0, 2.5003161, 2.4997828 
3.9883018e+2, 9.620912e+1, 114298.74, -42081.17, -10570.998, 0.005840892, 0.026500158, 115010.086, 115010.086, 0.0, 2.500301, 2.4997828 
3.9883024e+2, 9.8708886e+1, 105204.695, -46438.93, -9699.855, 0.0105694225, 0.024716234, 105822.625, 105822.625, 0.0, 2.5002851, 2.4997828 
4.013335e+2, 1.2490877e+0, -124486.75, -885066.2, -1255.7024, -0.0028047308, 0.00090130576, -124484.68, -124484.68, 0.0, 2.5006742, 2.4981565 
4.013335e+2, 3.747263e+0, -132344.56, -888962.7, -2032.7382, -0.004231239, 0.002703634, -132339.11, -132339.11, 0.0, 2.500661, 2.4981563 
4.0133345e+2, 6.245438e+0, -140128.23, -892703.44, -2818.8704, -0.0056526707, 0.004505585, -140117.67, -140117.67, 0.0, 2.5006475, 2.4981563 
4.0133342e+2, 8.7436134e+0, -147912.94, -896444.7, -3605.0872, -0.0070690257, 0.0063071586, -147895.58, -147895.58, 0.0, 2.5006342, 2.4981563 
4.013334e+2, 1.1241862e+1, -104211.836, -800191.94, -13624.831, -0.007424736, 0.007108012, -103945.21, -103945.21, 0.0, 2.5006282, 2.4983244 
4.0133333e+2, 1.3740183e+1, -102864.12, -799244.4, -14425.64, -0.0067062536, 0.0066282596, -102565.42, -102565.42, 0.0, 2.5006301, 2.4983249 
4.0133327e+2, 1.6238505e+1, -101686.6, -798648.75, -15108.148, -0.0059808674, 0.0061464487, -101359.25, -101359.25, 0.0, 2.5006323, 2.498325 
4.013332e+2, 1.8736826e+1, -100510.36, -798053.75, -15791.288, -0.00524858, 0.0056629214, -100153.05, -100153.05, 0.0, 2.5006342, 2.498325 
4.0133315e+2, 2.123524e+1, -55798.656, -699687.2, -19363.03, -0.0050633484, 0.0059442683, -55216.895, -55216.895, 0.0, 2.5006285, 2.4984965 
4.0133306e+2, 2.3733746e+1, -63580.39, -703016.06, -20051.656, -0.0055316845, 0.0067182994, -62952.22, -62952.22, 0.0, 2.5006146, 2.4984975 
4.0133297e+2, 2.6232252e+1, -71602.89, -706842.5, -20654.346, -0.0059949625, 0.0074891956, -70932.04, -70932.04, 0.0, 2.5006008, 2.4984977 
4.0133289e+2, 2.8730756e+1, -79627.1, -710669.75, -21257.8, -0.006452901, 0.008257676, -78911.81, -78911.81, 0.0, 2.500587, 2.4984977 
4.0133277e+2, 3.1229353e+1, -36018.3, -609843.4, -26759.113, -0.008094597, 0.009175414, -34773.15, -34773.15, 0.0, 2.5005758, 2.498676 
4.0133262e+2, 3.372804e+1, -40234.883, -611154.3, -27580.602, -0.01101212, 0.009821522, -38905.582, -38905.582, 0.0, 2.500568, 2.4986775 
4.0133247e+2, 3.6226723e+1, -44877.2, -613347.75, -28332.518, -0.013922157, 0.010462611, -43468.598, -43468.598, 0.0, 2.5005598, 2.4986777 
4.0133232e+2, 3.8725406e+1, -49521.098, -615541.9, -29085.275, -0.016824396, 0.011100274, -48030.46, -48030.46, 0.0, 2.500552, 2.4986777 
4.0133217e+2, 4.1224182e+1, -6440.8096, -516027.0, -31267.834, -0.017140273, 0.011902781, -4529.4077, -4529.4077, 0.0, 2.500541, 2.4988537 
4.0133205e+2, 4.372304e+1, -13788.659, -518627.4, -31173.492, -0.014958285, 0.012427468, -11870.999, -11870.999, 0.0, 2.5005274, 2.4988558 
4.0133193e+2, 4.6221906e+1, -21701.04, -522396.7, -31125.207, -0.012762989, 0.01294731, -19773.594, -19773.594, 0.0, 2.5005138, 2.4988558 
4.0133184e+2, 4.8720765e+1, -29615.748, -526167.1, -31077.842, -0.010553694, 0.013464449, -27678.227, -27678.227, 0.0, 2.5005002, 2.498856 
4.013317e+2, 5.121973e+1, 15832.573, -419843.2, -32529.693, -0.010979488, 0.014869228, 18248.008, 18248.008, 0.0, 2.5004873, 2.4990447 
4.0133154e+2, 5.3718793e+1, 9508.704, -421690.4, -32832.14, -0.014154541, 0.016670806, 11994.264, 11994.264, 0.0, 2.5004752, 2.4990473 
4.0133137e+2, 5.621786e+1, 2451.3525, -425055.63, -33345.6, -0.017313287, 0.01846736, 5036.679, 5036.679, 0.0, 2.500463, 2.4990473 
4.013312e+2, 5.871693e+1, -4609.055, -428422.3, -33860.07, -0.020455457, 0.020261789, -1920.8944, -1920.8944, 0.0, 2.5004508, 2.4990475 
4.0133107e+2, 6.1216074e+1, 39033.387, -324954.22, -31346.842, -0.020976067, 0.02105055, 41713.266, 41713.266, 0.0, 2.500437, 2.4992316 
4.0133098e+2, 6.3715297e+1, 30597.664, -327737.16, -30872.629, -0.018931767, 0.020217886, 33238.066, 33238.066, 0.0, 2.5004213, 2.4992344 
4.0133086e+2, 6.6214526e+1, 21366.273, -332164.7, -30917.258, -0.016868733, 0.01938129, 24049.703, 24049.703, 0.0, 2.5004053, 2.4992344 
4.0133077e+2, 6.8713754e+1, 12131.2, -336594.0, -30962.678, -0.014786245, 0.018544506, 14858.983, 14858.983, 0.0, 2.5003896, 2.4992347 
4.0133065e+2, 7.121308e+1, 57795.773, -230173.13, -28794.15, -0.013199241, 0.018416308, 60646.69, 60646.69, 0.0, 2.500377, 2.4994233 
4.013306e+2, 7.3712504e+1, 53084.773, -231017.77, -27880.691, -0.012470097, 0.018392475, 55795.016, 55795.016, 0.0, 2.5003674, 2.4994264 
4.013305e+2, 7.621193e+1, 47479.7, -233707.84, -27781.24, -0.0117166955, 0.01836309, 50198.195, 50198.195, 0.0, 2.5003579, 2.4994264 
4.013304e+2, 7.8711355e+1, 41870.055, -236400.11, -27682.379, -0.010936482, 0.018332424, 44597.176, 44597.176, 0.0, 2.500348, 2.4994264 
4.0133035e+2, 8.121088e+1, 84539.37, -136179.13, -17657.297, -0.010270052, 0.019438002, 85943.01, 85943.01, 0.0, 2.5003357, 2.4996045 
4.0133032e+2, 8.371051e+1, 75648.0, -138880.38, -15842.019, -0.009702279, 0.021279722, 76811.56, 76811.56, 0.0, 2.5003188, 2.499608 
4.013303e+2, 8.621014e+1, 65759.4, -143631.11, -15323.737, -0.009102431, 0.02311865, 66874.88, 66874.88, 0.0, 2.5003016, 2.499608 
4.013303e+2, 8.870976e+1, 55863.87, -148385.2, -14805.694, -0.008470661, 0.024957772, 56931.53, 56931.53, 0.0, 2.5002847, 2.499608 
4.0133032e+2, 9.120946e+1, 99270.24, -48609.492, -9473.944, -0.0046066376, 0.025753474, 99874.72, 99874.72, 0.0, 2.5002744, 2.4997845 
4.0133038e+2, 9.3709236e+1, 97737.555, -47498.145, -7161.9526, 0.0009001155, 0.024517503, 98089.875, 98089.875, 0.0, 2.5002697, 2.4997885 
4.0133044e+2, 9.620901e+1, 95037.94, -48781.69, -6464.3335, 0.0064527304, 0.023263082, 95327.914, 95327.914, 0.0, 2.5002651, 2.4997885 
4.0133053e+2, 9.870878e+1, 92325.18, -50071.563, -5765.795, 0.012065093, 0.021997528, 92558.266, 92558.266, 0.0, 2.5002604, 2.4997888 
4.0383416e+2, 1.2490841e+0, -125950.59, -888108.1, -3276.8953, -0.0027510254, 0.00080435484, -125936.51, -125936.51, 0.0, 2.5006742, 2.4981513 
4.0383413e+2, 3.7472522e+0, -133809.5, -892007.44, -4054.7168, -0.003862836, 0.0024131457, -133787.81, -133787.81, 0.0, 2.500661, 2.498151 
4.038341e+2, 6.2454206e+0, -141593.55, -895749.6, -4839.464, -0.004973583, 0.004022045, -141562.48, -141562.48, 0.0, 2.5006475, 2.498151 
4.038341e+2, 8.7435883e+0, -149378.63, -899492.25, -5624.2954, -0.0060832663, 0.005631053, -149336.45, -149336.45, 0.0, 2.5006342, 2.4981513 
4.0383404e+2, 1.12418324e+1, -105458.74, -802803.94, -13354.022, -0.0063747843, 0.006473951, -105203.11, -105203.11, 0.0, 2.5006282, 2.4983199 
4.03834e+2, 1.3740152e+1, -104119.53, -801877.75, -14128.969, -0.00585163, 0.0062968303, -103833.55, -103833.55, 0.0, 2.5006304, 2.4983203 
4.0383393e+2, 1.6238472e+1, -102940.65, -801283.06, -14810.124, -0.00532413, 0.006117757, -102626.7, -102626.7, 0.0, 2.5006323, 2.4983206 
4.0383387e+2, 1.8736792e+1, -101763.04, -800689.0, -15491.912, -0.004792264, 0.0059370403, -101419.82, -101419.82, 0.0, 2.5006342, 2.4983206 
4.0383378e+2, 2.1235201e+1, -56891.18, -702002.4, -21442.025, -0.0048631574, 0.0062809833, -56179.28, -56179.28, 0.0, 2.5006285, 2.4984927 
4.038337e+2, 2.3733702e+1, -64678.84, -705346.5, -22142.723, -0.005598437, 0.0068724775, -63914.453, -63914.453, 0.0, 2.5006146, 2.4984934 
4.0383357e+2, 2.6232204e+1, -72701.58, -709176.3, -22743.982, -0.0063315337, 0.0074613756, -71889.875, -71889.875, 0.0, 2.5006008, 2.4984937 
4.0383348e+2, 2.8730702e+1, -80726.03, -713006.94, -23346.006, -0.0070622936, 0.00804841, -79865.19, -79865.19, 0.0, 2.500587, 2.4984937 
4.038333e+2, 3.1229293e+1, -37360.22, -612704.56, -27978.414, -0.008336813, 0.008816091, -36002.86, -36002.86, 0.0, 2.500576, 2.498671 
4.0383318e+2, 3.372797e+1, -41598.117, -614063.7, -28797.049, -0.010257915, 0.009394408, -40153.17, -40153.17, 0.0, 2.500568, 2.4986725 
4.0383303e+2, 3.622665e+1, -46239.797, -616259.5, -29547.664, -0.012174151, 0.009967668, -44712.254, -44712.254, 0.0, 2.50056, 2.4986727 
4.0383288e+2, 3.872533e+1, -50883.06, -618456.06, -30299.117, -0.014085137, 0.010537283, -49270.164, -49270.164, 0.0, 2.500552, 2.4986727 
4.0383273e+2, 4.1224098e+1, -6308.711, -515865.97, -33322.008, -0.014819539, 0.011229718, -4138.89, -4138.89, 0.0, 2.5005412, 2.498854 
4.0383258e+2, 4.372296e+1, -13645.038, -518446.34, -33236.227, -0.014478094, 0.011599226, -11466.163, -11466.163, 0.0, 2.5005276, 2.498856 
4.0383247e+2, 4.622182e+1, -21557.043, -522218.53, -33186.375, -0.014126875, 0.011964465, -19366.863, -19366.863, 0.0, 2.500514, 2.498856 
4.0383232e+2, 4.8720682e+1, -29471.379, -525991.8, -33137.44, -0.01376527, 0.012327594, -27269.572, -27269.572, 0.0, 2.5005002, 2.4988563 
4.0383217e+2, 5.1219636e+1, 14965.947, -421807.66, -34373.637, -0.014057551, 0.013251713, 17654.566, 17654.566, 0.0, 2.5004876, 2.499041 
4.03832e+2, 5.371869e+1, 8644.7705, -423655.16, -34671.41, -0.01507338, 0.014221863, 11407.834, 11407.834, 0.0, 2.5004754, 2.4990437 
4.0383184e+2, 5.621775e+1, 1588.6814, -427023.16, -35182.977, -0.01607766, 0.015187707, 4457.505, 4457.505, 0.0, 2.5004632, 2.499044 
4.0383166e+2, 5.87168e+1, -5470.4644, -430392.66, -35695.555, -0.01707012, 0.016152266, -2492.7297, -2492.7297, 0.0, 2.500451, 2.499044 
4.0383154e+2, 6.1215943e+1, 39045.46, -325166.94, -33739.355, -0.017314961, 0.016932432, 42144.586, 42144.586, 0.0, 2.5004373, 2.499231 
4.038314e+2, 6.371518e+1, 30655.055, -327861.44, -33270.242, -0.016946863, 0.016966732, 33716.387, 33716.387, 0.0, 2.5004215, 2.4992342 
4.0383127e+2, 6.621442e+1, 21426.46, -332288.13, -33312.965, -0.016565591, 0.016997905, 24536.541, 24536.541, 0.0, 2.5004056, 2.4992342 
4.0383115e+2, 6.871365e+1, 12194.184, -336716.63, -33356.477, -0.016170176, 0.017029494, 15354.496, 15354.496, 0.0, 2.5003898, 2.4992342 
4.0383103e+2, 7.121298e+1, 58100.46, -229854.3, -30247.482, -0.014886619, 0.017153924, 61243.43, 61243.43, 0.0, 2.5003774, 2.4994237 
4.0383095e+2, 7.37124e+1, 53477.67, -230521.48, -29333.586, -0.013109968, 0.016706515, 56475.816, 56475.816, 0.0, 2.5003676, 2.499427 
4.0383083e+2, 7.621182e+1, 47874.45, -233212.66, -29231.758, -0.011316872, 0.016253863, 50882.23, 50882.23, 0.0, 2.500358, 2.499427 
4.0383077e+2, 7.871124e+1, 42266.656, -235906.03, -29130.521, -0.009504239, 0.015800554, 45284.492, 45284.492, 0.0, 2.5003486, 2.499427 
4.0383068e+2, 8.121076e+1, 85654.52, -134260.86, -20152.563, -0.009038447, 0.016369142, 87486.01, 87486.01, 0.0, 2.5003362, 2.4996076 
4.0383062e+2, 8.371039e+1, 76910.234, -136659.98, -18401.19, -0.009903854, 0.017553676, 78484.08, 78484.08, 0.0, 2.500319, 2.4996116 
4.038306e+2, 8.621001e+1, 67023.17, -141409.89, -17879.395, -0.010747823, 0.018734727, 68545.74, 68545.74, 0.0, 2.500302, 2.4996116 
4.0383053e+2, 8.8709635e+1, 57129.19, -146163.14, -17357.838, -0.0115707815, 0.01991531, 58600.617, 58600.617, 0.0, 2.5002851, 2.4996116 
4.0383056e+2, 9.120934e+1, 100825.33, -45895.89, -10192.788, -0.007447192, 0.021119082, 101530.04, 101530.04, 0.0, 2.500275, 2.4997888 
4.0383065e+2, 9.3709135e+1, 99504.89, -44340.477, -7843.1147, -0.00041592997, 0.021327598, 99931.266, 99931.266, 0.0, 2.5002701, 2.4997938 
4.038307e+2, 9.620893e+1, 96803.59, -45622.527, -7136.5996, 0.0066340826, 0.021516055, 97160.3, 97160.3, 0.0, 2.5002656, 2.4997938 
4.038308e+2, 9.8708725e+1, 94089.16, -46910.91, -6429.1646, 0.013720706, 0.02169228, 94381.695, 94381.695, 0.0, 2.5002608, 2.4997938 
4.0633488e+2, 1.2490805e+0, -127414.9, -891151.06, -5297.231, -0.0026971567, 0.00070663384, -127378.16, -127378.16, 0.0, 2.5006742, 2.498146 
4.0633482e+2, 3.7472415e+0, -135275.78, -895055.1, -6076.518, -0.0034939433, 0.002120347, -135227.19, -135227.19, 0.0, 2.500661, 2.4981458 
4.063348e+2, 6.245402e+0, -143060.22, -898798.7, -6859.88, -0.0042936797, 0.0035346544, -142997.95, -142997.95, 0.0, 2.5006475, 2.498146 
4.0633476e+2, 8.743564e+0, -150845.69, -902542.7, -7643.3267, -0.005096365, 0.004949556, -150767.97, -150767.97, 0.0, 2.5006342, 2.498146 
4.063347e+2, 1.1241803e+1, -106713.25, -805431.75, -13079.564, -0.0053263195, 0.0058390675, -106468.5, -106468.5, 0.0, 2.5006282, 2.4983153 
4.0633464e+2, 1.3740122e+1, -105376.195, -804513.8, -13831.746, -0.0049986653, 0.0059619043, -105102.65, -105102.65, 0.0, 2.5006304, 2.4983158 
4.0633458e+2, 1.6238439e+1, -104195.945, -803920.0, -14511.55, -0.004669214, 0.0060828784, -103895.12, -103895.12, 0.0, 2.5006323, 2.498316 
4.063345e+2, 1.8736757e+1, -103016.98, -803326.8, -15191.985, -0.0043379343, 0.0062022824, -102687.57, -102687.57, 0.0, 2.5006342, 2.498316 
4.063344e+2, 2.1235165e+1, -57993.97, -704338.94, -23518.652, -0.0046624015, 0.006613593, -57139.32, -57139.32, 0.0, 2.5006285, 2.4984887 
4.0633428e+2, 2.3733658e+1, -65778.35, -707679.2, -24233.002, -0.005663428, 0.0070199496, -64864.81, -64864.81, 0.0, 2.5006146, 2.4984894 
4.0633416e+2, 2.6232153e+1, -73801.33, -711512.4, -24832.83, -0.006665159, 0.0074242135, -72835.79, -72835.79, 0.0, 2.5006008, 2.4984896 
4.0633404e+2, 2.873065e+1, -81826.02, -715346.4, -25433.424, -0.0076675573, 0.007827164, -80806.61, -80806.61, 0.0, 2.500587, 2.4984896 
4.063339e+2, 3.122923e+1, -38716.426, -615595.44, -29192.041, -0.00858612, 0.00845514, -37242.973, -37242.973, 0.0, 2.500576, 2.498666 
4.0633374e+2, 3.3727905e+1, -42962.28, -616975.0, -30012.836, -0.00951007, 0.008963069, -41397.297, -41397.297, 0.0, 2.5005682, 2.4986675 
4.0633363e+2, 3.6226577e+1, -47603.324, -619173.2, -30762.146, -0.010431685, 0.009465812, -45952.457, -45952.457, 0.0, 2.50056, 2.4986675 
4.0633348e+2, 3.872525e+1, -52245.945, -621372.2, -31512.297, -0.011350597, 0.009964689, -50506.438, -50506.438, 0.0, 2.500552, 2.4986677 
4.0633333e+2, 4.1224018e+1, -6188.1772, -515729.0, -35370.676, -0.012501095, 0.010552003, -3744.5781, -3744.5781, 0.0, 2.5005412, 2.4988542 
4.0633312e+2, 4.3722877e+1, -13502.203, -518266.94, -35298.176, -0.013999585, 0.0107637495, -11045.758, -11045.758, 0.0, 2.5005276, 2.4988563 
4.0633294e+2, 4.6221736e+1, -21413.834, -522042.03, -35246.758, -0.015491861, 0.010971738, -18944.465, -18944.465, 0.0, 2.500514, 2.4988563 
4.063328e+2, 4.8720595e+1, -29327.795, -525818.2, -35196.26, -0.01697736, 0.01117821, -26845.143, -26845.143, 0.0, 2.5005004, 2.4988565 
4.063326e+2, 5.1219547e+1, 14084.909, -423802.1, -36208.56, -0.017145826, 0.011632076, 17058.771, 17058.771, 0.0, 2.5004878, 2.4990375 
4.0633246e+2, 5.371859e+1, 7780.06, -425621.5, -36509.805, -0.016003052, 0.011768536, 10834.13, 10834.13, 0.0, 2.5004756, 2.4990404 
4.063323e+2, 5.6217635e+1, 725.23267, -428992.34, -37019.48, -0.014853368, 0.011901268, 3891.0781, 3891.0781, 0.0, 2.5004635, 2.4990404 
4.0633217e+2, 5.871667e+1, -6332.6514, -432364.66, -37530.164, -0.013696614, 0.012033555, -3051.7964, -3051.7964, 0.0, 2.5004513, 2.4990404 
4.06332e+2, 6.121582e+1, 39044.215, -325407.4, -36123.35, -0.013653268, 0.012811117, 42590.152, 42590.152, 0.0, 2.5004375, 2.4992306 
4.0633184e+2, 6.371506e+1, 30711.85, -327987.0, -35667.418, -0.01496391, 0.013710323, 34224.07, 34224.07, 0.0, 2.5004218, 2.4992337 
4.063317e+2, 6.62143e+1, 21486.05, -332412.88, -35708.234, -0.016267091, 0.014607106, 25053.043, 25053.043, 0.0, 2.5004058, 2.499234 
4.063315e+2, 6.8713546e+1, 12256.571, -336840.53, -35749.844, -0.017561445, 0.015504909, 15879.981, 15879.981, 0.0, 2.50039, 2.499234 
4.063314e+2, 7.1212876e+1, 58392.176, -229562.45, -31690.256, -0.0165815, 0.015891088, 61838.535, 61838.535, 0.0, 2.5003777, 2.499424 
4.063313e+2, 7.3712295e+1, 53870.06, -230026.3, -30786.0, -0.013758937, 0.015018322, 57170.164, 57170.164, 0.0, 2.500368, 2.4994278 
4.063312e+2, 7.6211715e+1, 48268.684, -232718.56, -30681.795, -0.010927747, 0.014140469, 51579.9, 51579.9, 0.0, 2.5003583, 2.4994278 
4.0633112e+2, 7.871113e+1, 42662.742, -235413.05, -30578.184, -0.008084295, 0.013262588, 45985.52, 45985.52, 0.0, 2.5003488, 2.4994278 
4.0633103e+2, 8.121065e+1, 86756.89, -132369.23, -22636.736, -0.0078084483, 0.013298047, 89070.93, 89070.93, 0.0, 2.5003364, 2.4996107 
4.0633097e+2, 8.3710265e+1, 78171.945, -134440.75, -20960.16, -0.010107207, 0.013823232, 80218.58, 80218.58, 0.0, 2.5003195, 2.4996152 
4.0633088e+2, 8.6209893e+1, 68286.43, -139189.81, -20434.852, -0.012395353, 0.014344162, 70279.95, 70279.95, 0.0, 2.5003026, 2.4996152 
4.0633082e+2, 8.870951e+1, 58393.992, -143942.22, -19909.781, -0.014673401, 0.014863964, 60334.492, 60334.492, 0.0, 2.5002856, 2.4996154 
4.0633082e+2, 9.1209227e+1, 102361.61, -43221.37, -10891.371, -0.01031427, 0.016498612, 103171.9, 103171.9, 0.0, 2.5002754, 2.499793 
4.063309e+2, 9.370904e+1, 101271.63, -41184.027, -8524.907, -0.001757566, 0.018148633, 101779.98, 101779.98, 0.0, 2.5002708, 2.4997988 
4.06331e+2, 9.620885e+1, 98568.664, -42464.586, -7809.4956, 0.0067911595, 0.019776594, 98999.78, 98999.78, 0.0, 2.500266, 2.499799 
4.063311e+2, 9.8708665e+1, 95852.55, -43751.477, -7093.164, 0.015353359, 0.021391224, 96212.016, 96212.016, 0.0, 2.5002615, 2.499799 
4.0883553e+2, 1.24907695e+0, -130903.96, -895168.56, -7299.398, -0.0026407088, 0.00060831755, -130834.25, -130834.25, 0.0, 2.5006707, 2.498141 
4.0883547e+2, 3.7472308e+0, -138268.69, -898838.8, -8052.687, -0.0031230606, 0.0018257517, -138183.44, -138183.44, 0.0, 2.5006583, 2.4981408 
4.088354e+2, 6.245385e+0, -145597.89, -902364.25, -8807.237, -0.0036117705, 0.0030442518, -145495.4, -145495.4, 0.0, 2.5006456, 2.4981408 
4.0883538e+2, 8.743539e+0, -152971.6, -905911.1, -9562.926, -0.0041068397, 0.0042638173, -152850.16, -152850.16, 0.0, 2.500633, 2.4981408 
4.0883532e+2, 1.1241774e+1, -108590.28, -808371.7, -12690.536, -0.004277646, 0.0052044233, -108360.21, -108360.21, 0.0, 2.5006273, 2.4983108 
4.0883526e+2, 1.3740091e+1, -107558.52, -807598.3, -13420.867, -0.0041458374, 0.0056240605, -107301.32, -107301.32, 0.0, 2.5006287, 2.4983113 
4.088352e+2, 1.6238408e+1, -106700.03, -807161.4, -14098.26, -0.004014607, 0.006041881, -106416.39, -106416.39, 0.0, 2.5006301, 2.4983113 
4.0883514e+2, 1.8736723e+1, -105856.42, -806731.6, -14777.429, -0.0038839176, 0.0064581786, -105544.99, -105544.99, 0.0, 2.5006316, 2.4983115 
4.0883505e+2, 2.1235126e+1, -60758.777, -707495.06, -25482.69, -0.0044593043, 0.006941427, -59756.26, -59756.26, 0.0, 2.5006256, 2.4984846 
4.088349e+2, 2.3733616e+1, -68330.86, -710716.6, -26228.354, -0.005724696, 0.00716019, -67261.75, -67261.75, 0.0, 2.5006123, 2.4984856 
4.0883476e+2, 2.6232103e+1, -76175.95, -714467.94, -26847.31, -0.006993302, 0.00737722, -75048.71, -75048.71, 0.0, 2.5005987, 2.4984856 
4.0883464e+2, 2.8730592e+1, -84044.48, -718230.5, -27471.504, -0.008265188, 0.00759338, -82856.695, -82856.695, 0.0, 2.500585, 2.4984856 
4.088345e+2, 3.122917e+1, -41169.605, -619044.0, -30386.494, -0.008838938, 0.008091904, -39576.18, -39576.18, 0.0, 2.5005744, 2.498661 
4.088343e+2, 3.3727837e+1, -45492.887, -620456.8, -31259.488, -0.008765977, 0.008526837, -43798.37, -43798.37, 0.0, 2.5005662, 2.4986625 
4.088342e+2, 3.6226505e+1, -50226.426, -622703.0, -32058.117, -0.00869288, 0.008956376, -48436.797, -48436.797, 0.0, 2.500558, 2.4986625 
4.0883404e+2, 3.8725173e+1, -54971.86, -624954.94, -32863.195, -0.00861939, 0.009381847, -53083.34, -53083.34, 0.0, 2.5005498, 2.4986627 
4.0883386e+2, 4.1223937e+1, -7449.215, -516287.97, -37642.465, -0.010183008, 0.009869051, -4679.606, -4679.606, 0.0, 2.500539, 2.4988542 
4.0883365e+2, 4.3722793e+1, -14650.802, -518723.53, -37714.945, -0.013519219, 0.009920483, -11844.576, -11844.576, 0.0, 2.5005257, 2.4988565 
4.0883347e+2, 4.6221653e+1, -22508.287, -522476.16, -37792.543, -0.016852545, 0.009968475, -19667.69, -19667.69, 0.0, 2.5005121, 2.4988565 
4.0883327e+2, 4.872051e+1, -30393.72, -526242.25, -37874.66, -0.020182455, 0.010015415, -27517.406, -27517.406, 0.0, 2.5004985, 2.4988565 
4.0883306e+2, 5.121946e+1, 12040.206, -426390.94, -38763.227, -0.020237036, 0.01000957, 15441.019, 15441.019, 0.0, 2.500486, 2.499034 
4.088329e+2, 5.3718483e+1, 5870.068, -428103.9, -39159.473, -0.01693896, 0.009310635, 9375.296, 9375.296, 0.0, 2.500474, 2.4990368 
4.088328e+2, 5.6217515e+1, -1091.0453, -431433.4, -39753.74, -0.013638221, 0.008608245, 2550.4722, 2550.4722, 0.0, 2.500462, 2.4990368 
4.0883264e+2, 5.871655e+1, -8067.5576, -434770.3, -40352.094, -0.0103349, 0.007906084, -4285.101, -4285.101, 0.0, 2.50045, 2.499037 
4.088325e+2, 6.1215687e+1, 38276.082, -326048.5, -39572.816, -0.00999135, 0.0086865155, 42524.914, 42524.914, 0.0, 2.5004365, 2.49923 
4.0883228e+2, 6.3714933e+1, 30169.342, -328412.47, -39221.133, -0.012981762, 0.010447292, 34409.16, 34409.16, 0.0, 2.500421, 2.4992335 
4.088321e+2, 6.6214186e+1, 21079.809, -332773.53, -39345.24, -0.015970264, 0.012206108, 25401.848, 25401.848, 0.0, 2.5004053, 2.4992335 
4.088319e+2, 6.871344e+1, 11965.163, -337146.66, -39472.313, -0.018954923, 0.013966407, 16372.459, 16372.459, 0.0, 2.5003896, 2.4992335 
4.0883175e+2, 7.1212775e+1, 58482.477, -229393.05, -34504.44, -0.018278936, 0.01462267, 62560.38, 62560.38, 0.0, 2.5003777, 2.4994242 
4.0883166e+2, 7.371219e+1, 54279.39, -229528.66, -33638.188, -0.014414523, 0.013322901, 58211.848, 58211.848, 0.0, 2.5003684, 2.4994285 
4.0883157e+2, 7.62116e+1, 48838.18, -232145.97, -33552.344, -0.010548777, 0.012017971, 52789.113, 52789.113, 0.0, 2.500359, 2.4994285 
4.0883148e+2, 7.871102e+1, 43344.75, -234788.44, -33469.508, -0.0066775186, 0.010713561, 47315.652, 47315.652, 0.0, 2.5003498, 2.4994285 
4.088314e+2, 8.1210536e+1, 88340.016, -130264.37, -26545.668, -0.00658078, 0.010219626, 91517.34, 91517.34, 0.0, 2.5003378, 2.4996138 
4.0883127e+2, 8.371015e+1, 80243.016, -131830.61, -24917.29, -0.010311184, 0.010083248, 83131.305, 83131.305, 0.0, 2.5003214, 2.4996188 
4.0883118e+2, 8.620977e+1, 70624.3, -136451.33, -24353.219, -0.014041246, 0.009941928, 73449.82, 73449.82, 0.0, 2.500305, 2.499619 
4.0883106e+2, 8.870939e+1, 60947.465, -141100.03, -23791.574, -0.017771382, 0.009798975, 63711.176, 63711.176, 0.0, 2.5002882, 2.499619 
4.0883106e+2, 9.120911e+1, 105417.18, -39833.113, -12792.651, -0.01320172, 0.011886214, 106535.266, 106535.266, 0.0, 2.5002787, 2.4997973 
4.0883115e+2, 9.3708944e+1, 104768.03, -37183.902, -10252.814, -0.00312326, 0.014972601, 105504.74, 105504.74, 0.0, 2.5002744, 2.499804 
4.0883127e+2, 9.620878e+1, 102074.27, -38458.246, -9359.292, 0.006922856, 0.018035082, 102694.85, 102694.85, 0.0, 2.5002697, 2.499804 
4.0883136e+2, 9.870861e+1, 99186.08, -39826.215, -8473.067, 0.01696128, 0.02108366, 99700.625, 99700.625, 0.0, 2.5002646, 2.4998043 
4.1133618e+2, 1.2490753e+0, -135228.72, -898459.94, -7276.239, -0.0032872106, 0.0005836557, -135159.36, -135159.36, 0.0, 2.5006647, 2.4981382 
4.1133615e+2, 3.747226e+0, -130889.95, -896495.44, -7364.1563, -0.0032811796, 0.0017510402, -130819.125, -130819.125, 0.0, 2.5006723, 2.498138 
4.113361e+2, 6.2453765e+0, -126469.98, -894360.3, -7447.7, -0.0032651562, 0.0029185223, -126397.75, -126397.75, 0.0, 2.5006797, 2.498138 
4.1133606e+2, 8.7435275e+0, -122051.164, -892225.7, -7531.7153, -0.00323914, 0.004086102, -121977.516, -121977.516, 0.0, 2.5006874, 2.498138 
4.11336e+2, 1.1241759e+1, -76390.586, -794739.0, -10871.161, -0.0033055032, 0.0049871476, -76226.1, -76226.1, 0.0, 2.5006845, 2.4983065 
4.1133592e+2, 1.3740072e+1, -83991.09, -798141.8, -11516.315, -0.003476029, 0.005384995, -83805.43, -83805.43, 0.0, 2.5006711, 2.498307 
4.1133586e+2, 1.6238382e+1, -91746.664, -801864.75, -12105.795, -0.003644243, 0.005780546, -91540.35, -91540.35, 0.0, 2.500658, 2.4983072 
4.113358e+2, 1.8736695e+1, -99503.484, -805588.3, -12695.464, -0.0038101398, 0.0061740875, -99275.3, -99275.3, 0.0, 2.5006447, 2.4983072 
4.1133568e+2, 2.1235093e+1, -55978.137, -706351.4, -23581.395, -0.004518278, 0.006579354, -55124.24, -55124.24, 0.0, 2.5006351, 2.498482 
4.113355e+2, 2.373358e+1, -58991.934, -707396.06, -23868.412, -0.0057316497, 0.0066748173, -58114.504, -58114.504, 0.0, 2.5006294, 2.4984827 
4.1133535e+2, 2.6232064e+1, -62255.758, -708957.94, -24012.701, -0.00693725, 0.006764642, -61365.367, -61365.367, 0.0, 2.500624, 2.498483 
4.113352e+2, 2.8730547e+1, -65520.89, -710520.44, -24157.477, -0.008135176, 0.006849658, -64617.375, -64617.375, 0.0, 2.5006182, 2.498483 
4.1133508e+2, 3.1229123e+1, -22069.137, -611277.7, -26715.508, -0.008563728, 0.0072332043, -20860.299, -20860.299, 0.0, 2.5006087, 2.4986577 
4.1133493e+2, 3.3727786e+1, -29808.225, -614361.0, -26929.648, -0.008242787, 0.0075688465, -28570.229, -28570.229, 0.0, 2.5005946, 2.4986591 
4.1133478e+2, 3.6226448e+1, -37946.17, -618269.06, -27039.514, -0.007915083, 0.007899149, -36689.02, -36689.02, 0.0, 2.5005805, 2.4986591 
4.1133463e+2, 3.8725114e+1, -46085.95, -622178.0, -27150.094, -0.007580498, 0.008225458, -44809.25, -44809.25, 0.0, 2.5005667, 2.4986591 
4.1133443e+2, 4.1223872e+1, -146.41025, -513891.47, -32151.447, -0.009105343, 0.008638227, 1857.888, 1857.888, 0.0, 2.500553, 2.4988518 
4.113342e+2, 4.3722725e+1, -7687.0874, -516499.4, -32716.197, -0.012617031, 0.008631151, -5592.09, -5592.09, 0.0, 2.5005388, 2.498854 
4.1133398e+2, 4.622158e+1, -15864.708, -520424.4, -33256.504, -0.016119137, 0.008616204, -13682.148, -13682.148, 0.0, 2.5005248, 2.498854 
4.1133377e+2, 4.8720437e+1, -24045.018, -524350.7, -33797.67, -0.019611191, 0.008595809, -21772.174, -21772.174, 0.0, 2.5005107, 2.498854 
4.1133356e+2, 5.1219374e+1, 17591.447, -424786.88, -34485.82, -0.01977049, 0.008429108, 20263.666, 20263.666, 0.0, 2.5004966, 2.4990315 
4.113334e+2, 5.37184e+1, 10075.4, -427132.0, -34284.06, -0.016521344, 0.007451016, 12747.488, 12747.488, 0.0, 2.5004823, 2.4990344 
4.1133326e+2, 5.6217426e+1, 1761.7773, -431128.0, -34265.08, -0.013261727, 0.006465265, 4457.221, 4457.221, 0.0, 2.500468, 2.4990344 
4.113331e+2, 5.871645e+1, -6554.8286, -435125.47, -34246.73, -0.009991698, 0.0054756757, -3835.455, -3835.455, 0.0, 2.5004537, 2.4990346 
4.113329e+2, 6.1215585e+1, 38770.957, -326500.3, -33643.324, -0.009617932, 0.0060904175, 41843.83, 41843.83, 0.0, 2.5004382, 2.4992285 
4.113327e+2, 6.371484e+1, 29614.436, -329302.88, -33351.023, -0.0125426445, 0.0077937525, 32687.146, 32687.146, 0.0, 2.5004208, 2.499232 
4.113325e+2, 6.621409e+1, 19448.213, -334193.3, -33510.73, -0.015456005, 0.00949022, 22595.645, 22595.645, 0.0, 2.5004032, 2.499232 
4.1133228e+2, 6.8713343e+1, 9278.119, -339085.63, -33671.402, -0.018355869, 0.011183377, 12502.809, 12502.809, 0.0, 2.5003858, 2.499232 
4.1133213e+2, 7.121267e+1, 53861.785, -231667.22, -28045.55, -0.017817562, 0.011849912, 56590.434, 56590.434, 0.0, 2.5003698, 2.4994242 
4.1133204e+2, 7.3712087e+1, 46334.324, -233268.13, -27241.396, -0.014388829, 0.010602014, 48963.703, 48963.703, 0.0, 2.5003548, 2.4994287 
4.1133195e+2, 7.62115e+1, 37526.484, -237515.19, -27197.244, -0.010943699, 0.009346703, 40190.066, 40190.066, 0.0, 2.5003395, 2.4994287 
4.1133183e+2, 7.871092e+1, 28713.307, -241764.83, -27153.283, -0.0074774586, 0.008089956, 31412.291, 31412.291, 0.0, 2.5003245, 2.4994287 
4.1133168e+2, 8.1210434e+1, 72262.06, -137065.13, -20972.201, -0.00723651, 0.0075850403, 74342.56, 74342.56, 0.0, 2.5003092, 2.4996157 
4.1133156e+2, 8.371005e+1, 64107.945, -138433.84, -19778.313, -0.010276315, 0.007361657, 66021.234, 66021.234, 0.0, 2.5002923, 2.4996214 
4.1133144e+2, 8.620967e+1, 54344.008, -143127.11, -19585.543, -0.013293651, 0.0071354546, 56267.797, 56267.797, 0.0, 2.5002756, 2.4996216 
4.1133133e+2, 8.870929e+1, 44573.246, -147823.67, -19393.32, -0.016288754, 0.0069099064, 46508.594, 46508.594, 0.0, 2.500259, 2.4996216 
4.1133133e+2, 9.1209024e+1, 87601.195, -46642.254, -7359.7573, -0.011941799, 0.009029942, 88003.48, 88003.48, 0.0, 2.500246, 2.4998014 
4.1133142e+2, 9.370886e+1, 83701.85, -45214.168, -5389.884, -0.0033831773, 0.012142779, 83926.805, 83926.805, 0.0, 2.5002358, 2.4998088 
4.1133147e+2, 9.620869e+1, 77717.53, -48084.09, -5033.9507, 0.005193543, 0.015247233, 77918.64, 77918.64, 0.0, 2.5002255, 2.4998088 
4.1133156e+2, 9.8708534e+1, 71720.48, -50960.14, -4676.8423, 0.013815738, 0.018354392, 71898.51, 71898.51, 0.0, 2.5002153, 2.4998088 
4.1383687e+2, 1.2490754e+0, -135385.95, -898788.1, -6128.708, -0.0047449307, 0.00061698427, -135336.77, -135336.77, 0.0, 2.5006647, 2.4981377 
4.1383684e+2, 3.7472263e+0, -131047.07, -896826.5, -6221.0654, -0.0040309494, 0.0018507817, -130996.53, -130996.53, 0.0, 2.5006723, 2.4981375 
4.1383678e+2, 6.245377e+0, -126624.64, -894689.4, -6302.978, -0.0033115214, 0.0030843515, -126572.92, -126572.92, 0.0, 2.5006797, 2.4981375 
4.1383672e+2, 8.7435275e+0, -122203.39, -892552.8, -6385.3613, -0.0025866458, 0.0043176934, -122150.46, -122150.46, 0.0, 2.5006874, 2.4981375 
4.1383666e+2, 1.12417564e+1, -77472.42, -797000.0, -12875.944, -0.002510255, 0.005098657, -77242.08, -77242.08, 0.0, 2.5006845, 2.4983027 
4.138366e+2, 1.3740061e+1, -85082.96, -800424.3, -13534.335, -0.003070182, 0.0052001686, -84826.98, -84826.98, 0.0, 2.5006714, 2.4983032 
4.138365e+2, 1.6238368e+1, -92839.52, -804149.94, -14121.942, -0.003630767, 0.0053011696, -92559.266, -92559.266, 0.0, 2.500658, 2.4983032 
4.1383642e+2, 1.8736671e+1, -100597.336, -807876.2, -14709.741, -0.0041920417, 0.0054019387, -100291.54, -100291.54, 0.0, 2.5006447, 2.4983032 
4.138363e+2, 2.1235065e+1, -56226.36, -706903.5, -24426.781, -0.0049344227, 0.0056063784, -55310.652, -55310.652, 0.0, 2.5006351, 2.498481 
4.1383615e+2, 2.3733549e+1, -59246.668, -707964.44, -24722.217, -0.005808761, 0.0056276093, -58305.883, -58305.883, 0.0, 2.5006297, 2.4984818 
4.13836e+2, 2.6232034e+1, -62509.6, -709527.2, -24865.268, -0.006677753, 0.0056436993, -61555.42, -61555.42, 0.0, 2.500624, 2.4984818 
4.1383585e+2, 2.8730515e+1, -65773.84, -711090.5, -25008.805, -0.0075415163, 0.005655392, -64806.094, -64806.094, 0.0, 2.5006182, 2.4984818 
4.138357e+2, 3.1229088e+1, -22237.879, -611697.4, -28797.645, -0.008003992, 0.005938688, -20834.332, -20834.332, 0.0, 2.5006087, 2.498657 
4.138355e+2, 3.372775e+1, -29985.322, -614801.4, -29047.787, -0.008074443, 0.0061520743, -28546.063, -28546.063, 0.0, 2.5005946, 2.4986584 
4.1383532e+2, 3.622641e+1, -38122.93, -618711.94, -29156.254, -0.008140739, 0.006359907, -36662.42, -36662.42, 0.0, 2.5005808, 2.4986584 
4.1383517e+2, 3.8725072e+1, -46262.367, -622623.4, -29265.432, -0.008202838, 0.0065635145, -44780.19, -44780.19, 0.0, 2.5005667, 2.4986584 
4.1383496e+2, 4.1223827e+1, -1103.8793, -515961.53, -34251.656, -0.009308357, 0.006933554, 1164.7659, 1164.7659, 0.0, 2.500553, 2.498848 
4.1383475e+2, 4.372268e+1, -8655.702, -518596.53, -34845.457, -0.011527843, 0.006963961, -6285.645, -6285.645, 0.0, 2.5005388, 2.4988503 
4.1383454e+2, 4.622153e+1, -16832.807, -522524.4, -35384.03, -0.013741046, 0.0069865407, -14368.937, -14368.937, 0.0, 2.5005248, 2.4988503 
4.1383433e+2, 4.8720384e+1, -25012.602, -526453.6, -35923.46, -0.015947705, 0.0070037446, -22452.104, -22452.104, 0.0, 2.5005107, 2.4988503 
4.138341e+2, 5.121932e+1, 17687.693, -424744.03, -36636.453, -0.016393108, 0.006951442, 20700.928, 20700.928, 0.0, 2.5004969, 2.4990315 
4.1383392e+2, 5.371835e+1, 10185.308, -427064.28, -36446.78, -0.015096665, 0.006188742, 13202.496, 13202.496, 0.0, 2.5004826, 2.4990346 
4.138337e+2, 5.621738e+1, 1871.978, -431062.5, -36426.367, -0.013793833, 0.0054196687, 4915.4355, 4915.4355, 0.0, 2.5004683, 2.4990346 
4.1383353e+2, 5.8716404e+1, -6444.3345, -435062.13, -36406.59, -0.012484324, 0.0046479185, -3373.971, -3373.971, 0.0, 2.500454, 2.4990346 
4.1383335e+2, 6.121554e+1, 38554.105, -327155.84, -36261.18, -0.012324569, 0.004975231, 42114.836, 42114.836, 0.0, 2.5004385, 2.4992273 
4.1383314e+2, 6.371478e+1, 29427.918, -329900.13, -35988.71, -0.01362843, 0.0058352244, 32996.938, 32996.938, 0.0, 2.500421, 2.4992309 
4.138329e+2, 6.621402e+1, 19262.123, -334793.88, -36146.7, -0.014925069, 0.006688861, 22914.771, 22914.771, 0.0, 2.5004034, 2.4992309 
4.138327e+2, 6.871326e+1, 9092.458, -339689.5, -36305.652, -0.016212597, 0.0075399587, 12831.526, 12831.526, 0.0, 2.500386, 2.4992309 
4.1383252e+2, 7.1212584e+1, 54068.777, -231544.95, -30309.166, -0.01564558, 0.0080251265, 57249.742, 57249.742, 0.0, 2.5003703, 2.4994242 
4.138324e+2, 7.3712015e+1, 46614.48, -232994.38, -29523.527, -0.013881438, 0.007273267, 49697.83, 49697.83, 0.0, 2.500355, 2.499429 
4.1383225e+2, 7.6211435e+1, 37805.484, -237243.08, -29476.889, -0.012107961, 0.006515086, 40929.043, 40929.043, 0.0, 2.50034, 2.499429 
4.1383213e+2, 7.8710854e+1, 28991.145, -241494.34, -29430.441, -0.010319943, 0.0057565966, 32156.314, 32156.314, 0.0, 2.5003247, 2.499429 
4.13832e+2, 8.1210375e+1, 72781.37, -136367.8, -23458.992, -0.009649946, 0.005736943, 75380.32, 75380.32, 0.0, 2.5003095, 2.4996169 
4.138319e+2, 8.3709997e+1, 64747.43, -137492.03, -22304.764, -0.010108277, 0.0059660003, 67178.18, 67178.18, 0.0, 2.5002928, 2.4996228 
4.1383177e+2, 8.6209625e+1, 54985.73, -142184.67, -22109.738, -0.0105525395, 0.006190154, 57434.594, 57434.594, 0.0, 2.500276, 2.4996228 
4.1383165e+2, 8.8709253e+1, 45217.2, -146880.61, -21915.26, -0.010982877, 0.0064130467, 47685.656, 47685.656, 0.0, 2.5002592, 2.499623 
4.1383162e+2, 9.1208977e+1, 88509.12, -45247.375, -8858.328, -0.0071965293, 0.008231387, 89093.23, 89093.23, 0.0, 2.5002465, 2.4998035 
4.1383165e+2, 9.370881e+1, 84806.53, -43409.633, -6914.424, -0.0027245507, 0.0101663275, 85178.336, 85178.336, 0.0, 2.5002363, 2.4998116 
4.1383168e+2, 9.620863e+1, 78823.37, -46274.59, -6550.882, 0.0017437028, 0.012090613, 79165.48, 79165.48, 0.0, 2.500226, 2.4998116 
4.1383174e+2, 9.870846e+1, 72827.47, -49145.68, -6186.165, 0.006238042, 0.014016179, 73140.414, 73140.414, 0.0, 2.5002158, 2.4998116 
4.163375e+2, 1.2490754e+0, -135543.63, -899117.25, -4979.621, -0.0062034675, 0.0006495286, -135511.14, -135511.14, 0.0, 2.5006647, 2.4981372 
4.1633746e+2, 3.7472266e+0, -131205.4, -897160.06, -5077.694, -0.004783171, 0.0019481707, -131171.75, -131171.75, 0.0, 2.5006723, 2.4981368 
4.1633746e+2, 6.245377e+0, -126780.54, -895020.94, -5157.975, -0.0033619725, 0.0032462599, -126745.91, -126745.91, 0.0, 2.5006797, 2.4981368 
4.1633743e+2, 8.743528e+0, -122356.836, -892882.44, -5238.7275, -0.0019398717, 0.0045437957, -122321.22, -122321.22, 0.0, 2.5006874, 2.4981368 
4.1633737e+2, 1.12417534e+1, -78564.0, -799281.3, -14881.761, -0.0017095872, 0.0052087936, -78256.84, -78256.84, 0.0, 2.5006847, 2.4982986 
4.1633728e+2, 1.3740051e+1, -86176.16, -802709.6, -15551.904, -0.002659062, 0.005010185, -85838.77, -85838.77, 0.0, 2.5006714, 2.4982994 
4.1633716e+2, 1.623835e+1, -93933.72, -806437.94, -16137.641, -0.0036121947, 0.004812837, -93568.4, -93568.4, 0.0, 2.500658, 2.4982994 
4.1633707e+2, 1.8736649e+1, -101692.53, -810166.9, -16723.566, -0.0045690234, 0.004617034, -101297.984, -101297.984, 0.0, 2.5006447, 2.4982994 
4.1633695e+2, 2.1235038e+1, -56489.785, -707487.2, -25266.646, -0.00535441, 0.0046354113, -55510.6, -55510.6, 0.0, 2.5006351, 2.4984798 
4.163368e+2, 2.373352e+1, -59502.254, -708534.6, -25575.627, -0.0058899755, 0.0045797233, -58495.99, -58495.99, 0.0, 2.5006297, 2.4984808 
4.1633663e+2, 2.6232e+1, -62764.297, -710098.2, -25717.44, -0.0064225704, 0.004519304, -61744.195, -61744.195, 0.0, 2.500624, 2.4984808 
4.1633645e+2, 2.8730482e+1, -66027.65, -711662.3, -25859.74, -0.006952382, 0.0044548986, -64993.54, -64993.54, 0.0, 2.5006185, 2.4984808 
4.163363e+2, 3.1229055e+1, -22417.018, -612138.7, -30875.736, -0.007442898, 0.004638472, -20804.879, -20804.879, 0.0, 2.5006087, 2.4986563 
4.1633612e+2, 3.372771e+1, -30163.176, -615243.4, -31165.23, -0.007903384, 0.004726885, -28507.793, -28507.793, 0.0, 2.5005949, 2.4986577 
4.163359e+2, 3.622637e+1, -38300.438, -619156.44, -31272.295, -0.008362374, 0.004809511, -36621.645, -36621.645, 0.0, 2.5005808, 2.4986577 
4.1633573e+2, 3.8725033e+1, -46439.535, -623070.4, -31380.072, -0.008819848, 0.0048876815, -44736.867, -44736.867, 0.0, 2.5005667, 2.4986577 
4.1633555e+2, 4.1223785e+1, -2078.5378, -518067.34, -36348.867, -0.00951994, 0.0052317143, 469.47858, 469.47858, 0.0, 2.500553, 2.4988444 
4.1633528e+2, 4.3722633e+1, -9625.089, -520695.3, -36973.867, -0.010446387, 0.005296901, -6964.034, -6964.034, 0.0, 2.500539, 2.4988468 
4.1633508e+2, 4.6221483e+1, -17801.68, -524626.06, -37510.703, -0.011369707, 0.005354126, -15040.508, -15040.508, 0.0, 2.500525, 2.4988468 
4.1633487e+2, 4.872033e+1, -25980.959, -528558.1, -38048.4, -0.012289991, 0.005406047, -23116.768, -23116.768, 0.0, 2.500511, 2.4988468 
4.1633463e+2, 5.1219267e+1, 17769.582, -424731.06, -38776.414, -0.013017124, 0.0054729325, 21141.865, 21141.865, 0.0, 2.5004969, 2.4990315 
4.1633442e+2, 5.37183e+1, 10294.526, -426998.06, -38608.902, -0.013673304, 0.004923156, 13677.17, 13677.17, 0.0, 2.5004826, 2.4990346 
4.163342e+2, 5.6217325e+1, 1981.4896, -430998.44, -38587.055, -0.014327222, 0.0043682116, 5393.4707, 5393.4707, 0.0, 2.5004685, 2.4990346 
4.1633394e+2, 5.8716357e+1, -6334.53, -435000.28, -38565.844, -0.014978198, 0.003811753, -2892.5083, -2892.5083, 0.0, 2.5004542, 2.4990346 
4.1633373e+2, 6.121549e+1, 38327.41, -327831.94, -38870.957, -0.015036933, 0.0038602047, 42408.41, 42408.41, 0.0, 2.5004387, 2.4992259 
4.1633353e+2, 6.371472e+1, 29240.693, -330498.88, -38625.46, -0.014719708, 0.003874472, 33341.195, 33341.195, 0.0, 2.500421, 2.4992297 
4.1633332e+2, 6.6213953e+1, 19075.328, -335395.97, -38781.73, -0.014399333, 0.0038827593, 23268.723, 23268.723, 0.0, 2.5004036, 2.4992297 
4.163331e+2, 6.871318e+1, 8906.09, -340294.9, -38938.965, -0.014074231, 0.0038892785, 13195.4375, 13195.4375, 0.0, 2.5003862, 2.4992297 
4.1633293e+2, 7.1212506e+1, 54259.047, -231457.47, -32556.59, -0.013478383, 0.0042022048, 57921.82, 57921.82, 0.0, 2.5003705, 2.4994242 
4.1633275e+2, 7.371194e+1, 46893.914, -232722.17, -31805.512, -0.013378463, 0.003943709, 50466.063, 50466.063, 0.0, 2.5003555, 2.4994292 
4.1633257e+2, 7.621136e+1, 38083.76, -236972.5, -31756.387, -0.013276262, 0.003679823, 41702.555, 41702.555, 0.0, 2.5003402, 2.4994292 
4.1633242e+2, 7.871078e+1, 29268.266, -241225.4, -31707.451, -0.0131660905, 0.0034167545, 32935.32, 32935.32, 0.0, 2.5003252, 2.4994292 
4.1633227e+2, 8.121031e+1, 73287.17, -135698.55, -25931.24, -0.012070037, 0.0038874194, 76456.69, 76456.69, 0.0, 2.50031, 2.4996178 
4.163322e+2, 8.3709943e+1, 65386.254, -136551.66, -24830.82, -0.009946912, 0.004566969, 68394.695, 68394.695, 0.0, 2.5002933, 2.4996243 
4.1633207e+2, 8.620957e+1, 55626.785, -141243.67, -24633.54, -0.007818087, 0.0052394266, 58662.27, 58662.27, 0.0, 2.5002763, 2.4996243 
4.1633198e+2, 8.8709205e+1, 45860.49, -145938.97, -24436.805, -0.0056836433, 0.0059087095, 48924.973, 48924.973, 0.0, 2.5002596, 2.4996243 
4.1633192e+2, 9.120893e+1, 89400.09, -43887.723, -10343.481, -0.0024628933, 0.0074401475, 90197.99, 90197.99, 0.0, 2.5002472, 2.4998057 
4.1633192e+2, 9.3708754e+1, 85910.56, -41606.48, -8440.096, -0.0020791488, 0.008193928, 86466.766, 86466.766, 0.0, 2.500237, 2.4998145 
4.163319e+2, 9.620857e+1, 79928.55, -44466.473, -8068.945, -0.0017208803, 0.008934518, 80449.76, 80449.76, 0.0, 2.5002265, 2.4998145 
4.1633186e+2, 9.87084e+1, 73933.805, -47332.594, -7696.619, -0.0013559154, 0.009674964, 74420.34, 74420.34, 0.0, 2.5002162, 2.4998145 
4.1883814e+2, 1.2490755e+0, -137596.8, -900360.3, -3833.5173, -0.00765808, 0.00068116235, -137577.53, -137577.53, 0.0, 2.5006614, 2.4981365 
4.1883814e+2, 3.7472266e+0, -133501.89, -898526.1, -3946.3564, -0.005534558, 0.0020428083, -133481.53, -133481.53, 0.0, 2.5006685, 2.4981363 
4.1883814e+2, 6.2453777e+0, -129342.32, -896514.4, -4035.6018, -0.0034143385, 0.0034035495, -129321.09, -129321.09, 0.0, 2.5006757, 2.4981363 
4.1883814e+2, 8.743528e+0, -125209.9, -894515.6, -4127.758, -0.0012974214, 0.004763386, -125187.76, -125187.76, 0.0, 2.5006828, 2.4981363 
4.1883808e+2, 1.12417504e+1, -82388.62, -802893.2, -16902.893, -0.0009024469, 0.0053164917, -81992.3, -81992.3, 0.0, 2.50068, 2.4982948 
4.1883796e+2, 1.3740042e+1, -89751.16, -806191.6, -17535.035, -0.002241408, 0.0048140655, -89322.24, -89322.24, 0.0, 2.500667, 2.4982953 
4.1883782e+2, 1.6238333e+1, -97289.91, -809817.3, -18075.76, -0.003586613, 0.0043143756, -96831.64, -96831.64, 0.0, 2.500654, 2.4982953 
4.188377e+2, 1.8736623e+1, -104852.94, -813454.7, -18621.803, -0.0049380786, 0.0038177262, -104363.9, -104363.9, 0.0, 2.500641, 2.4982953 
4.1883755e+2, 2.123501e+1, -58734.895, -709054.25, -25991.973, -0.0057746815, 0.003664506, -57697.7, -57697.7, 0.0, 2.5006318, 2.498479 
4.188374e+2, 2.373349e+1, -61718.797, -710055.94, -26370.336, -0.005971989, 0.0035293659, -60647.98, -60647.98, 0.0, 2.5006263, 2.4984798 
4.1883725e+2, 2.6231968e+1, -64987.555, -711624.56, -26566.148, -0.006168511, 0.003389821, -63897.96, -63897.96, 0.0, 2.5006206, 2.4984798 
4.188371e+2, 2.873045e+1, -68271.65, -713200.5, -26766.982, -0.006364555, 0.0032467067, -67162.625, -67162.625, 0.0, 2.5006151, 2.4984798 
4.1883692e+2, 3.1229016e+1, -24529.205, -613534.0, -33066.5, -0.0068773124, 0.0033311686, -22678.678, -22678.678, 0.0, 2.5006056, 2.4986553 
4.188367e+2, 3.3727676e+1, -32116.133, -616548.5, -33462.203, -0.007726566, 0.003291958, -30206.465, -30206.465, 0.0, 2.5005918, 2.4986567 
4.1883647e+2, 3.6226332e+1, -40127.59, -620404.2, -33636.535, -0.008576772, 0.0032467607, -38184.31, -38184.31, 0.0, 2.5005782, 2.4986567 
4.188363e+2, 3.8724992e+1, -48163.73, -624271.75, -33816.723, -0.009427889, 0.0031969293, -46185.527, -46185.527, 0.0, 2.5005643, 2.4986567 
4.188361e+2, 4.1223744e+1, -4499.2646, -520904.9, -38838.01, -0.009736581, 0.003531656, -1594.6595, -1594.6595, 0.0, 2.5005507, 2.4988408 
4.1883585e+2, 4.3722588e+1, -11890.681, -523428.0, -39568.297, -0.009369958, 0.003628765, -8848.102, -8848.102, 0.0, 2.500537, 2.498843 
4.1883564e+2, 4.6221432e+1, -19948.86, -527305.4, -40180.863, -0.009003008, 0.0037176702, -16786.389, -16786.389, 0.0, 2.500523, 2.498843 
4.188354e+2, 4.8720276e+1, -28025.27, -531191.5, -40799.816, -0.008636316, 0.0038014164, -24738.44, -24738.44, 0.0, 2.500509, 2.498843 
4.1883516e+2, 5.1219213e+1, 16859.645, -425229.06, -41631.777, -0.009640532, 0.0039925002, 20745.973, 20745.973, 0.0, 2.5004954, 2.4990315 
4.188349e+2, 5.3718245e+1, 9513.347, -427372.56, -41610.92, -0.0122482, 0.0036535466, 13441.238, 13441.238, 0.0, 2.5004814, 2.4990346 
4.1883466e+2, 5.621728e+1, 1255.0996, -431349.28, -41704.71, -0.01485742, 0.0033104692, 5238.9067, 5238.9067, 0.0, 2.500467, 2.4990346 
4.188344e+2, 5.8716315e+1, -7039.47, -435343.47, -41801.75, -0.017467082, 0.0029669579, -2997.8284, -2997.8284, 0.0, 2.500453, 2.4990346 
4.1883418e+2, 6.1215436e+1, 37413.96, -328862.6, -42648.13, -0.017748706, 0.002745395, 42314.22, 42314.22, 0.0, 2.5004377, 2.4992247 
4.1883394e+2, 6.371466e+1, 28636.203, -331307.8, -42513.066, -0.015811862, 0.0019119777, 33589.273, 33589.273, 0.0, 2.5004206, 2.4992287 
4.1883373e+2, 6.6213876e+1, 18698.188, -336098.88, -42742.684, -0.013875491, 0.0010727387, 23774.793, 23774.793, 0.0, 2.5004036, 2.4992287 
4.1883352e+2, 6.87131e+1, 8722.831, -340907.94, -42971.99, -0.01193839, 0.00023241922, 13926.919, 13926.919, 0.0, 2.5003865, 2.4992287 
4.1883332e+2, 7.121242e+1, 54582.92, -231335.69, -36241.293, -0.011314046, 0.00038227547, 59105.12, 59105.12, 0.0, 2.500371, 2.4994242 
4.188331e+2, 7.371186e+1, 47421.34, -232334.98, -35572.324, -0.0128779635, 0.0006143866, 51873.668, 51873.668, 0.0, 2.5003562, 2.4994295 
4.1883293e+2, 7.6211286e+1, 38665.305, -236560.25, -35550.098, -0.014446248, 0.0008418317, 43183.05, 43183.05, 0.0, 2.5003412, 2.4994295 
4.188327e+2, 7.871072e+1, 29860.732, -240808.9, -35525.902, -0.01601273, 0.0010711775, 34445.9, 34445.9, 0.0, 2.500326, 2.4994295 
4.1883254e+2, 8.121025e+1, 74256.96, -134823.52, -29920.45, -0.014494573, 0.002036722, 78454.46, 78454.46, 0.0, 2.5003111, 2.4996185 
4.1883245e+2, 8.370989e+1, 66794.734, -135237.88, -28847.006, -0.0097924955, 0.0031641016, 70832.91, 70832.91, 0.0, 2.500295, 2.4996257 
4.1883236e+2, 8.6209524e+1, 57233.137, -139835.14, -28609.367, -0.005092135, 0.004282197, 61302.47, 61302.47, 0.0, 2.5002785, 2.4996257 
4.1883227e+2, 8.870916e+1, 47567.336, -144482.6, -28375.074, -0.00039354755, 0.0053953, 51671.984, 51671.984, 0.0, 2.500262, 2.4996257 
4.188322e+2, 9.120889e+1, 91472.555, -41970.89, -13120.801, 0.0022562759, 0.0066551086, 92750.42, 92750.42, 0.0, 2.5002496, 2.4998076 
4.1883215e+2, 9.37087e+1, 88286.48, -39177.57, -11092.524, -0.0014488857, 0.006225911, 89244.6, 89244.6, 0.0, 2.5002396, 2.4998174 
4.1883206e+2, 9.620851e+1, 82144.07, -42111.44, -10546.781, -0.005199058, 0.00578062, 83032.92, 83032.92, 0.0, 2.5002291, 2.4998174 
4.18832e+2, 9.870832e+1, 75753.21, -45164.95, -10012.791, -0.008959785, 0.0053336537, 76576.73, 76576.73, 0.0, 2.500218, 2.4998174 
4.2133883e+2, 1.2490751e+0, -112240.26, -888837.0, -3807.3684, -0.0061716246, 0.0007068187, -112221.59, -112221.59, 0.0, 2.5007057, 2.498135 
4.2133883e+2, 3.747225e+0, -115015.49, -890325.94, -4219.028, -0.004480701, 0.0021189079, -114992.53, -114992.53, 0.0, 2.5007012, 2.4981346 
4.2133883e+2, 6.245375e+0, -117696.6, -891617.94, -4595.7856, -0.0027850096, 0.0035289328, -117669.31, -117669.31, 0.0, 2.5006964, 2.4981346 
4.2133883e+2, 8.7435246e+0, -120378.58, -892910.4, -4972.3857, -0.0010845499, 0.0049368935, -120346.57, -120346.57, 0.0, 2.500692, 2.4981346 
4.2133874e+2, 1.1241745e+1, -78131.39, -800276.94, -18715.305, -0.0008011925, 0.0053376006, -77646.69, -77646.69, 0.0, 2.5006866, 2.498296 
4.2133862e+2, 1.3740034e+1, -81466.23, -801653.6, -17941.023, -0.0019311925, 0.004479375, -81019.56, -81019.56, 0.0, 2.5006807, 2.4982965 
4.213385e+2, 1.6238323e+1, -84953.59, -803345.8, -17057.54, -0.0030549024, 0.0036145689, -84548.805, -84548.805, 0.0, 2.5006747, 2.4982965 
4.2133838e+2, 1.8736613e+1, -88441.7, -805038.4, -16174.201, -0.0041723503, 0.00274348, -88076.82, -88076.82, 0.0, 2.5006688, 2.4982965 
4.2133823e+2, 2.1234997e+1, -42512.813, -702656.3, -22752.076, -0.004835018, 0.0024505893, -41729.586, -41729.586, 0.0, 2.5006611, 2.4984756 
4.2133808e+2, 2.3733473e+1, -47653.527, -704717.56, -23676.684, -0.004893911, 0.002416578, -46801.465, -46801.465, 0.0, 2.500652, 2.4984765 
4.213379e+2, 2.623195e+1, -53062.617, -707333.5, -24387.15, -0.004949379, 0.0023784814, -52154.875, -52154.875, 0.0, 2.5006428, 2.4984765 
4.2133772e+2, 2.8730428e+1, -58473.09, -709950.06, -25097.969, -0.005001819, 0.0023371496, -57507.63, -57507.63, 0.0, 2.5006335, 2.4984765 
4.2133752e+2, 3.1228995e+1, -15148.208, -609344.7, -32463.174, -0.00566809, 0.0024734568, -13379.887, -13379.887, 0.0, 2.500622, 2.4986546 
4.213373e+2, 3.3727655e+1, -22921.348, -612457.2, -32719.473, -0.0069548953, 0.0024289945, -21110.963, -21110.963, 0.0, 2.500608, 2.498656 
4.213371e+2, 3.6226308e+1, -31102.422, -616412.4, -32704.537, -0.008235322, 0.002378768, -29280.705, -29280.705, 0.0, 2.500594, 2.498656 
4.2133686e+2, 3.8724965e+1, -39285.414, -620368.44, -32690.08, -0.009509382, 0.0023241553, -37452.15, -37452.15, 0.0, 2.5005798, 2.498656 
4.2133665e+2, 4.1223714e+1, 4218.0693, -517397.38, -37125.605, -0.009771649, 0.0025338086, 6847.2056, 6847.2056, 0.0, 2.5005665, 2.4988391 
4.2133638e+2, 4.3722552e+1, -3124.3032, -519899.75, -37071.9, -0.008824679, 0.002351062, -478.4249, -478.4249, 0.0, 2.5005527, 2.4988415 
4.2133617e+2, 4.6221393e+1, -11128.287, -523768.94, -36850.918, -0.007872818, 0.0021625825, -8492.825, -8492.825, 0.0, 2.5005388, 2.4988415 
4.2133594e+2, 4.8720235e+1, -19135.102, -527639.5, -36630.434, -0.0069169453, 0.0019715813, -16509.957, -16509.957, 0.0, 2.5005252, 2.4988413 
4.213357e+2, 5.121917e+1, 24378.531, -422110.4, -37446.227, -0.007896458, 0.0021421642, 27497.295, 27497.295, 0.0, 2.5005088, 2.4990304 
4.213354e+2, 5.3718203e+1, 14012.449, -425702.7, -37489.242, -0.011086719, 0.0020341931, 17185.807, 17185.807, 0.0, 2.5004895, 2.4990335 
4.213351e+2, 5.621724e+1, 2755.7803, -431137.4, -37609.332, -0.014268158, 0.0019185776, 5991.5796, 5991.5796, 0.0, 2.5004702, 2.4990335 
4.2133483e+2, 5.8716273e+1, -8504.233, -436573.75, -37730.094, -0.017439455, 0.0017990391, -5204.14, -5204.14, 0.0, 2.5004508, 2.4990335 
4.213346e+2, 6.1215395e+1, 35223.082, -330414.0, -38214.24, -0.017803956, 0.001542693, 39174.313, 39174.313, 0.0, 2.5004344, 2.4992235 
4.2133436e+2, 6.371461e+1, 28078.547, -332021.9, -37846.64, -0.015448312, 0.00037386187, 32013.244, 32013.244, 0.0, 2.50042, 2.4992275 
4.2133415e+2, 6.621383e+1, 19773.418, -336029.88, -37814.824, -0.013082558, -0.0008041604, 23747.984, 23747.984, 0.0, 2.500406, 2.4992275 
4.213339e+2, 6.8713045e+1, 11464.08, -340039.88, -37783.574, -0.010705577, -0.001986399, 15479.608, 15479.608, 0.0, 2.5003917, 2.4992275 
4.2133367e+2, 7.121237e+1, 55979.895, -230523.34, -31324.654, -0.010168949, -0.001893074, 59364.766, 59364.766, 0.0, 2.5003734, 2.4994245 
4.2133346e+2, 7.3711807e+1, 43872.168, -233784.77, -30536.791, -0.012423909, -0.0014475103, 47190.945, 47190.945, 0.0, 2.5003498, 2.4994302 
4.2133325e+2, 7.6211244e+1, 30138.771, -240406.77, -30345.414, -0.014675035, -0.0010097651, 33500.652, 33500.652, 0.0, 2.5003262, 2.4994302 
4.2133301e+2, 7.8710675e+1, 16399.408, -247031.63, -30154.896, -0.01691571, -0.00057308783, 19807.15, 19807.15, 0.0, 2.5003026, 2.4994302 
4.2133287e+2, 8.121021e+1, 59663.98, -141081.4, -23505.482, -0.015575683, 0.0004735291, 62379.527, 62379.527, 0.0, 2.5002854, 2.4996204 
4.2133275e+2, 8.370985e+1, 55027.22, -139946.83, -22370.678, -0.010570064, 0.0015230937, 57561.027, 57561.027, 0.0, 2.5002737, 2.4996278 
4.2133263e+2, 8.620949e+1, 48272.4, -143194.58, -22038.193, -0.0055394904, 0.0025674435, 50776.29, 50776.29, 0.0, 2.500262, 2.4996278 
4.2133254e+2, 8.870912e+1, 41510.09, -146445.92, -21705.53, -0.00048368322, 0.003611153, 43984.12, 43984.12, 0.0, 2.5002506, 2.4996278 
4.2133245e+2, 9.1208845e+1, 83319.26, -44822.176, -6817.2944, 0.0020916266, 0.0049766614, 83680.93, 83680.93, 0.0, 2.5002346, 2.49981 
4.2133236e+2, 9.3708664e+1, 72976.89, -45204.586, -5298.996, -0.0022371106, 0.0047138184, 73214.01, 73214.01, 0.0, 2.500212, 2.4998205 
4.2133227e+2, 9.6208483e+1, 59728.395, -51583.87, -5164.0415, -0.0065610297, 0.004430352, 59967.453, 59967.453, 0.0, 2.500189, 2.4998205 
4.2133218e+2, 9.8708296e+1, 46466.04, -57969.824, -5027.657, -0.010844556, 0.004141599, 46707.516, 46707.516, 0.0, 2.5001664, 2.4998205 
4.238396e+2, 1.249074e+0, -112942.055, -890295.1, -4497.567, -0.0022050177, 0.00073287607, -112916.03, -112916.03, 0.0, 2.5007057, 2.4981325 
4.2383957e+2, 3.747222e+0, -115720.47, -891790.4, -4915.4033, -0.0019226817, 0.0021979182, -115689.336, -115689.336, 0.0, 2.5007012, 2.4981322 
4.2383954e+2, 6.24537e+0, -118402.11, -893083.1, -5290.7275, -0.0016392439, 0.0036620144, -118365.98, -118365.98, 0.0, 2.5006964, 2.4981322 
4.238395e+2, 8.743518e+0, -121084.61, -894376.3, -5665.8945, -0.0013547039, 0.005125164, -121043.09, -121043.09, 0.0, 2.500692, 2.4981322 
4.2383945e+2, 1.12417385e+1, -76484.15, -796864.56, -19607.813, -0.0014275209, 0.0053377077, -75950.84, -75950.84, 0.0, 2.5006866, 2.498302 
4.238393e+2, 1.374003e+1, -79822.88, -798251.2, -18847.582, -0.0017973412, 0.004061269, -79328.766, -79328.766, 0.0, 2.5006807, 2.4983025 
4.2383918e+2, 1.623832e+1, -83309.02, -799942.7, -17962.592, -0.002162398, 0.0027795448, -82859.06, -82859.06, 0.0, 2.5006747, 2.4983022 
4.2383906e+2, 1.873661e+1, -86795.9, -801634.5, -17077.75, -0.0025227799, 0.0014928147, -86388.14, -86388.14, 0.0, 2.5006688, 2.4983022 
4.2383888e+2, 2.1234994e+1, -43798.754, -705362.1, -24129.848, -0.002822377, 0.0011030578, -42919.81, -42919.81, 0.0, 2.5006614, 2.498471 
4.2383873e+2, 2.3733468e+1, -48960.4, -707467.7, -25084.84, -0.0029130408, 0.0013277901, -48006.215, -48006.215, 0.0, 2.500652, 2.498472 
4.2383856e+2, 2.6231945e+1, -54370.246, -710085.9, -25793.906, -0.0030027647, 0.0015494195, -53357.156, -53357.156, 0.0, 2.5006428, 2.4984717 
4.2383838e+2, 2.873042e+1, -59781.47, -712704.7, -26503.324, -0.0030919586, 0.0017687168, -58707.418, -58707.418, 0.0, 2.5006335, 2.4984717 
4.2383817e+2, 3.1228986e+1, -15111.685, -609310.9, -34546.23, -0.004035831, 0.0021016742, -13109.94, -13109.94, 0.0, 2.500622, 2.4986546 
4.2383793e+2, 3.3727643e+1, -22879.824, -612415.6, -34845.87, -0.0057973596, 0.0021638577, -20827.326, -20827.326, 0.0, 2.500608, 2.498656 
4.238377e+2, 3.6226302e+1, -31060.275, -616372.06, -34829.637, -0.007555093, 0.0022194383, -28994.986, -28994.986, 0.0, 2.500594, 2.498656 
4.2383745e+2, 3.872496e+1, -39242.65, -620329.5, -34813.88, -0.00930923, 0.0022698885, -37164.324, -37164.324, 0.0, 2.50058, 2.498656 
4.2383718e+2, 4.1223705e+1, 4665.379, -516554.75, -39152.547, -0.00983608, 0.0022457356, 7589.9946, 7589.9946, 0.0, 2.5005665, 2.4988406 
4.2383695e+2, 4.3722543e+1, -2679.7063, -519066.47, -39151.754, -0.00892617, 0.0015065495, 271.85706, 271.85706, 0.0, 2.5005527, 2.498843 
4.238367e+2, 4.6221378e+1, -10682.87, -522937.25, -38929.055, -0.008015579, 0.0007613966, -7741.3267, -7741.3267, 0.0, 2.500539, 2.4988427 
4.2383647e+2, 4.8720214e+1, -18688.867, -526809.4, -38706.848, -0.00710525, 0.000013382214, -15757.229, -15757.229, 0.0, 2.5005252, 2.4988427 
4.2383617e+2, 5.1219153e+1, 24223.84, -422553.03, -40336.05, -0.00779461, 0.000020157708, 27836.264, 27836.264, 0.0, 2.500509, 2.4990294 
4.238359e+2, 5.3718185e+1, 13843.958, -426177.25, -40410.457, -0.010344535, 0.00014702162, 17524.371, 17524.371, 0.0, 2.5004897, 2.4990325 
4.238356e+2, 5.621722e+1, 2587.7769, -431613.97, -40529.09, -0.012889793, 0.00026620735, 6338.429, 6338.429, 0.0, 2.5004704, 2.4990325 
4.2383534e+2, 5.8716255e+1, -8671.749, -437052.3, -40648.395, -0.015429083, 0.00038148087, -4848.8003, -4848.8003, 0.0, 2.500451, 2.4990325 
4.2383504e+2, 6.121538e+1, 35361.914, -330324.0, -40342.65, -0.015755601, 0.00030469324, 39759.65, 39759.65, 0.0, 2.5004346, 2.4992235 
4.238348e+2, 6.37146e+1, 28243.059, -331880.97, -40002.55, -0.0139937475, -0.0007415432, 32633.023, 32633.023, 0.0, 2.5004203, 2.4992278 
4.2383456e+2, 6.6213816e+1, 19936.145, -335894.2, -39968.285, -0.012227271, -0.0017964491, 24370.287, 24370.287, 0.0, 2.5004063, 2.4992278 
4.2383432e+2, 6.8713033e+1, 11625.021, -339909.44, -39934.594, -0.010454947, -0.0028550378, 16104.541, 16104.541, 0.0, 2.500392, 2.4992278 
4.238341e+2, 7.121236e+1, 56462.652, -229795.61, -34832.72, -0.010098539, -0.0027173, 60640.23, 60640.23, 0.0, 2.5003736, 2.4994254 
4.2383382e+2, 7.37118e+1, 44402.46, -232962.02, -34096.53, -0.012135166, -0.0023155098, 48532.465, 48532.465, 0.0, 2.50035, 2.4994314 
4.2383358e+2, 7.621124e+1, 30669.236, -239586.36, -33902.484, -0.01417621, -0.0019217806, 34857.27, 34857.27, 0.0, 2.5003264, 2.4994314 
4.2383334e+2, 7.871067e+1, 16930.049, -246213.56, -33709.293, -0.016214767, -0.0015293038, 21179.656, 21179.656, 0.0, 2.5003028, 2.4994314 
4.2383313e+2, 8.1210196e+1, 60467.02, -139780.83, -25255.84, -0.015557331, -0.0007534676, 63603.24, 63603.24, 0.0, 2.5002856, 2.4996223 
4.23833e+2, 8.370983e+1, 55925.27, -138450.61, -24116.604, -0.012223212, -0.0002311445, 58872.77, 58872.77, 0.0, 2.5002742, 2.4996302 
4.238329e+2, 8.620947e+1, 49170.277, -141699.14, -23781.33, -0.008873931, 0.000286453, 52088.684, 52088.684, 0.0, 2.5002625, 2.4996302 
4.2383274e+2, 8.8709104e+1, 42407.8, -144951.27, -23445.879, -0.005508639, 0.0008041055, 45297.227, 45297.227, 0.0, 2.5002508, 2.4996302 
4.2383265e+2, 9.120884e+1, 83889.74, -44147.953, -10109.186, -0.0025267743, 0.0026008263, 84682.99, 84682.99, 0.0, 2.500235, 2.499811 
4.2383254e+2, 9.370867e+1, 73692.625, -44227.293, -8702.948, -0.0042792624, 0.003688504, 74331.48, 74331.48, 0.0, 2.5002124, 2.4998217 
4.2383245e+2, 9.62085e+1, 60447.063, -50596.7, -8559.157, -0.006048568, 0.004755593, 61102.92, 61102.92, 0.0, 2.5001895, 2.499822 
4.2383236e+2, 9.870834e+1, 47187.645, -56972.773, -8413.936, -0.0077990913, 0.0058179935, 47862.934, 47862.934, 0.0, 2.500167, 2.499822 
4.2634034e+2, 1.249073e+0, -113643.984, -891753.5, -5187.6743, 0.0017612544, 0.00075811846, -113609.4, -113609.4, 0.0, 2.5007057, 2.49813 
4.263403e+2, 3.747219e+0, -116426.48, -893256.9, -5611.804, 0.00063433236, 0.002274484, -116385.94, -116385.94, 0.0, 2.5007012, 2.4981296 
4.2634025e+2, 6.245365e+0, -119108.64, -894550.44, -5985.695, -0.0004951537, 0.0037910212, -119062.44, -119062.44, 0.0, 2.5006964, 2.4981296 
4.2634022e+2, 8.7435114e+0, -121791.664, -895844.4, -6359.4287, -0.0016272035, 0.00530773, -121739.42, -121739.42, 0.0, 2.500692, 2.4981296 
4.2634013e+2, 1.1241732e+1, -74847.88, -793475.0, -20498.404, -0.0020530426, 0.005341063, -74263.65, -74263.65, 0.0, 2.5006866, 2.4983077 
4.2633998e+2, 1.3740024e+1, -78180.59, -794851.0, -19754.053, -0.0016645566, 0.0036423446, -77636.516, -77636.516, 0.0, 2.5006807, 2.4983082 
4.2633986e+2, 1.6238315e+1, -81665.5, -796541.75, -18867.557, -0.0012728395, 0.0019396056, -81167.88, -81167.88, 0.0, 2.5006747, 2.4983082 
4.2633975e+2, 1.8736608e+1, -85151.16, -798232.8, -17981.209, -0.0008780341, 0.00023313795, -84698.02, -84698.02, 0.0, 2.5006688, 2.4983082 
4.263396e+2, 2.123499e+1, -45101.805, -708103.5, -25504.61, -0.000808728, -0.00024659894, -44122.133, -44122.133, 0.0, 2.5006614, 2.4984663 
4.2633942e+2, 2.3733465e+1, -50268.043, -710219.4, -26492.484, -0.00093044195, 0.00023410888, -49206.26, -49206.26, 0.0, 2.500652, 2.4984672 
4.2633924e+2, 2.623194e+1, -55678.645, -712839.8, -27200.15, -0.0010537348, 0.0007126498, -54554.74, -54554.74, 0.0, 2.5006428, 2.4984672 
4.2633906e+2, 2.873041e+1, -61090.62, -715460.9, -27908.168, -0.0011789948, 0.0011897623, -59902.523, -59902.523, 0.0, 2.5006335, 2.498467 
4.263388e+2, 3.1228977e+1, -15086.345, -609300.25, -36626.875, -0.002405447, 0.0017305951, -12837.207, -12837.207, 0.0, 2.500622, 2.4986546 
4.2633855e+2, 3.3727634e+1, -22838.932, -612375.4, -36971.72, -0.004640607, 0.0018972664, -20529.363, -20529.363, 0.0, 2.500608, 2.498656 
4.263383e+2, 3.6226296e+1, -31018.76, -616333.2, -36954.184, -0.0068745175, 0.0020563994, -28694.861, -28694.861, 0.0, 2.5005941, 2.498656 
4.2633805e+2, 3.8724953e+1, -39200.508, -620291.9, -36937.13, -0.009107603, 0.0022096583, -36862.008, -36862.008, 0.0, 2.50058, 2.498656 
4.2633778e+2, 4.1223702e+1, 5101.3374, -515735.75, -41172.957, -0.009903895, 0.0019566026, 8336.032, 8336.032, 0.0, 2.5005665, 2.498842 
4.2633748e+2, 4.372253e+1, -2235.719, -518234.44, -41230.992, -0.00903012, 0.00065864174, 1038.0817, 1038.0817, 0.0, 2.500553, 2.4988441 
4.2633724e+2, 4.6221364e+1, -10238.064, -522106.84, -41006.57, -0.008159823, -0.0006455838, -6973.783, -6973.783, 0.0, 2.500539, 2.4988441 
4.2633697e+2, 4.8720196e+1, -18243.242, -525980.56, -40782.645, -0.007294063, -0.0019530102, -14988.351, -14988.351, 0.0, 2.5005255, 2.4988441 
4.263367e+2, 5.121913e+1, 24060.08, -423014.56, -43222.13, -0.0076915477, -0.0021035974, 28200.352, 28200.352, 0.0, 2.5005093, 2.4990287 
4.263364e+2, 5.371817e+1, 13674.983, -426652.88, -43330.902, -0.009600164, -0.0017436314, 17898.494, 17898.494, 0.0, 2.50049, 2.4990318 
4.2633608e+2, 5.62172e+1, 2419.2905, -432091.63, -43448.074, -0.011508289, -0.0013914653, 6721.205, 6721.205, 0.0, 2.5004706, 2.4990315 
4.2633578e+2, 5.871624e+1, -8839.748, -437531.97, -43565.92, -0.013414616, -0.0010432004, -4457.157, -4457.157, 0.0, 2.500451, 2.4990315 
4.263355e+2, 6.1215365e+1, 35483.83, -330269.16, -42458.14, -0.013712247, -0.0009306068, 40347.863, 40347.863, 0.0, 2.5004349, 2.4992235 
4.2633525e+2, 6.371458e+1, 28406.74, -331741.78, -42157.582, -0.012541244, -0.0018577568, 33275.72, 33275.72, 0.0, 2.5004206, 2.499228 
4.2633495e+2, 6.6213804e+1, 20098.041, -335760.28, -42120.875, -0.0113709755, -0.0027932115, 25015.688, 25015.688, 0.0, 2.5004063, 2.4992278 
4.263347e+2, 6.871302e+1, 11785.135, -339780.78, -42084.734, -0.010200241, -0.0037318156, 16752.76, 16752.76, 0.0, 2.5003922, 2.4992278 
4.2633444e+2, 7.121235e+1, 56930.516, -229098.89, -38326.5, -0.010033681, -0.003539966, 61977.04, 61977.04, 0.0, 2.5003738, 2.4994266 
4.2633417e+2, 7.371178e+1, 44932.207, -232140.5, -37655.49, -0.011850445, -0.0031840904, 49958.582, 49958.582, 0.0, 2.5003505, 2.4994328 
4.2633393e+2, 7.621122e+1, 31199.158, -238767.19, -37458.77, -0.0136797335, -0.002836683, 36300.305, 36300.305, 0.0, 2.5003269, 2.4994326 
4.2633364e+2, 7.8710663e+1, 17460.145, -245396.73, -37262.906, -0.015514497, -0.0024907128, 22640.486, 22640.486, 0.0, 2.5003033, 2.4994326 
4.2633343e+2, 8.121019e+1, 61259.535, -138502.14, -26991.1, -0.015539782, -0.0019806009, 64842.227, 64842.227, 0.0, 2.500286, 2.4996245 
4.2633325e+2, 8.3709824e+1, 56822.754, -136955.58, -25862.64, -0.013877631, -0.0019876745, 60215.125, 60215.125, 0.0, 2.5002744, 2.4996326 
4.263331e+2, 8.620946e+1, 50067.594, -140204.89, -25524.58, -0.012210087, -0.001999088, 53432.156, 53432.156, 0.0, 2.500263, 2.4996326 
4.2633295e+2, 8.870909e+1, 43304.94, -143457.8, -25186.34, -0.010535752, -0.0020097513, 46641.887, 46641.887, 0.0, 2.5002513, 2.4996326 
4.2633283e+2, 9.120882e+1, 84444.31, -43506.863, -13377.098, -0.0071504116, 0.0002335125, 85827.91, 85827.91, 0.0, 2.5002356, 2.499812 
4.2633274e+2, 9.370867e+1, 74407.555, -43251.773, -12108.753, -0.0063348506, 0.0026664922, 75640.78, 75640.78, 0.0, 2.500213, 2.499823 
4.2633268e+2, 9.620852e+1, 61164.926, -49611.297, -11956.125, -0.0055576675, 0.005078637, 62440.664, 62440.664, 0.0, 2.5001903, 2.4998233 
4.263326e+2, 9.870837e+1, 47908.44, -55977.492, -11802.066, -0.0047833114, 0.007486692, 49232.355, 49232.355, 0.0, 2.5001674, 2.4998233 
4.2884108e+2, 1.2490721e+0, -117666.9, -894810.9, -5860.5415, 0.00572658, 0.0007823965, -117622.7, -117622.7, 0.0, 2.5007, 2.4981275 
4.2884102e+2, 3.7472162e+0, -120433.766, -896314.5, -6256.693, 0.003190773, 0.0023480572, -120383.31, -120383.31, 0.0, 2.5006955, 2.4981272 
4.2884094e+2, 6.2453604e+0, -123125.22, -897613.25, -6596.5757, 0.00064921955, 0.003914876, -123069.04, -123069.04, 0.0, 2.5006907, 2.4981272 
4.2884088e+2, 8.743504e+0, -125846.875, -898926.56, -6937.4697, -0.001898081, 0.0054828515, -125784.625, -125784.625, 0.0, 2.5006862, 2.4981272 
4.288408e+2, 1.1241724e+1, -76512.34, -791698.56, -21295.87, -0.002673011, 0.0053454344, -75878.78, -75878.78, 0.0, 2.5006812, 2.4983134 
4.2884067e+2, 1.374002e+1, -79652.09, -792958.2, -20652.48, -0.0015289251, 0.0032201947, -79054.64, -79054.64, 0.0, 2.5006754, 2.498314 
4.2884055e+2, 1.6238312e+1, -82967.07, -794567.0, -19847.916, -0.00038312742, 0.0010921637, -82413.91, -82413.91, 0.0, 2.5006697, 2.498314 
4.2884043e+2, 1.8736607e+1, -86291.13, -796180.25, -19043.68, 0.00076419045, -0.0010383249, -85780.625, -85780.625, 0.0, 2.500664, 2.498314 
4.2884028e+2, 2.1234989e+1, -49087.99, -712165.3, -27064.936, 0.0012074203, -0.0016013976, -47985.11, -47985.11, 0.0, 2.5006568, 2.4984615 
4.288401e+2, 2.373346e+1, -54179.918, -714228.0, -28067.563, 0.0010547893, -0.00086781825, -52988.54, -52988.54, 0.0, 2.5006475, 2.4984624 
4.2883986e+2, 2.6231933e+1, -59543.227, -716828.06, -28757.486, 0.00089835154, -0.00013564172, -58287.43, -58287.43, 0.0, 2.5006385, 2.4984624 
4.2883968e+2, 2.87304e+1, -64922.453, -719435.75, -29452.04, 0.00073777116, 0.00059588515, -63599.832, -63599.832, 0.0, 2.5006292, 2.4984622 
4.2883945e+2, 3.1228969e+1, -17477.42, -610476.75, -38863.098, -0.00077533006, 0.0013551993, -14941.314, -14941.314, 0.0, 2.500618, 2.4986546 
4.2883918e+2, 3.3727628e+1, -25012.904, -613408.9, -39308.313, -0.0034813755, 0.0016238461, -22398.494, -22398.494, 0.0, 2.5006044, 2.498656 
4.288389e+2, 3.6226287e+1, -33025.97, -617288.44, -39349.36, -0.006188497, 0.0018841374, -30387.752, -30387.752, 0.0, 2.5005906, 2.498656 
4.288386e+2, 3.872495e+1, -41065.82, -621180.94, -39397.453, -0.008897383, 0.0021380235, -38402.44, -38402.44, 0.0, 2.5005767, 2.498656 
4.2883834e+2, 4.1223693e+1, 3800.1292, -515778.16, -43605.563, -0.009967993, 0.0016616913, 7434.3027, 7434.3027, 0.0, 2.5005636, 2.4988432 
4.2883807e+2, 4.372252e+1, -3303.6196, -518138.8, -43826.973, -0.009131318, -0.00019604633, 400.63782, 400.63782, 0.0, 2.5005503, 2.4988456 
4.288378e+2, 4.622135e+1, -11139.019, -521933.34, -43705.684, -0.008301599, -0.0020603917, -7426.3643, -7426.3643, 0.0, 2.500537, 2.4988456 
4.2883754e+2, 4.8720178e+1, -19025.756, -525752.6, -43591.063, -0.0074800747, -0.003928259, -15303.192, -15303.192, 0.0, 2.5005233, 2.4988456 
4.288372e+2, 5.1219106e+1, 22823.328, -424013.53, -46928.02, -0.0075841593, -0.0042291475, 27698.645, 27698.645, 0.0, 2.5005074, 2.4990277 
4.2883688e+2, 5.371815e+1, 12654.252, -427545.94, -47141.695, -0.008850449, -0.0036379322, 17646.12, 17646.12, 0.0, 2.5004885, 2.4990308 
4.2883658e+2, 5.621719e+1, 1575.2977, -432902.03, -47328.02, -0.010120213, -0.0030546507, 6671.0186, 6671.0186, 0.0, 2.5004694, 2.4990308 
4.288363e+2, 5.871622e+1, -9543.362, -438277.25, -47518.074, -0.011392131, -0.0024751846, -4339.922, -4339.922, 0.0, 2.5004504, 2.4990308 
4.2883596e+2, 6.1215353e+1, 35175.918, -330453.9, -45675.07, -0.011670328, -0.0021628768, 40795.355, 40795.355, 0.0, 2.5004344, 2.4992235 
4.2883566e+2, 6.3714576e+1, 28261.979, -331757.78, -45506.95, -0.0110884365, -0.002973356, 33925.035, 33925.035, 0.0, 2.5004203, 2.499228 
4.288354e+2, 6.621379e+1, 20007.451, -335754.28, -45543.668, -0.010512049, -0.003791838, 25745.29, 25745.29, 0.0, 2.5004063, 2.499228 
4.2883512e+2, 6.8713015e+1, 11699.256, -339776.63, -45575.94, -0.0099401185, -0.0046128416, 17512.934, 17512.934, 0.0, 2.500392, 2.499228 
4.288348e+2, 7.121234e+1, 57290.816, -228478.67, -43197.113, -0.009973278, -0.004356506, 63677.773, 63677.773, 0.0, 2.500374, 2.4994276 
4.2883453e+2, 7.3711777e+1, 45671.37, -231219.52, -42637.57, -0.011568625, -0.004048561, 52088.29, 52088.29, 0.0, 2.500351, 2.499434 
4.2883423e+2, 7.6211214e+1, 32172.094, -237735.63, -42467.586, -0.013183641, -0.0037495354, 38696.29, 38696.29, 0.0, 2.5003278, 2.499434 
4.2883396e+2, 7.871066e+1, 18597.672, -244287.92, -42295.016, -0.014811288, -0.0034520116, 25234.842, 25234.842, 0.0, 2.5003045, 2.499434 
4.2883372e+2, 8.1210184e+1, 62690.473, -136925.9, -30181.771, -0.015519008, -0.0032018938, 67154.11, 67154.11, 0.0, 2.5002875, 2.4996264 
4.288335e+2, 8.3709806e+1, 58293.78, -135178.48, -29038.46, -0.015530416, -0.0037395547, 62558.2, 62558.2, 0.0, 2.5002759, 2.499635 
4.2883334e+2, 8.620944e+1, 51403.953, -138493.42, -28659.203, -0.015545673, -0.0042812554, 55634.914, 55634.914, 0.0, 2.500264, 2.499635 
4.2883313e+2, 8.870907e+1, 44446.91, -141840.73, -28282.168, -0.015562867, -0.0048214938, 48646.05, 48646.05, 0.0, 2.500252, 2.499635 
4.28833e+2, 9.1208816e+1, 85238.49, -42758.85, -17865.826, -0.011778578, -0.0021160322, 87685.42, 87685.42, 0.0, 2.5002367, 2.4998126 
4.2883295e+2, 9.370868e+1, 75553.64, -42053.523, -16582.465, -0.008405291, 0.0016566969, 77847.02, 77847.02, 0.0, 2.500214, 2.4998245 
4.2883286e+2, 9.6208537e+1, 62332.09, -48395.016, -16251.355, -0.0050904746, 0.005407971, 64668.01, 64668.01, 0.0, 2.5001915, 2.4998248 
4.2883277e+2, 9.87084e+1, 48938.063, -54819.56, -15927.823, -0.0017987143, 0.009155659, 51328.09, 51328.09, 0.0, 2.5001683, 2.4998248 
4.313418e+2, 1.2490718e+0, -98892.945, -885222.1, -6295.582, 0.0069169253, 0.0006956454, -98842.54, -98842.54, 0.0, 2.5007317, 2.4981287 
4.3134174e+2, 3.7472156e+0, -103651.94, -887696.44, -5691.5967, 0.0043815924, 0.0020845, -103610.625, -103610.625, 0.0, 2.5007236, 2.4981284 
4.3134168e+2, 6.245359e+0, -108303.57, -889946.25, -5022.032, 0.0018529586, 0.0034701067, -108271.305, -108271.305, 0.0, 2.5007157, 2.4981284 
4.3134162e+2, 8.7435025e+0, -112956.04, -892196.56, -4352.452, -0.0006689755, 0.0048524654, -112931.734, -112931.734, 0.0, 2.5007076, 2.4981282 
4.313415e+2, 1.1241722e+1, -64091.094, -786178.0, -18678.39, -0.001425553, 0.0046639834, -63608.258, -63608.258, 0.0, 2.5007029, 2.4983125 
4.3134138e+2, 1.3740017e+1, -64996.047, -786364.1, -19896.521, -0.0002682543, 0.0026254007, -64447.684, -64447.684, 0.0, 2.500701, 2.498313 
4.3134126e+2, 1.623831e+1, -66067.29, -786894.4, -20934.496, 0.0008902109, 0.00058357493, -65459.813, -65459.813, 0.0, 2.5006993, 2.498313 
4.313411e+2, 1.8736602e+1, -67139.27, -787424.94, -21972.404, 0.0020496338, -0.0014611589, -66469.625, -66469.625, 0.0, 2.5006974, 2.498313 
4.3134093e+2, 2.1234988e+1, -29832.26, -702196.3, -31258.697, 0.0023438742, -0.0020045917, -28382.146, -28382.146, 0.0, 2.500689, 2.4984632 
4.3134075e+2, 2.373346e+1, -38495.117, -706008.56, -30499.402, 0.0018801778, -0.0013086507, -37104.465, -37104.465, 0.0, 2.5006738, 2.4984639 
4.3134055e+2, 2.6231933e+1, -47407.25, -710335.5, -29385.002, 0.0014209854, -0.000618631, -46107.277, -46107.277, 0.0, 2.5006585, 2.4984639 
4.3134034e+2, 2.87304e+1, -56320.668, -714663.0, -28270.818, 0.0009659698, 0.00006618703, -55108.883, -55108.883, 0.0, 2.5006433, 2.4984636 
4.313401e+2, 3.1228969e+1, -10721.85, -607050.44, -36764.258, -0.00038886457, 0.00072360045, -8463.846, -8463.846, 0.0, 2.5006294, 2.498655 
4.3133977e+2, 3.3727628e+1, -17996.383, -609869.25, -37028.563, -0.0024213926, 0.00082059606, -15688.81, -15688.81, 0.0, 2.5006163, 2.4986565 
4.313395e+2, 3.6226285e+1, -25727.658, -613630.44, -36828.766, -0.004451021, 0.0009152875, -23429.527, -23429.527, 0.0, 2.500603, 2.4986565 
4.3133923e+2, 3.8724944e+1, -33461.094, -617392.6, -36629.266, -0.006478668, 0.0010097134, -31172.36, -31172.36, 0.0, 2.5005896, 2.4986563 
4.3133894e+2, 4.122369e+1, 10737.648, -512117.9, -40834.344, -0.007645014, 0.00048620507, 13907.54, 13907.54, 0.0, 2.5005753, 2.498844 
4.313386e+2, 4.372252e+1, 1953.4739, -515319.38, -41103.48, -0.0077247545, -0.00129309, 5199.2676, 5199.2676, 0.0, 2.500559, 2.4988463 
4.313383e+2, 4.622135e+1, -7504.8394, -519915.2, -40975.605, -0.007792538, -0.003079004, -4248.8574, -4248.8574, 0.0, 2.5005429, 2.498846 
4.3133804e+2, 4.8720178e+1, -16965.613, -524512.2, -40848.082, -0.007849405, -0.00486853, -13699.123, -13699.123, 0.0, 2.5005267, 2.498846 
4.313377e+2, 5.1219106e+1, 24417.15, -422622.66, -44323.13, -0.0080183875, -0.00522224, 28769.332, 28769.332, 0.0, 2.5005095, 2.4990292 
4.3133742e+2, 5.371815e+1, 14147.051, -426208.1, -43750.555, -0.008447557, -0.004846599, 18451.715, 18451.715, 0.0, 2.5004904, 2.4990323 
4.3133706e+2, 5.621718e+1, 2997.4075, -431608.78, -43090.05, -0.008875855, -0.0044766497, 7228.481, 7228.481, 0.0, 2.5004714, 2.499032 
4.3133673e+2, 5.871622e+1, -8156.163, -437011.34, -42430.0, -0.009302434, -0.004108102, -3998.538, -3998.538, 0.0, 2.5004523, 2.499032 
4.3133643e+2, 6.1215353e+1, 34864.383, -329994.88, -39465.69, -0.009702627, -0.0037208602, 39084.453, 39084.453, 0.0, 2.5004332, 2.499225 
4.313361e+2, 6.3714576e+1, 24776.078, -332795.75, -38789.418, -0.010302752, -0.004162369, 28935.572, 28935.572, 0.0, 2.5004137, 2.4992294 
4.3133578e+2, 6.62138e+1, 13381.486, -338299.28, -38275.777, -0.010896111, -0.004610974, 17499.086, 17499.086, 0.0, 2.500394, 2.4992294 
4.3133548e+2, 6.871303e+1, 1982.8081, -343804.8, -37762.695, -0.011481181, -0.0050612018, 6058.743, 6058.743, 0.0, 2.5003746, 2.4992294 
4.3133518e+2, 7.121236e+1, 47115.477, -232906.05, -35539.68, -0.01155767, -0.0047326484, 51555.68, 51555.68, 0.0, 2.500356, 2.4994287 
4.3133488e+2, 7.3711795e+1, 38328.895, -234211.45, -35009.688, -0.012012508, -0.004680691, 42754.273, 42754.273, 0.0, 2.5003378, 2.4994352 
4.3133456e+2, 7.6211226e+1, 27696.652, -239336.13, -34815.082, -0.012461541, -0.004634499, 32161.117, 32161.117, 0.0, 2.5003195, 2.4994352 
4.313343e+2, 7.8710663e+1, 17059.168, -244463.33, -34621.184, -0.012897916, -0.0045864806, 21564.807, 21564.807, 0.0, 2.5003014, 2.4994352 
4.3133402e+2, 8.121019e+1, 59250.203, -137649.06, -22130.566, -0.0137691, -0.0044601513, 61706.92, 61706.92, 0.0, 2.5002806, 2.4996285 
4.313338e+2, 8.3709824e+1, 47581.56, -139278.7, -21200.576, -0.015424531, -0.005012788, 49956.72, 49956.72, 0.0, 2.5002563, 2.4996374 
4.3133357e+2, 8.620946e+1, 33399.258, -146107.48, -20985.246, -0.01707224, -0.005569519, 35819.9, 35819.9, 0.0, 2.500232, 2.4996374 
4.3133333e+2, 8.870909e+1, 19208.693, -152940.22, -20770.16, -0.018709755, -0.0061246958, 21679.207, 21679.207, 0.0, 2.5002077, 2.4996374 
4.3133318e+2, 9.120884e+1, 58954.55, -53347.89, -9926.355, -0.015323226, -0.003014444, 59825.188, 59825.188, 0.0, 2.5001893, 2.4998174 
4.313331e+2, 9.370872e+1, 54472.633, -49914.85, -8176.653, -0.011003087, 0.0015221202, 55109.227, 55109.227, 0.0, 2.5001755, 2.4998298 
4.31333e+2, 9.620859e+1, 46471.58, -53758.8, -7258.216, -0.0067067174, 0.0060360315, 46994.457, 46994.457, 0.0, 2.500162, 2.4998298 
4.3133292e+2, 9.870846e+1, 38457.88, -57608.836, -6339.119, -0.0023992143, 0.010545737, 38874.37, 38874.37, 0.0, 2.500148, 2.4998298 
4.3384254e+2, 1.2490722e+0, -97645.52, -882630.1, -7494.53, 0.005554041, 0.0005092028, -97573.98, -97573.98, 0.0, 2.5007317, 2.4981332 
4.3384248e+2, 3.7472165e+0, -102405.836, -885107.0, -6898.6875, 0.004285984, 0.0015258831, -102345.03, -102345.03, 0.0, 2.5007236, 2.4981327 
4.3384242e+2, 6.245361e+0, -107057.766, -887357.3, -6227.861, 0.0030213785, 0.002540263, -107008.06, -107008.06, 0.0, 2.5007157, 2.4981327 
4.3384236e+2, 8.7435055e+0, -111710.54, -889608.0, -5557.0186, 0.0017602239, 0.003552343, -111670.84, -111670.84, 0.0, 2.5007076, 2.4981327 
4.338422e+2, 1.1241724e+1, -66000.37, -790152.7, -18942.746, 0.0013204768, 0.0034497718, -65505.19, -65505.19, 0.0, 2.5007029, 2.4983056 
4.338421e+2, 1.3740017e+1, -66918.04, -790363.06, -20177.13, 0.0018444504, 0.0019799524, -66355.73, -66355.73, 0.0, 2.500701, 2.498306 
4.3384194e+2, 1.623831e+1, -67991.38, -790895.44, -21212.988, 0.0023678702, 0.0005090499, -67369.445, -67369.445, 0.0, 2.5006993, 2.498306 
4.3384182e+2, 1.8736602e+1, -69065.48, -791428.2, -22248.78, 0.0028905342, -0.00096263114, -68380.86, -68380.86, 0.0, 2.5006974, 2.498306 
4.3384165e+2, 2.1234988e+1, -27734.463, -697859.56, -33532.9, 0.0025848548, -0.0013698763, -26060.664, -26060.664, 0.0, 2.500689, 2.4984705 
4.3384144e+2, 2.3733464e+1, -36415.047, -701709.56, -32813.426, 0.0015836934, -0.00097093347, -34800.55, -34800.55, 0.0, 2.5006738, 2.4984713 
4.338412e+2, 2.623194e+1, -45327.895, -706038.7, -31697.41, 0.00058462523, -0.0005781862, -43810.703, -43810.703, 0.0, 2.5006585, 2.4984713 
4.3384096e+2, 2.8730416e+1, -54242.027, -710368.44, -30581.61, -0.00041275632, -0.00019093651, -52819.723, -52819.723, 0.0, 2.5006433, 2.498471 
4.338407e+2, 3.1228983e+1, -10320.369, -606250.94, -38714.53, -0.0012441492, 0.00009876667, -7815.8125, -7815.8125, 0.0, 2.5006294, 2.4986563 
4.3384042e+2, 3.3727637e+1, -17612.037, -609107.9, -39034.52, -0.0016241696, -0.00020659153, -15047.157, -15047.157, 0.0, 2.5006163, 2.4986577 
4.3384016e+2, 3.6226296e+1, -25342.748, -612870.2, -38833.152, -0.0020048374, -0.000515084, -22787.152, -22787.152, 0.0, 2.500603, 2.4986577 
4.3383986e+2, 3.872495e+1, -33075.62, -616633.56, -38632.08, -0.0023872664, -0.0008247957, -30529.252, -30529.252, 0.0, 2.5005898, 2.4986577 
4.3383953e+2, 4.12237e+1, 11034.088, -511574.8, -43256.566, -0.0034804884, -0.0012654945, 14590.254, 14590.254, 0.0, 2.5005753, 2.4988449 
4.338392e+2, 4.3722534e+1, 2223.6743, -514833.9, -43556.766, -0.005188749, -0.0024384058, 5867.2075, 5867.2075, 0.0, 2.500559, 2.498847 
4.338389e+2, 4.622137e+1, -7233.6753, -519430.53, -43427.45, -0.0068892073, -0.003617642, -3577.704, -3577.704, 0.0, 2.5005429, 2.498847 
4.3383858e+2, 4.8720205e+1, -16693.486, -524028.34, -43298.48, -0.008582424, -0.004800328, -13024.709, -13024.709, 0.0, 2.5005267, 2.4988468 
4.3383822e+2, 5.121914e+1, 25693.64, -420088.66, -47140.945, -0.0091401255, -0.005141436, 30624.205, 30624.205, 0.0, 2.5005097, 2.4990335 
4.338379e+2, 5.3718174e+1, 15431.047, -423660.25, -46641.56, -0.00854235, -0.005387309, 20330.773, 20330.773, 0.0, 2.5004904, 2.4990366 
4.3383756e+2, 5.621721e+1, 4280.756, -429063.53, -45978.668, -0.007948906, -0.005638709, 9105.465, 9105.465, 0.0, 2.5004714, 2.4990363 
4.338372e+2, 5.8716244e+1, -6873.4624, -434468.72, -45316.23, -0.007359793, -0.005891199, -2123.644, -2123.644, 0.0, 2.5004523, 2.4990363 
4.3383685e+2, 6.1215377e+1, 35939.27, -327935.2, -42383.63, -0.008001126, -0.0055714776, 40810.84, 40810.84, 0.0, 2.5004334, 2.4992282 
4.3383652e+2, 6.371462e+1, 25829.123, -330784.6, -41747.125, -0.010274916, -0.005464646, 30651.068, 30651.068, 0.0, 2.500414, 2.4992328 
4.3383616e+2, 6.6213846e+1, 14433.802, -336292.16, -41231.324, -0.012548315, -0.005365791, 19215.756, 19215.756, 0.0, 2.5003943, 2.4992328 
4.338358e+2, 6.871308e+1, 3034.3933, -341801.7, -40716.082, -0.014818884, -0.0052697505, 7776.6763, 7776.6763, 0.0, 2.5003748, 2.4992328 
4.3383548e+2, 7.1212417e+1, 47638.926, -232074.53, -38259.223, -0.014776008, -0.0048864777, 52777.617, 52777.617, 0.0, 2.5003564, 2.49943 
4.338352e+2, 7.371185e+1, 38860.527, -233367.53, -37765.43, -0.013210338, -0.005285325, 44002.492, 44002.492, 0.0, 2.500338, 2.4994364 
4.338349e+2, 7.621128e+1, 28229.041, -238494.14, -37568.258, -0.011645284, -0.005691059, 33419.563, 33419.563, 0.0, 2.50032, 2.4994364 
4.3383458e+2, 7.871071e+1, 17592.314, -243623.28, -37371.793, -0.010074353, -0.0060960553, 22833.873, 22833.873, 0.0, 2.5003016, 2.4994364 
4.338343e+2, 8.1210244e+1, 59869.01, -136710.6, -25742.963, -0.0106526185, -0.0059986105, 63184.254, 63184.254, 0.0, 2.500281, 2.49963 
4.3383408e+2, 8.370988e+1, 48252.914, -138235.33, -24876.447, -0.013848961, -0.006133051, 51514.254, 51514.254, 0.0, 2.5002568, 2.499639 
4.338338e+2, 8.620952e+1, 34072.69, -145062.78, -24658.295, -0.017047038, -0.006271406, 37404.96, 37404.96, 0.0, 2.5002325, 2.499639 
4.3383354e+2, 8.870915e+1, 19884.207, -151894.22, -24440.389, -0.020243857, -0.006408091, 23293.871, 23293.871, 0.0, 2.500208, 2.499639 
4.3383336e+2, 9.1208917e+1, 60983.27, -49636.016, -11917.197, -0.01790413, -0.002961175, 62252.566, 62252.566, 0.0, 2.5001898, 2.4998233 
4.3383324e+2, 9.3708795e+1, 56630.813, -45933.26, -10221.981, -0.014015388, 0.0018116151, 57639.656, 57639.656, 0.0, 2.5001762, 2.4998364 
4.3383315e+2, 9.620868e+1, 48629.555, -49774.395, -9296.26, -0.010165977, 0.0065636477, 49500.074, 49500.074, 0.0, 2.5001624, 2.4998364 
4.3383303e+2, 9.8708564e+1, 40615.65, -53621.617, -8369.88, -0.00632165, 0.011313518, 41353.26, 41353.26, 0.0, 2.5001485, 2.4998364 
4.3634325e+2, 1.24907255e+0, -96398.26, -880038.4, -8693.459, 0.004190901, 0.0003219545, -96301.83, -96301.83, 0.0, 2.5007317, 2.4981377 
4.363432e+2, 3.7472177e+0, -101160.58, -882519.3, -8105.721, 0.0041896077, 0.00096484896, -101076.5, -101076.5, 0.0, 2.5007236, 2.4981372 
4.3634313e+2, 6.245363e+0, -105812.805, -884770.06, -7433.633, 0.004188517, 0.001606391, -105741.875, -105741.875, 0.0, 2.5007157, 2.4981372 
4.3634307e+2, 8.743507e+0, -110465.88, -887021.25, -6761.5283, 0.0041876296, 0.0022465806, -110407.01, -110407.01, 0.0, 2.5007076, 2.4981372 
4.3634295e+2, 1.12417266e+1, -67923.266, -794155.7, -19205.117, 0.004066567, 0.0022391123, -67415.74, -67415.74, 0.0, 2.5007029, 2.4982986 
4.3634284e+2, 1.3740018e+1, -68841.266, -794364.56, -20457.525, 0.00395765, 0.0013323204, -68264.88, -68264.88, 0.0, 2.5007012, 2.4982991 
4.363427e+2, 1.623831e+1, -69916.72, -794899.1, -21491.268, 0.0038464575, 0.00042657438, -69280.195, -69280.195, 0.0, 2.5006993, 2.4982991 
4.3634254e+2, 1.8736601e+1, -70992.914, -795434.06, -22524.941, 0.0037327958, -0.00047782031, -70293.23, -70293.23, 0.0, 2.5006974, 2.4982991 
4.3634236e+2, 2.1234988e+1, -25661.875, -693575.25, -35802.105, 0.0028227693, -0.0007323264, -23748.262, -23748.262, 0.0, 2.5006893, 2.4984777 
4.363421e+2, 2.3733468e+1, -34335.87, -697412.44, -35126.96, 0.0012861931, -0.00063383, -32480.186, -32480.186, 0.0, 2.500674, 2.4984787 
4.3634182e+2, 2.6231948e+1, -43249.43, -701743.75, -34009.33, -0.0002506745, -0.0005419059, -41497.605, -41497.605, 0.0, 2.5006585, 2.4984784 
4.3634158e+2, 2.873043e+1, -52164.28, -706075.75, -32891.914, -0.0017883455, -0.00045577541, -50513.973, -50513.973, 0.0, 2.5006433, 2.4984784 
4.3634135e+2, 3.1228998e+1, -9927.081, -605468.5, -40662.934, -0.0020995256, -0.0005290107, -7163.4834, -7163.4834, 0.0, 2.5006294, 2.4986577 
4.3634105e+2, 3.372765e+1, -17228.324, -608347.75, -41039.94, -0.00082553324, -0.0012387139, -14392.627, -14392.627, 0.0, 2.5006163, 2.4986591 
4.3634075e+2, 3.6226302e+1, -24958.47, -612111.3, -40836.996, 0.00044429305, -0.0019524322, -22131.828, -22131.828, 0.0, 2.500603, 2.498659 
4.3634048e+2, 3.8724956e+1, -32690.777, -615875.9, -40634.35, 0.0017086155, -0.0026683232, -29873.129, -29873.129, 0.0, 2.5005898, 2.498659 
4.3634015e+2, 4.1223705e+1, 11318.732, -511056.28, -45673.535, 0.00068358995, -0.0030183112, 15282.099, 15282.099, 0.0, 2.5005753, 2.4988456 
4.3633983e+2, 4.372255e+1, 2493.353, -514349.6, -46009.52, -0.0026530935, -0.003587006, 6557.1816, 6557.1816, 0.0, 2.5005593, 2.4988477 
4.3633944e+2, 4.622139e+1, -6963.033, -518947.03, -45878.758, -0.00598607, -0.004161815, -2884.3418, -2884.3418, 0.0, 2.500543, 2.4988477 
4.3633908e+2, 4.8720235e+1, -16421.88, -523545.66, -45748.35, -0.0093154805, -0.0047399113, -12327.907, -12327.907, 0.0, 2.500527, 2.4988477 
4.3633872e+2, 5.121917e+1, 26957.596, -417580.8, -49953.523, -0.010254515, -0.0050607156, 32501.81, 32501.81, 0.0, 2.5005097, 2.4990377 
4.3633837e+2, 5.3718203e+1, 16714.451, -421113.66, -49531.836, -0.008627979, -0.0059304745, 22248.088, 22248.088, 0.0, 2.5004907, 2.4990408 
4.36338e+2, 5.621724e+1, 5563.512, -426519.56, -48866.563, -0.007011068, -0.006805707, 11021.155, 11021.155, 0.0, 2.5004716, 2.4990406 
4.3633768e+2, 5.8716273e+1, -5591.3535, -431927.38, -48201.734, -0.0054045403, -0.0076817195, -209.58035, -209.58035, 0.0, 2.5004525, 2.4990406 
4.3633732e+2, 6.1215407e+1, 37000.926, -325903.06, -45291.11, -0.006302101, -0.007422302, 42567.94, 42567.94, 0.0, 2.5004334, 2.4992318 
4.363369e+2, 6.371465e+1, 26881.568, -328774.75, -44703.953, -0.01024615, -0.006770072, 32414.521, 32414.521, 0.0, 2.500414, 2.499236 
4.3633655e+2, 6.62139e+1, 15485.516, -334286.3, -44185.99, -0.01419599, -0.006126812, 20981.1, 20981.1, 0.0, 2.5003943, 2.499236 
4.3633616e+2, 6.8713135e+1, 4085.3774, -339799.84, -43668.586, -0.018148456, -0.0054875594, 9544.026, 9544.026, 0.0, 2.5003748, 2.499236 
4.363358e+2, 7.121247e+1, 48144.723, -231279.75, -40965.535, -0.017992396, -0.0050372183, 54026.73, 54026.73, 0.0, 2.5003567, 2.4994311 
4.363355e+2, 7.3711896e+1, 39391.523, -232524.98, -40520.37, -0.014404472, -0.0058897194, 45301.332, 45301.332, 0.0, 2.5003383, 2.4994378 
4.3633524e+2, 7.6211333e+1, 28760.795, -237653.55, -40320.633, -0.010823489, -0.0067504286, 34729.426, 34729.426, 0.0, 2.5003202, 2.4994378 
4.3633494e+2, 7.8710765e+1, 18124.822, -242784.63, -40121.6, -0.007243411, -0.0076114894, 24155.182, 24155.182, 0.0, 2.5003018, 2.4994378 
4.3633464e+2, 8.121029e+1, 60474.05, -135800.84, -29341.693, -0.0075335363, -0.0075373086, 64766.55, 64766.55, 0.0, 2.5002813, 2.4996314 
4.363343e+2, 8.370994e+1, 48923.797, -137193.05, -28552.225, -0.0122728925, -0.007255624, 53205.496, 53205.496, 0.0, 2.500257, 2.4996407 
4.3633404e+2, 8.620958e+1, 34745.652, -144019.19, -28331.25, -0.017023344, -0.0069777877, 39128.24, 39128.24, 0.0, 2.5002327, 2.4996407 
4.3633375e+2, 8.8709223e+1, 20559.244, -150849.31, -28110.521, -0.021781476, -0.0066981665, 25051.555, 25051.555, 0.0, 2.5002084, 2.4996407 
4.3633354e+2, 9.120898e+1, 62995.324, -45958.8, -13885.428, -0.020471636, -0.0028984977, 64737.08, 64737.08, 0.0, 2.5001903, 2.4998295 
4.3633342e+2, 9.370888e+1, 58788.08, -41953.6, -12267.924, -0.017017327, 0.002104309, 60260.5, 60260.5, 0.0, 2.5001767, 2.499843 
4.3633327e+2, 9.620877e+1, 50786.613, -45791.92, -11334.919, -0.013618174, 0.0070879534, 52099.098, 52099.098, 0.0, 2.5001628, 2.499843 
4.3633315e+2, 9.8708665e+1, 42772.504, -49636.33, -10401.254, -0.010240318, 0.012071478, 43928.766, 43928.766, 0.0, 2.500149, 2.499843 
4.3884397e+2, 1.2490729e+0, -99765.57, -879674.06, -9914.355, 0.002835293, 0.00013352052, -99639.56, -99639.56, 0.0, 2.5007238, 2.498142 
4.388439e+2, 3.7472185e+0, -104195.445, -881998.9, -9382.259, 0.004098581, 0.00040023163, -104082.29, -104082.29, 0.0, 2.5007162, 2.4981415 
4.3884385e+2, 6.245364e+0, -108534.31, -884098.94, -8756.383, 0.0053591225, 0.00066650327, -108435.46, -108435.46, 0.0, 2.5007088, 2.4981415 
4.3884382e+2, 8.74351e+0, -112895.56, -886209.8, -8130.3438, 0.006616917, 0.00093233533, -112810.09, -112810.09, 0.0, 2.5007014, 2.4981415 
4.388437e+2, 1.1241729e+1, -73449.055, -799914.25, -19623.768, 0.0068159243, 0.0010286155, -72919.35, -72919.35, 0.0, 2.5006967, 2.4982917 
4.3884355e+2, 1.374002e+1, -74480.27, -800157.0, -20838.734, 0.0060746646, 0.0006787359, -73882.35, -73882.35, 0.0, 2.5006948, 2.4982924 
4.3884337e+2, 1.623831e+1, -75692.93, -800759.44, -21817.818, 0.0053296676, 0.00033167866, -75037.01, -75037.01, 0.0, 2.5006926, 2.4982922 
4.3884322e+2, 1.87366e+1, -76916.18, -801366.94, -22801.527, 0.0045807497, -0.000012217952, -76199.234, -76199.234, 0.0, 2.5006905, 2.4982922 
4.38843e+2, 2.1234989e+1, -27495.03, -691219.0, -38084.117, 0.003062874, -0.00009847677, -25316.932, -25316.932, 0.0, 2.5006826, 2.498485 
4.3884277e+2, 2.3733473e+1, -35767.93, -694814.56, -37543.813, 0.0009941349, -0.00030442784, -33636.07, -33636.07, 0.0, 2.5006678, 2.4984858 
4.388425e+2, 2.623196e+1, -44340.684, -698983.56, -36510.516, -0.0010769779, -0.000517192, -42310.727, -42310.727, 0.0, 2.5006533, 2.4984858 
4.3884224e+2, 2.8730443e+1, -52943.45, -703167.06, -35477.367, -0.00315111, -0.000735809, -51013.47, -51013.47, 0.0, 2.5006385, 2.4984858 
4.3884194e+2, 3.122901e+1, -12125.283, -605951.56, -42958.547, -0.0029463687, -0.0011667093, -9033.674, -9033.674, 0.0, 2.5006251, 2.498659 
4.3884167e+2, 3.372766e+1, -19194.203, -608725.0, -43460.1, -0.00002074271, -0.0022816688, -16007.558, -16007.558, 0.0, 2.5006123, 2.4986603 
4.388414e+2, 3.622631e+1, -26722.033, -612392.9, -43326.637, 0.0028977608, -0.0034014804, -23534.176, -23534.176, 0.0, 2.5005994, 2.4986603 
4.3884113e+2, 3.872496e+1, -34284.67, -616077.5, -43198.297, 0.0058075483, -0.0045243255, -31094.678, -31094.678, 0.0, 2.5005865, 2.49866 
4.3884078e+2, 4.1223714e+1, 9780.668, -511436.9, -48700.01, 0.004845976, -0.004775241, 14291.913, 14291.913, 0.0, 2.5005724, 2.4988465 
4.388404e+2, 4.372256e+1, 1111.5986, -514664.13, -49104.918, -0.00011607131, -0.0047423155, 5745.0547, 5745.0547, 0.0, 2.5005565, 2.4988487 
4.3884e+2, 4.622141e+1, -8212.443, -519199.25, -49004.375, -0.0050785234, -0.004715321, -3555.2983, -3555.2983, 0.0, 2.5005405, 2.4988484 
4.388396e+2, 4.872026e+1, -17567.56, -523749.34, -48907.43, -0.0100411605, -0.0046913945, -12885.421, -12885.421, 0.0, 2.5005245, 2.4988484 
4.388392e+2, 5.12192e+1, 27010.766, -415680.94, -53537.94, -0.011354287, -0.0049832915, 33393.477, 33393.477, 0.0, 2.5005078, 2.4990418 
4.3883887e+2, 5.3718233e+1, 17128.635, -418991.66, -53301.582, -0.008699822, -0.006477112, 23548.523, 23548.523, 0.0, 2.5004892, 2.4990451 
4.388385e+2, 5.6217265e+1, 6250.2197, -424268.63, -52737.46, -0.006059461, -0.007976581, 12616.289, 12616.289, 0.0, 2.5004706, 2.499045 
4.3883812e+2, 5.87163e+1, -4688.69, -429574.75, -52174.168, -0.0034346364, -0.0094766375, 1624.2744, 1624.2744, 0.0, 2.5004518, 2.499045 
4.3883777e+2, 6.1215436e+1, 37814.195, -324013.53, -49361.34, -0.004603125, -0.009269362, 44427.313, 44427.313, 0.0, 2.5004334, 2.4992352 
4.3883735e+2, 6.371469e+1, 27773.313, -326845.03, -48899.11, -0.01021272, -0.008074442, 34392.566, 34392.566, 0.0, 2.500414, 2.4992394 
4.388369e+2, 6.621394e+1, 16396.92, -332350.7, -48445.777, -0.015833698, -0.0068892664, 23001.615, 23001.615, 0.0, 2.5003943, 2.4992394 
4.388365e+2, 6.871319e+1, 4961.725, -337884.66, -47993.77, -0.021462375, -0.005708963, 11553.455, 11553.455, 0.0, 2.5003748, 2.4992394 
4.3883616e+2, 7.121253e+1, 48522.58, -230569.52, -45059.06, -0.021199994, -0.0051781475, 55616.97, 55616.97, 0.0, 2.5003567, 2.4994323 
4.3883586e+2, 7.371196e+1, 39970.45, -231654.92, -44661.71, -0.015591637, -0.0064858873, 47125.434, 47125.434, 0.0, 2.5003388, 2.4994392 
4.3883556e+2, 7.621138e+1, 29424.24, -236744.84, -44444.367, -0.009995913, -0.00780308, 36649.344, 36649.344, 0.0, 2.5003207, 2.499439 
4.3883526e+2, 7.8710806e+1, 18797.574, -241873.53, -44225.895, -0.0044073514, -0.0091214385, 26096.633, 26096.633, 0.0, 2.5003023, 2.499439 
4.3883497e+2, 8.1210345e+1, 61236.387, -134826.55, -34235.31, -0.0044146855, -0.00906364, 67042.414, 67042.414, 0.0, 2.500282, 2.4996326 
4.388346e+2, 8.370999e+1, 49838.027, -136023.61, -33463.754, -0.010697392, -0.00836745, 55679.473, 55679.473, 0.0, 2.500258, 2.4996421 
4.3883425e+2, 8.620964e+1, 35667.734, -142845.66, -33168.117, -0.016999453, -0.0076752016, 41631.215, 41631.215, 0.0, 2.5002334, 2.4996424 
4.3883392e+2, 8.870929e+1, 21422.041, -149704.02, -32873.523, -0.023317138, -0.006981095, 27519.803, 27519.803, 0.0, 2.500209, 2.4996424 
4.3883368e+2, 9.120906e+1, 64997.492, -42294.082, -16823.049, -0.023019468, -0.0028122603, 67573.46, 67573.46, 0.0, 2.500191, 2.4998355 
4.3883356e+2, 9.370896e+1, 60597.03, -38124.32, -15173.923, -0.020004518, 0.0024143343, 62876.69, 62876.69, 0.0, 2.5001764, 2.4998496 
4.3883342e+2, 9.6208864e+1, 52073.61, -42211.063, -14098.152, -0.017059362, 0.007622364, 54136.535, 54136.535, 0.0, 2.500162, 2.4998496 
4.3883327e+2, 9.870876e+1, 43369.66, -46384.723, -13018.688, -0.014150289, 0.012831621, 45219.855, 45219.855, 0.0, 2.5001469, 2.4998496 
4.413447e+2, 1.249073e+0, -89837.984, -874396.25, -10538.953, 0.0032916402, 0.000095959746, -89696.44, -89696.44, 0.0, 2.5007403, 2.4981432 
4.4134465e+2, 3.747219e+0, -87431.29, -873426.75, -10893.671, 0.004833934, 0.00028602322, -87280.336, -87280.336, 0.0, 2.5007446, 2.4981427 
4.4134462e+2, 6.245365e+0, -84911.734, -872221.56, -11147.992, 0.0063799047, 0.00047361234, -84753.914, -84753.914, 0.0, 2.5007489, 2.4981427 
4.4134453e+2, 8.7435114e+0, -82392.95, -871016.7, -11402.269, 0.007929552, 0.000658727, -82228.125, -82228.125, 0.0, 2.5007532, 2.4981427 
4.413444e+2, 1.1241731e+1, -43140.582, -784348.5, -23197.385, 0.008162618, 0.00067240413, -42415.29, -42415.29, 0.0, 2.5007477, 2.4982939 
4.4134426e+2, 1.3740022e+1, -52130.96, -788461.1, -21926.596, 0.007195998, 0.00024481997, -51478.6, -51478.6, 0.0, 2.5007322, 2.4982944 
4.413441e+2, 1.6238314e+1, -61283.73, -792909.44, -20390.91, 0.0062323213, -0.0001894657, -60715.863, -60715.863, 0.0, 2.5007164, 2.4982944 
4.4134393e+2, 1.8736605e+1, -70437.3, -797358.1, -18855.219, 0.0052714064, -0.00063013297, -69948.55, -69948.55, 0.0, 2.5007007, 2.4982944 
4.4134372e+2, 2.1234995e+1, -22879.611, -687695.7, -33688.11, 0.0037041833, -0.00084599917, -21176.9, -21176.9, 0.0, 2.500689, 2.498488 
4.4134346e+2, 2.373348e+1, -27379.717, -689475.4, -34311.188, 0.0017788532, -0.0012031153, -25606.389, -25606.389, 0.0, 2.500681, 2.498489 
4.4134316e+2, 2.6231968e+1, -32150.697, -691814.1, -34398.945, -0.00014233359, -0.0015599899, -30361.773, -30361.773, 0.0, 2.5006728, 2.4984887 
4.413429e+2, 2.8730452e+1, -36923.027, -694153.5, -34486.793, -0.0020601002, -0.0019156605, -35118.36, -35118.36, 0.0, 2.5006647, 2.4984887 
4.413426e+2, 3.1229025e+1, 4007.4531, -597322.8, -42937.11, -0.0019052174, -0.00230268, 7057.841, 7057.841, 0.0, 2.5006518, 2.4986608 
4.413423e+2, 3.3727682e+1, -6039.1064, -601585.5, -43194.484, 0.0007343089, -0.0031543013, -2922.5557, -2922.5557, 0.0, 2.500634, 2.4986622 
4.41342e+2, 3.6226332e+1, -16484.178, -606671.06, -42766.953, 0.0033804895, -0.0040075514, -13401.243, -13401.243, 0.0, 2.500616, 2.498662 
4.413417e+2, 3.8724986e+1, -26930.852, -611757.5, -42339.668, 0.0060318634, -0.0048607644, -23881.488, -23881.488, 0.0, 2.5005982, 2.498662 
4.4134137e+2, 4.1223744e+1, 15333.724, -506324.72, -47393.57, 0.005115972, -0.0050007766, 19604.547, 19604.547, 0.0, 2.5005794, 2.498852 
4.4134095e+2, 4.37226e+1, 3626.8562, -511043.53, -46442.95, 0.00055083033, -0.00503404, 7784.204, 7784.204, 0.0, 2.5005581, 2.498854 
4.4134054e+2, 4.622145e+1, -8694.0205, -517029.2, -44925.195, -0.004018866, -0.0050714943, -4754.197, -4754.197, 0.0, 2.5005372, 2.498854 
4.4134012e+2, 4.8720306e+1, -21017.293, -523016.03, -43407.395, -0.008593172, -0.0051102163, -17291.545, -17291.545, 0.0, 2.500516, 2.4988537 
4.4133973e+2, 5.1219255e+1, 22134.514, -416300.38, -47016.406, -0.009962401, -0.0054500727, 27119.725, 27119.725, 0.0, 2.5004976, 2.4990456 
4.4133934e+2, 5.3718287e+1, 13476.226, -419060.75, -46801.938, -0.007838807, -0.006943632, 18482.41, 18482.41, 0.0, 2.5004811, 2.499049 
4.41339e+2, 5.621732e+1, 3900.3884, -423717.72, -46198.297, -0.005704128, -0.0084480755, 8834.55, 8834.55, 0.0, 2.500465, 2.4990487 
4.413386e+2, 5.8716357e+1, -5678.4785, -428376.16, -45594.906, -0.003559541, -0.009958557, -816.2464, -816.2464, 0.0, 2.5004485, 2.4990487 
4.4133818e+2, 6.12155e+1, 36079.918, -323086.84, -43250.875, -0.0048387297, -0.009715609, 41214.78, 41214.78, 0.0, 2.5004284, 2.499239 
4.4133773e+2, 6.3714755e+1, 23031.533, -327374.88, -42579.67, -0.01015842, -0.008431971, 28131.383, 28131.383, 0.0, 2.500404, 2.4992435 
4.4133732e+2, 6.6214013e+1, 8706.996, -334301.25, -41853.223, -0.015479697, -0.0071501145, 13739.998, 13739.998, 0.0, 2.5003793, 2.4992435 
4.4133684e+2, 6.8713266e+1, -5621.82, -341229.7, -41126.94, -0.020799085, -0.005865148, -655.42755, -655.42755, 0.0, 2.5003548, 2.4992433 
4.4133648e+2, 7.121261e+1, 36474.125, -234365.13, -36920.67, -0.020701818, -0.0052684373, 41416.926, 41416.926, 0.0, 2.5003338, 2.4994369 
4.4133618e+2, 7.3712045e+1, 27908.96, -235427.86, -35733.59, -0.015756948, -0.0065495432, 32671.703, 32671.703, 0.0, 2.500316, 2.4994438 
4.4133586e+2, 7.621147e+1, 17412.434, -240487.98, -34679.117, -0.010813037, -0.007833354, 21994.234, 21994.234, 0.0, 2.5002978, 2.4994438 
4.4133553e+2, 7.87109e+1, 6910.7017, -245550.6, -33625.86, -0.005864559, -0.009111603, 11312.648, 11312.648, 0.0, 2.5002797, 2.4994435 
4.413352e+2, 8.121044e+1, 49051.094, -139123.75, -23825.045, -0.0058716405, -0.008951484, 52020.746, 52020.746, 0.0, 2.5002594, 2.4996362 
4.4133484e+2, 8.371009e+1, 37892.906, -140157.42, -22810.906, -0.011514327, -0.0081123635, 40768.87, 40768.87, 0.0, 2.5002356, 2.499646 
4.413345e+2, 8.620975e+1, 24006.15, -146840.06, -22195.338, -0.017147733, -0.0072763884, 26842.549, 26842.549, 0.0, 2.5002117, 2.499646 
4.4133413e+2, 8.87094e+1, 10112.862, -153525.84, -21579.816, -0.02276786, -0.0064376043, 12910.854, 12910.854, 0.0, 2.5001879, 2.499646 
4.4133386e+2, 9.1209173e+1, 50703.156, -46624.387, -4970.5283, -0.022843793, -0.0024552853, 50956.344, 50956.344, 0.0, 2.5001636, 2.4998412 
4.413337e+2, 9.3709075e+1, 39326.05, -45725.605, -4117.1216, -0.021175781, 0.002261484, 39524.887, 39524.887, 0.0, 2.500137, 2.4998555 
4.4133353e+2, 9.620898e+1, 23944.547, -53109.98, -3747.6506, -0.01954924, 0.0069447933, 24126.39, 24126.39, 0.0, 2.5001106, 2.4998555 
4.4133335e+2, 9.870888e+1, 8549.584, -60500.832, -3376.5027, -0.0179315, 0.011614205, 8714.3, 8714.3, 0.0, 2.5000842, 2.4998555 
4.4384545e+2, 1.2490734e+0, -90302.22, -875360.56, -9882.662, 0.005064309, 0.00021539374, -90177.83, -90177.83, 0.0, 2.5007403, 2.4981415 
4.438454e+2, 3.7472203e+0, -87894.78, -874389.0, -10240.035, 0.0060554347, 0.00064494554, -87761.48, -87761.48, 0.0, 2.5007446, 2.498141 
4.4384533e+2, 6.245367e+0, -85375.75, -873184.3, -10492.76, 0.007047213, 0.0010728502, -85236.02, -85236.02, 0.0, 2.5007489, 2.498141 
4.438453e+2, 8.743514e+0, -82857.49, -871980.0, -10745.439, 0.008039644, 0.0014991073, -82711.2, -82711.2, 0.0, 2.5007532, 2.498141 
4.4384518e+2, 1.12417355e+1, -40251.82, -778357.9, -25546.201, 0.008060291, 0.0012885508, -39368.71, -39368.71, 0.0, 2.5007477, 2.4983041 
4.43845e+2, 1.374003e+1, -49263.637, -782513.06, -24300.885, 0.0072441655, 0.00019750427, -48459.156, -48459.156, 0.0, 2.5007322, 2.4983046 
4.4384483e+2, 1.6238326e+1, -58418.62, -786963.94, -22762.805, 0.00642937, -0.0008989546, -57708.105, -57708.105, 0.0, 2.5007164, 2.4983046 
4.4384465e+2, 1.873662e+1, -67574.4, -791415.1, -21224.72, 0.005615704, -0.0020005393, -66952.57, -66952.57, 0.0, 2.5007007, 2.4983044 
4.438444e+2, 2.1235012e+1, -22998.266, -687954.5, -34892.875, 0.0044698333, -0.0025687518, -21172.313, -21172.313, 0.0, 2.500689, 2.4984875 
4.4384414e+2, 2.3733498e+1, -27530.021, -689799.5, -35547.805, 0.0032547228, -0.0029053849, -25627.434, -25627.434, 0.0, 2.500681, 2.4984882 
4.4384384e+2, 2.6231983e+1, -32302.957, -692141.8, -35633.363, 0.0020406572, -0.0032418051, -30384.223, -30384.223, 0.0, 2.5006728, 2.4984882 
4.4384357e+2, 2.873047e+1, -37077.242, -694484.75, -35719.02, 0.0008268781, -0.0035772081, -35142.21, -35142.21, 0.0, 2.5006647, 2.498488 
4.4384328e+2, 3.1229046e+1, 4857.703, -595593.4, -45608.887, 0.00044831214, -0.0035640227, 8302.289, 8302.289, 0.0, 2.5006518, 2.498664 
4.4384292e+2, 3.372771e+1, -5226.0977, -599935.5, -45901.42, 0.0012033859, -0.0035803374, -1704.1486, -1704.1486, 0.0, 2.500634, 2.4986649 
4.4384262e+2, 3.6226377e+1, -15670.586, -605021.9, -45472.6, 0.001962026, -0.0035982414, -12182.696, -12182.696, 0.0, 2.500616, 2.4986649 
4.438423e+2, 3.8725045e+1, -26116.676, -610108.94, -45044.035, 0.002723126, -0.0036162713, -22662.803, -22662.803, 0.0, 2.5005982, 2.4986646 
4.438419e+2, 4.1223803e+1, 18204.098, -500432.22, -50520.125, 0.0018406409, -0.0036554516, 23079.41, 23079.41, 0.0, 2.5005794, 2.498862 
4.438415e+2, 4.3722665e+1, 6482.075, -505182.06, -49638.504, -0.0006003391, -0.0043484587, 11253.208, 11253.208, 0.0, 2.5005584, 2.498864 
4.438411e+2, 4.622152e+1, -5839.946, -511169.38, -48118.715, -0.0030489864, -0.005043136, -1298.7723, -1298.7723, 0.0, 2.5005372, 2.498864 
4.4384068e+2, 4.8720378e+1, -18164.363, -517157.84, -46598.883, -0.005505994, -0.0057364837, -13849.994, -13849.994, 0.0, 2.500516, 2.4988637 
4.4384027e+2, 5.121933e+1, 23372.244, -413827.97, -49457.387, -0.006642128, -0.006231971, 28897.191, 28897.191, 0.0, 2.5004978, 2.49905 
4.4383985e+2, 5.371837e+1, 14651.046, -416720.2, -49283.887, -0.006360843, -0.007261008, 20210.06, 20210.06, 0.0, 2.5004814, 2.4990528 
4.4383946e+2, 5.6217414e+1, 5073.403, -421381.75, -48677.98, -0.006074261, -0.008298964, 10559.213, 10559.213, 0.0, 2.500465, 2.4990528 
4.43839e+2, 5.871646e+1, -4507.2695, -426044.75, -48072.324, -0.0057827174, -0.009341611, 905.4195, 905.4195, 0.0, 2.5004485, 2.4990525 
4.438386e+2, 6.121561e+1, 37545.598, -320218.97, -46897.383, -0.0070350724, -0.0090230275, 43590.965, 43590.965, 0.0, 2.5004287, 2.4992437 
4.4383818e+2, 6.371487e+1, 24488.701, -324526.9, -46291.754, -0.010295424, -0.008086066, 30524.244, 30524.244, 0.0, 2.5004041, 2.4992483 
4.438377e+2, 6.621412e+1, 10165.099, -331452.53, -45562.76, -0.013563248, -0.007152482, 16137.551, 16137.551, 0.0, 2.5003796, 2.4992483 
4.4383726e+2, 6.871338e+1, -4162.783, -338380.2, -44833.934, -0.016835786, -0.0062172688, 1747.0106, 1747.0106, 0.0, 2.500355, 2.499248 
4.4383687e+2, 7.121273e+1, 38603.99, -230162.16, -39612.645, -0.017123299, -0.005618209, 44320.777, 44320.777, 0.0, 2.500334, 2.499444 
4.4383648e+2, 7.3712176e+1, 30036.238, -231240.66, -38456.723, -0.015155786, -0.0064839395, 35579.008, 35579.008, 0.0, 2.5003161, 2.4994507 
4.4383612e+2, 7.621161e+1, 19543.764, -236302.17, -37399.066, -0.013197535, -0.0073555196, 24898.61, 24898.61, 0.0, 2.500298, 2.4994507 
4.4383577e+2, 7.871105e+1, 9046.083, -241366.17, -36342.617, -0.011242453, -0.008225068, 14213.88, 14213.88, 0.0, 2.5002801, 2.4994507 
4.438354e+2, 8.1210595e+1, 50463.992, -136512.7, -27365.035, -0.011479204, -0.007915022, 54386.715, 54386.715, 0.0, 2.5002599, 2.4996405 
4.4383505e+2, 8.371026e+1, 39292.87, -137574.52, -26410.047, -0.014521899, -0.007206415, 43152.234, 43152.234, 0.0, 2.500236, 2.4996502 
4.438347e+2, 8.620992e+1, 25406.527, -144256.48, -25792.355, -0.017562855, -0.0065000243, 29240.855, 29240.855, 0.0, 2.5002122, 2.4996502 
4.4383436e+2, 8.870957e+1, 11513.654, -150941.61, -25174.71, -0.020597883, -0.005789739, 15325.392, 15325.392, 0.0, 2.500188, 2.4996502 
4.4383404e+2, 9.120934e+1, 51894.08, -44661.066, -8858.53, -0.020492502, -0.0025229286, 52700.082, 52700.082, 0.0, 2.500164, 2.4998443 
4.4383383e+2, 9.370923e+1, 40477.484, -43836.895, -8085.5596, -0.020898385, 0.0010003123, 41245.87, 41245.87, 0.0, 2.5001378, 2.4998584 
4.4383362e+2, 9.620912e+1, 25092.256, -51218.527, -7707.334, -0.021361168, 0.004496543, 25862.908, 25862.908, 0.0, 2.5001113, 2.4998584 
4.4383338e+2, 9.870902e+1, 9693.569, -58606.64, -7327.431, -0.021850003, 0.007984391, 10470.83, 10470.83, 0.0, 2.5000849, 2.4998586 
4.4634622e+2, 1.24907374e+0, -90766.43, -876324.8, -9226.873, 0.006836926, 0.0003332945, -90658.07, -90658.07, 0.0, 2.5007403, 2.4981399 
4.4634616e+2, 3.7472212e+0, -88359.66, -875354.06, -9586.353, 0.00727678, 0.0009992683, -88242.91, -88242.91, 0.0, 2.5007446, 2.4981394 
4.463461e+2, 6.245369e+0, -85841.16, -874149.94, -9837.48, 0.007714263, 0.0016644219, -85718.414, -85718.414, 0.0, 2.5007489, 2.4981394 
4.4634604e+2, 8.743516e+0, -83323.44, -872946.2, -10088.563, 0.008149375, 0.0023287553, -83194.56, -83194.56, 0.0, 2.5007532, 2.4981394 
4.4634593e+2, 1.124174e+1, -37388.89, -772420.94, -27891.713, 0.007955703, 0.0019122303, -36332.023, -36332.023, 0.0, 2.5007477, 2.4983144 
4.4634575e+2, 1.3740039e+1, -46397.9, -776568.3, -26674.83, 0.007291529, 0.00015093334, -45424.703, -45424.703, 0.0, 2.5007322, 2.4983149 
4.4634554e+2, 1.6238336e+1, -55555.094, -781021.75, -25134.355, 0.0066270786, -0.001614544, -54685.34, -54685.34, 0.0, 2.5007164, 2.4983146 
4.4634533e+2, 1.8736635e+1, -64713.086, -785475.5, -23593.875, 0.005962127, -0.0033838914, -63941.574, -63941.574, 0.0, 2.5007007, 2.4983146 
4.4634512e+2, 2.1235028e+1, -23136.627, -688254.3, -36095.28, 0.005234081, -0.004290415, -21183.506, -21183.506, 0.0, 2.500689, 2.498487 
4.4634482e+2, 2.3733515e+1, -27681.578, -690126.25, -36783.85, 0.004732654, -0.00461165, -25645.324, -25645.324, 0.0, 2.500681, 2.4984877 
4.4634455e+2, 2.6232e+1, -32456.469, -692472.1, -36867.215, 0.004229199, -0.004932797, -30403.521, -30403.521, 0.0, 2.5006728, 2.4984875 
4.4634426e+2, 2.8730485e+1, -37232.71, -694818.7, -36950.676, 0.0037228973, -0.0052531133, -35162.914, -35162.914, 0.0, 2.5006647, 2.4984875 
4.4634393e+2, 3.1229067e+1, 5688.637, -593904.06, -48274.23, 0.002794012, -0.004827394, 9550.405, 9550.405, 0.0, 2.500652, 2.4986668 
4.4634357e+2, 3.3727744e+1, -4413.849, -598287.25, -48607.816, 0.0016652226, -0.004010745, -461.6598, -461.6598, 0.0, 2.5006342, 2.4986677 
4.463432e+2, 3.6226422e+1, -14857.754, -603374.25, -48177.71, 0.000537059, -0.0031957622, -10939.866, -10939.866, 0.0, 2.5006163, 2.4986677 
4.4634283e+2, 3.87251e+1, -25303.262, -608462.06, -47747.86, -0.0005913787, -0.002381069, -21419.627, -21419.627, 0.0, 2.5005984, 2.4986675 
4.4634244e+2, 4.1223866e+1, 21055.584, -494579.03, -53644.33, -0.0014208899, -0.0023124889, 26577.37, 26577.37, 0.0, 2.5005794, 2.498872 
4.4634205e+2, 4.3722728e+1, 9336.46, -499322.4, -52833.707, -0.0017381137, -0.0036689374, 14766.264, 14766.264, 0.0, 2.5005584, 2.498874 
4.4634163e+2, 4.6221587e+1, -2986.7056, -505311.38, -51311.883, -0.0020663016, -0.005024619, 2201.1648, 2201.1648, 0.0, 2.5005372, 2.498874 
4.4634122e+2, 4.8720452e+1, -15312.268, -511301.5, -49790.01, -0.0024066004, -0.0063763745, -10363.461, -10363.461, 0.0, 2.5005162, 2.4988737 
4.463408e+2, 5.1219404e+1, 24593.871, -411389.06, -51890.54, -0.0033230174, -0.007011152, 30684.771, 30684.771, 0.0, 2.5004978, 2.499054 
4.4634032e+2, 5.371846e+1, 15824.972, -414381.56, -51765.082, -0.0048821857, -0.0075788302, 21966.002, 21966.002, 0.0, 2.5004814, 2.4990568 
4.463399e+2, 5.621751e+1, 6245.523, -419047.7, -51156.91, -0.006441675, -0.008153671, 12312.448, 12312.448, 0.0, 2.500465, 2.4990566 
4.4633946e+2, 5.871656e+1, -3336.955, -423715.25, -50548.992, -0.00800115, -0.008731859, 2655.946, 2655.946, 0.0, 2.5004487, 2.4990566 
4.46339e+2, 6.121571e+1, 38996.492, -317381.94, -50531.797, -0.009223189, -0.008331309, 46022.99, 46022.99, 0.0, 2.500429, 2.4992485 
4.4633856e+2, 6.3714975e+1, 25945.068, -321680.72, -50003.535, -0.010422275, -0.0077438606, 32994.76, 32994.76, 0.0, 2.5004044, 2.499253 
4.4633812e+2, 6.6214234e+1, 11622.399, -328605.56, -49271.992, -0.011634771, -0.007161495, 18614.307, 18614.307, 0.0, 2.5003798, 2.499253 
4.4633764e+2, 6.871349e+1, -2704.5479, -335532.47, -48540.617, -0.012858583, -0.00657898, 4230.267, 4230.267, 0.0, 2.500355, 2.499253 
4.4633722e+2, 7.1212846e+1, 40713.613, -226001.27, -42298.863, -0.0135372905, -0.0059641064, 47261.145, 47261.145, 0.0, 2.5003343, 2.499451 
4.4633684e+2, 7.37123e+1, 32162.46, -227055.72, -41178.53, -0.014545913, -0.006418264, 38546.707, 38546.707, 0.0, 2.5003164, 2.4994578 
4.463364e+2, 7.6211756e+1, 21674.037, -232118.61, -40117.688, -0.015572022, -0.006881641, 27864.549, 27864.549, 0.0, 2.5002983, 2.4994578 
4.46336e+2, 7.8711206e+1, 11180.408, -237184.02, -39058.05, -0.016609034, -0.007346518, 17177.893, 17177.893, 0.0, 2.5002804, 2.4994578 
4.463356e+2, 8.1210756e+1, 51861.086, -133934.6, -30895.438, -0.017078998, -0.0068802843, 56863.895, 56863.895, 0.0, 2.50026, 2.4996448 
4.4633526e+2, 8.371042e+1, 40692.242, -134992.94, -30009.191, -0.017523022, -0.006304345, 45676.76, 45676.76, 0.0, 2.5002363, 2.4996543 
4.463349e+2, 8.621008e+1, 26806.314, -141674.25, -29389.377, -0.017972777, -0.0057298243, 31785.764, 31785.764, 0.0, 2.5002124, 2.4996543 
4.4633454e+2, 8.870974e+1, 12913.855, -148358.7, -28769.61, -0.01842395, -0.0051503205, 17892.412, 17892.412, 0.0, 2.5001886, 2.4996545 
4.4633427e+2, 9.12095e+1, 53058.07, -42753.81, -12717.919, -0.018114788, -0.0025747141, 54717.49, 54717.49, 0.0, 2.5001647, 2.4998472 
4.4633397e+2, 9.370939e+1, 41627.742, -41950.76, -12055.84, -0.020599302, -0.00025331034, 43331.992, 43331.992, 0.0, 2.5001383, 2.4998615 
4.463337e+2, 9.6209264e+1, 26238.787, -49329.652, -11668.86, -0.023156477, 0.0020470964, 27999.6, 27999.6, 0.0, 2.5001118, 2.4998615 
4.4633344e+2, 9.8709154e+1, 10836.375, -56715.023, -11280.202, -0.025756953, 0.0043446347, 12670.236, 12670.236, 0.0, 2.5000854, 2.4998615 
4.48847e+2, 1.2490741e+0, -95973.35, -879575.75, -8563.76, 0.008620084, 0.0004493094, -95879.77, -95879.77, 0.0, 2.5007322, 2.4981382 
4.4884694e+2, 3.7472224e+0, -93757.25, -878699.9, -8912.317, 0.008508053, 0.0013479231, -93656.07, -93656.07, 0.0, 2.500736, 2.4981377 
4.4884688e+2, 6.2453705e+0, -91452.83, -877599.44, -9150.942, 0.008391074, 0.0022465303, -91346.32, -91346.32, 0.0, 2.50074, 2.4981377 
4.488468e+2, 8.7435186e+0, -89174.12, -876511.4, -9391.922, 0.008269149, 0.0031451313, -89062.1, -89062.1, 0.0, 2.500744, 2.4981377 
4.4884667e+2, 1.1241745e+1, -39833.71, -769089.9, -30237.238, 0.007859452, 0.0025399907, -38582.13, -38582.13, 0.0, 2.5007386, 2.4983244 
4.4884646e+2, 1.3740046e+1, -48357.5, -772957.9, -29151.756, 0.0073484615, 0.00010083464, -47186.574, -47186.574, 0.0, 2.5007238, 2.4983249 
4.4884625e+2, 1.6238348e+1, -57074.543, -777200.2, -27704.943, 0.0068357904, -0.0023411398, -56010.242, -56010.242, 0.0, 2.5007088, 2.4983249 
4.4884604e+2, 1.873665e+1, -65808.24, -781450.56, -26254.158, 0.006321178, -0.0047855424, -64846.375, -64846.375, 0.0, 2.500694, 2.4983249 
4.4884583e+2, 2.1235044e+1, -27001.738, -690383.3, -37640.125, 0.0060064425, -0.0060162395, -24872.877, -24872.877, 0.0, 2.5006828, 2.4984863 
4.488455e+2, 2.373353e+1, -31481.598, -692215.4, -38382.69, 0.0062200734, -0.0063265325, -29259.383, -29259.383, 0.0, 2.5006747, 2.498487 
4.4884524e+2, 2.6232016e+1, -36218.79, -694545.9, -38484.918, 0.006428989, -0.0066369376, -33976.65, -33976.65, 0.0, 2.5006666, 2.498487 
4.4884497e+2, 2.87305e+1, -40977.547, -696886.8, -38589.734, 0.0066322824, -0.0069466797, -38714.97, -38714.97, 0.0, 2.5006585, 2.498487 
4.4884464e+2, 3.1229088e+1, 3078.2407, -593904.9, -51357.11, 0.005136829, -0.0060965694, 7464.155, 7464.155, 0.0, 2.500646, 2.4986694 
4.488442e+2, 3.3727777e+1, -6713.1353, -598140.56, -51749.98, 0.0021272087, -0.004450887, -2219.1526, -2219.1526, 0.0, 2.5006287, 2.4986706 
4.488438e+2, 3.6226463e+1, -16870.916, -603090.75, -51333.492, -0.00088450866, -0.0028070144, -12409.748, -12409.748, 0.0, 2.5006115, 2.4986703 
4.4884342e+2, 3.872515e+1, -27056.03, -608054.1, -50919.79, -0.0038991629, -0.0011635417, -22627.082, -22627.082, 0.0, 2.500594, 2.4986703 
4.4884297e+2, 4.122393e+1, 21658.623, -489843.5, -57292.22, -0.0046570315, -0.0009798736, 27997.248, 27997.248, 0.0, 2.5005758, 2.4988818 
4.4884259e+2, 4.3722793e+1, 10380.125, -494341.38, -56659.78, -0.0028549288, -0.0030012638, 16662.525, 16662.525, 0.0, 2.5005553, 2.498884 
4.4884217e+2, 4.6221656e+1, -1562.159, -500148.47, -55247.58, -0.0010665099, -0.0050198794, 4486.363, 4486.363, 0.0, 2.5005348, 2.498884 
4.4884178e+2, 4.872052e+1, -13544.601, -505974.9, -53841.75, 0.00070679735, -0.0070323125, -7726.352, -7726.352, 0.0, 2.5005143, 2.4988837 
4.4884133e+2, 5.121948e+1, 24938.914, -409396.97, -55255.063, -0.0000036118001, -0.007789009, 31858.09, 31858.09, 0.0, 2.5004964, 2.499058 
4.4884086e+2, 5.3718543e+1, 16211.198, -412422.28, -55213.35, -0.0033997819, -0.007897643, 23209.12, 23209.12, 0.0, 2.5004802, 2.4990609 
4.4884035e+2, 5.6217605e+1, 6637.091, -417089.13, -54628.34, -0.0068014422, -0.008011824, 13566.651, 13566.651, 0.0, 2.5004637, 2.4990606 
4.4883987e+2, 5.871666e+1, -3006.5981, -421789.5, -54040.344, -0.010207757, -0.008127932, 3854.439, 3854.439, 0.0, 2.5004473, 2.4990606 
4.4883943e+2, 6.1215824e+1, 39747.152, -314901.75, -55187.715, -0.011396557, -0.0076377876, 48136.58, 48136.58, 0.0, 2.5004277, 2.4992533 
4.4883895e+2, 6.371508e+1, 27093.78, -318979.88, -54772.43, -0.010535427, -0.0074008303, 35555.61, 35555.61, 0.0, 2.500404, 2.4992578 
4.488385e+2, 6.6214347e+1, 13071.791, -325759.44, -54062.383, -0.009692766, -0.0071705184, 21488.658, 21488.658, 0.0, 2.5003798, 2.4992578 
4.4883806e+2, 6.8713605e+1, -1033.4708, -332579.13, -53352.66, -0.00886711, -0.0069412924, 7340.585, 7340.585, 0.0, 2.5003557, 2.4992578 
4.4883758e+2, 7.1212965e+1, 43042.68, -221761.1, -46107.656, -0.009943174, -0.006295727, 50841.277, 50841.277, 0.0, 2.500335, 2.4994578 
4.4883713e+2, 7.371243e+1, 34368.05, -222828.02, -45045.563, -0.013925096, -0.006341523, 42029.168, 42029.168, 0.0, 2.5003166, 2.499465 
4.4883668e+2, 7.6211894e+1, 23657.217, -228000.97, -43998.445, -0.017931847, -0.0063997195, 31127.877, 31127.877, 0.0, 2.5002983, 2.4994648 
4.488362e+2, 7.8711355e+1, 12873.884, -233208.84, -42951.234, -0.021956448, -0.00646254, 20155.143, 20155.143, 0.0, 2.50028, 2.4994648 
4.4883582e+2, 8.121092e+1, 52729.46, -131622.16, -35553.03, -0.02266306, -0.005832439, 59348.38, 59348.38, 0.0, 2.5002596, 2.499649 
4.4883546e+2, 8.371058e+1, 41723.37, -132575.19, -34647.047, -0.020512747, -0.0053902483, 48357.96, 48357.96, 0.0, 2.500236, 2.4996586 
4.488351e+2, 8.6210245e+1, 27872.268, -139239.02, -33924.33, -0.01837453, -0.00494892, 34496.477, 34496.477, 0.0, 2.5002122, 2.4996588 
4.4883475e+2, 8.87099e+1, 13903.5625, -145959.47, -33198.855, -0.016244076, -0.004501637, 20523.83, 20523.83, 0.0, 2.500188, 2.4996588 
4.4883445e+2, 9.1209674e+1, 53619.457, -41159.566, -17263.836, -0.015708283, -0.0025913008, 56666.1, 56666.1, 0.0, 2.5001643, 2.4998503 
4.4883412e+2, 9.370954e+1, 41928.797, -40456.152, -16616.215, -0.020273862, -0.0014778372, 45153.867, 45153.867, 0.0, 2.5001373, 2.4998643 
4.488338e+2, 9.620941e+1, 26096.445, -48044.81, -16099.633, -0.02492647, -0.00038044632, 29441.527, 29441.527, 0.0, 2.5001101, 2.4998646 
4.4883347e+2, 9.870929e+1, 10083.049, -55720.637, -15587.321, -0.029637914, 0.0007189378, 13588.565, 13588.565, 0.0, 2.5000825, 2.4998646 
4.5134774e+2, 1.2490757e+0, -65799.55, -863595.06, -8277.027, 0.0106393825, 0.0004431163, -65713.69, -65713.69, 0.0, 2.5007825, 2.4981413 
4.5134768e+2, 3.747227e+0, -71305.16, -866446.25, -7211.884, 0.010178522, 0.0013285588, -71239.75, -71239.75, 0.0, 2.5007732, 2.498141 
4.5134762e+2, 6.245378e+0, -76698.09, -869062.0, -6032.0264, 0.009723472, 0.0022129482, -76652.18, -76652.18, 0.0, 2.500764, 2.4981408 
4.5134756e+2, 8.7435293e+0, -82091.86, -871678.1, -4852.09, 0.009274232, 0.0030962846, -82062.04, -82062.04, 0.0, 2.5007546, 2.4981408 
4.513474e+2, 1.1241759e+1, -33123.19, -763699.3, -26583.037, 0.008680559, 0.0024371261, -32157.207, -32157.207, 0.0, 2.500748, 2.4983292 
4.513472e+2, 1.3740064e+1, -35574.105, -764632.2, -26879.967, 0.00813362, -0.00008313988, -34584.402, -34584.402, 0.0, 2.5007434, 2.4983299 
4.51347e+2, 1.623837e+1, -38200.133, -765927.4, -26792.227, 0.0075886436, -0.0026031928, -37215.074, -37215.074, 0.0, 2.500739, 2.4983296 
4.5134678e+2, 1.8736677e+1, -40826.777, -767222.9, -26704.742, 0.0070453575, -0.005122655, -39846.348, -39846.348, 0.0, 2.5007346, 2.4983296 
4.5134652e+2, 2.1235077e+1, -2598.6963, -676511.25, -38673.39, 0.0067903907, -0.0062995423, -386.6318, -386.6318, 0.0, 2.5007224, 2.498491 
4.5134622e+2, 2.3733568e+1, -14345.192, -681888.0, -37873.895, 0.007145241, -0.006403389, -12203.241, -12203.241, 0.0, 2.500702, 2.4984918 
4.5134592e+2, 2.623206e+1, -26307.344, -687708.94, -36394.414, 0.007502871, -0.006505741, -24310.725, -24310.725, 0.0, 2.5006814, 2.4984915 
4.5134565e+2, 2.873055e+1, -38270.81, -693530.44, -34915.18, 0.007862411, -0.0066058896, -36415.62, -36415.62, 0.0, 2.500661, 2.4984915 
4.5134526e+2, 3.1229144e+1, 2920.232, -590133.44, -46494.215, 0.0063218083, -0.005711678, 6543.153, 6543.153, 0.0, 2.5006418, 2.498678 
4.5134485e+2, 3.372784e+1, -7572.774, -594726.9, -45215.46, 0.0030676054, -0.004188792, -4111.2373, -4111.2373, 0.0, 2.5006232, 2.4986792 
4.5134443e+2, 3.6226535e+1, -18396.635, -600002.6, -43080.004, -0.00018825184, -0.002665997, -15222.983, -15222.983, 0.0, 2.5006046, 2.498679 
4.5134398e+2, 3.872523e+1, -29221.863, -605279.0, -40944.613, -0.0034466523, -0.0011419022, -26326.186, -26326.186, 0.0, 2.5005863, 2.498679 
4.5134357e+2, 4.1224015e+1, 18970.195, -488477.4, -47054.418, -0.0042809355, -0.0010095615, 23296.557, 23296.557, 0.0, 2.5005682, 2.4988878 
4.5134315e+2, 4.3722886e+1, 8968.974, -492429.75, -47504.363, -0.0023902084, -0.0029746972, 13430.0205, 13430.0205, 0.0, 2.50055, 2.49889 
4.513427e+2, 4.6221757e+1, -1625.0726, -497606.44, -47118.164, -0.0004936847, -0.004946725, 2811.462, 2811.462, 0.0, 2.500532, 2.4988897 
4.5134228e+2, 4.8720628e+1, -12221.304, -502784.16, -46731.625, 0.0014073284, -0.006922473, -7809.272, -7809.272, 0.0, 2.5005138, 2.4988894 
4.5134184e+2, 5.1219594e+1, 24969.53, -405691.13, -48263.12, 0.0006152342, -0.0075469716, 30311.988, 30311.988, 0.0, 2.5004926, 2.4990664 
4.513413e+2, 5.371867e+1, 10762.645, -411392.72, -47041.3, -0.0030934198, -0.007411659, 15940.996, 15940.996, 0.0, 2.5004668, 2.499069 
4.5134082e+2, 5.6217736e+1, -4195.9937, -418645.4, -45220.84, -0.0068015754, -0.007281512, 680.699, 680.699, 0.0, 2.5004413, 2.4990687 
4.513403e+2, 5.871681e+1, -19157.777, -425899.6, -43400.293, -0.010508365, -0.0071529704, -14578.424, -14578.424, 0.0, 2.5004156, 2.4990687 
4.513398e+2, 6.121597e+1, 22549.52, -319819.22, -43315.48, -0.011665345, -0.006605942, 27944.646, 27944.646, 0.0, 2.5003946, 2.499261 
4.5133936e+2, 6.3715243e+1, 13911.802, -322000.28, -42221.895, -0.010420505, -0.0064779595, 19137.516, 19137.516, 0.0, 2.5003777, 2.4992652 
4.5133886e+2, 6.621451e+1, 4012.7407, -326790.63, -40772.68, -0.009169186, -0.006350864, 8964.009, 8964.009, 0.0, 2.5003607, 2.4992652 
4.513384e+2, 6.871378e+1, -5889.749, -331582.6, -39324.203, -0.007909912, -0.0062192474, -1209.0084, -1209.0084, 0.0, 2.5003438, 2.4992652 
4.5133793e+2, 7.1213144e+1, 37268.76, -221793.63, -32198.627, -0.009193955, -0.0055425065, 41210.72, 41210.72, 0.0, 2.500322, 2.499464 
4.5133743e+2, 7.371261e+1, 23129.912, -225511.98, -31549.6, -0.014049576, -0.005405367, 27070.71, 27070.71, 0.0, 2.5002944, 2.499471 
4.5133695e+2, 7.6212084e+1, 7039.985, -233267.78, -30857.973, -0.018909032, -0.0052672015, 10939.195, 10939.195, 0.0, 2.5002668, 2.499471 
4.5133644e+2, 7.871156e+1, -9054.873, -241025.94, -30166.352, -0.023765309, -0.005120342, -5196.121, -5196.121, 0.0, 2.5002391, 2.499471 
4.5133603e+2, 8.121112e+1, 29798.377, -139856.06, -22287.516, -0.024638573, -0.0044035446, 32677.432, 32677.432, 0.0, 2.5002172, 2.4996552 
4.5133567e+2, 8.3710784e+1, 22765.701, -138894.44, -21189.105, -0.021975124, -0.004029995, 25496.857, 25496.857, 0.0, 2.5002005, 2.499665 
4.513353e+2, 8.621046e+1, 13008.217, -143577.05, -20240.445, -0.01929306, -0.0036589375, 15582.215, 15582.215, 0.0, 2.5001836, 2.499665 
4.5133492e+2, 8.8710123e+1, 3243.4778, -148263.14, -19292.729, -0.016587976, -0.0032834474, 5661.603, 5661.603, 0.0, 2.500167, 2.499665 
4.513346e+2, 9.1209894e+1, 43244.82, -43564.82, -4286.92, -0.01609712, -0.001688605, 43456.004, 43456.004, 0.0, 2.5001435, 2.499856 
4.5133424e+2, 9.370976e+1, 28634.031, -44315.75, -3488.9573, -0.021233514, -0.0010850357, 28800.518, 28800.518, 0.0, 2.5001118, 2.49987 
4.5133385e+2, 9.620964e+1, 10072.446, -53238.707, -2681.7322, -0.026408542, -0.0005168575, 10185.836, 10185.836, 0.0, 2.5000799, 2.49987 
4.5133352e+2, 9.870951e+1, -8500.895, -62167.324, -1873.3793, -0.031594954, 0.00003338588, -8435.578, -8435.578, 0.0, 2.500048, 2.49987 
4.5384854e+2, 1.2490785e+0, -63598.28, -859020.56, -9674.421, 0.0123934625, 0.0003376155, -63480.633, -63480.633, 0.0, 2.5007825, 2.4981492 
4.5384848e+2, 3.7472355e+0, -69101.86, -861866.7, -8608.864, 0.011805876, 0.0010125019, -69008.38, -69008.38, 0.0, 2.5007732, 2.4981487 
4.538484e+2, 6.2453926e+0, -74495.32, -864482.7, -7427.632, 0.011221156, 0.0016869289, -74425.49, -74425.49, 0.0, 2.500764, 2.4981487 
4.5384833e+2, 8.7435496e+0, -79889.6, -867099.06, -6246.32, 0.010639304, 0.0023608967, -79840.05, -79840.05, 0.0, 2.5007546, 2.4981487 
4.5384818e+2, 1.1241784e+1, -32914.273, -763269.1, -27243.363, 0.009880276, 0.0018156768, -31899.465, -31899.465, 0.0, 2.500748, 2.4983299 
4.5384797e+2, 1.3740095e+1, -35395.297, -764267.2, -27558.363, 0.009129787, -0.0001970781, -34354.813, -34354.813, 0.0, 2.5007434, 2.4983304 
4.5384774e+2, 1.6238408e+1, -38020.96, -765564.25, -27467.541, 0.008379816, -0.002209629, -36985.43, -36985.43, 0.0, 2.500739, 2.4983304 
4.538475e+2, 1.8736719e+1, -40647.246, -766861.56, -27376.97, 0.007630099, -0.004221691, -39616.65, -39616.65, 0.0, 2.5007346, 2.4983304 
4.5384726e+2, 2.1235128e+1, 200.12831, -670719.44, -41737.336, 0.0071474784, -0.004983832, 2786.6013, 2786.6013, 0.0, 2.5007224, 2.498501 
4.5384693e+2, 2.3733634e+1, -11575.202, -676156.3, -40974.33, 0.007211843, -0.0047326307, -9058.486, -9058.486, 0.0, 2.500702, 2.4985015 
4.5384663e+2, 2.6232138e+1, -23538.426, -681979.6, -39492.957, 0.0072762705, -0.004479989, -21178.12, -21178.12, 0.0, 2.5006814, 2.4985015 
4.5384628e+2, 2.8730643e+1, -35502.96, -687803.56, -38011.832, 0.0073399968, -0.0042252797, -33295.35, -33295.35, 0.0, 2.500661, 2.4985013 
4.5384592e+2, 3.1229246e+1, 6927.5474, -581839.9, -49260.15, 0.0062156767, -0.0036221854, 11020.522, 11020.522, 0.0, 2.5006418, 2.4986923 
4.538455e+2, 3.3727947e+1, -3585.2827, -586475.56, -48018.85, 0.004109787, -0.0030203497, 344.05084, 344.05084, 0.0, 2.5006232, 2.4986932 
4.5384505e+2, 3.6226645e+1, -14409.467, -591752.94, -45881.9, 0.0019999822, -0.0024173597, -10785.941, -10785.941, 0.0, 2.5006046, 2.498693 
4.538446e+2, 3.8725346e+1, -25235.02, -597030.94, -43745.016, -0.00011466637, -0.0018119169, -21907.688, -21907.688, 0.0, 2.5005863, 2.498693 
4.538442e+2, 4.1224137e+1, 19805.438, -486806.47, -49765.125, -0.0011357164, -0.001894744, 24647.646, 24647.646, 0.0, 2.5005684, 2.4988906 
4.538437e+2, 4.3723014e+1, 9722.292, -490925.56, -50243.61, -0.0008395838, -0.003247707, 14714.813, 14714.813, 0.0, 2.5005503, 2.4988923 
4.5384327e+2, 4.6221894e+1, -874.9104, -496105.03, -49854.484, -0.00054147514, -0.0046036206, 4094.0508, 4094.0508, 0.0, 2.5005322, 2.4988923 
4.5384276e+2, 4.8720777e+1, -11474.298, -501285.53, -49465.023, -0.00024241998, -0.0059598377, -6528.8594, -6528.8594, 0.0, 2.5005138, 2.498892 
4.5384228e+2, 5.1219755e+1, 28437.889, -398608.5, -52079.617, -0.0013620005, -0.006262858, 34697.406, 34697.406, 0.0, 2.5004926, 2.4990785 
4.5384178e+2, 5.3718835e+1, 14221.177, -404328.1, -50920.33, -0.0040431106, -0.0061324616, 20327.025, 20327.025, 0.0, 2.500467, 2.499081 
4.5384124e+2, 5.621792e+1, -741.1829, -411585.3, -49097.4, -0.006728959, -0.0060046786, 5044.6577, 5044.6577, 0.0, 2.5004413, 2.499081 
4.5384073e+2, 5.8717e+1, -15706.689, -418844.0, -47274.383, -0.0094189765, -0.00587585, -10237.208, -10237.208, 0.0, 2.5004158, 2.4990807 
4.5384023e+2, 6.121618e+1, 25393.635, -314041.4, -45856.88, -0.010521058, -0.0053555253, 31479.67, 31479.67, 0.0, 2.5003948, 2.4992707 
4.5383972e+2, 6.371546e+1, 16699.34, -316346.47, -44790.676, -0.010294479, -0.0052084858, 22617.969, 22617.969, 0.0, 2.500378, 2.499275 
4.5383924e+2, 6.621473e+1, 6803.668, -321135.9, -43338.555, -0.010068618, -0.005063898, 12434.357, 12434.357, 0.0, 2.500361, 2.4992747 
4.5383874e+2, 6.8714005e+1, -3095.433, -325927.03, -41887.18, -0.009841489, -0.004916845, 2250.862, 2250.862, 0.0, 2.5003438, 2.4992747 
4.5383823e+2, 7.1213377e+1, 38764.24, -218893.06, -36302.88, -0.0111617865, -0.004276555, 43781.473, 43781.473, 0.0, 2.5003223, 2.499469 
4.5383775e+2, 7.371286e+1, 24568.162, -222735.64, -35722.586, -0.015005297, -0.004187676, 29624.83, 29624.83, 0.0, 2.5002947, 2.4994757 
4.5383722e+2, 7.6212335e+1, 8480.988, -230490.25, -35027.41, -0.018861583, -0.0040977695, 13509.355, 13509.355, 0.0, 2.500267, 2.4994757 
4.538367e+2, 7.871181e+1, -7611.1147, -238247.23, -34332.242, -0.022723848, -0.003999444, -2608.9446, -2608.9446, 0.0, 2.5002394, 2.4994755 
4.5383626e+2, 8.121138e+1, 31859.748, -135894.1, -24819.361, -0.023698399, -0.003340169, 35454.758, 35454.758, 0.0, 2.5002174, 2.499662 
4.5383587e+2, 8.371105e+1, 24804.145, -134986.02, -23722.66, -0.022288242, -0.003021709, 28251.662, 28251.662, 0.0, 2.5002007, 2.4996715 
4.538355e+2, 8.621072e+1, 15049.379, -139667.38, -22770.365, -0.02087128, -0.00270554, 18330.992, 18330.992, 0.0, 2.500184, 2.4996715 
4.5383504e+2, 8.8710403e+1, 5287.358, -144352.25, -21819.016, -0.019443, -0.0023848508, 8403.89, 8403.89, 0.0, 2.5001671, 2.4996715 
4.5383468e+2, 9.1210175e+1, 45238.965, -39908.375, -8968.908, -0.019261906, -0.00087505946, 46173.438, 46173.438, 0.0, 2.500144, 2.499862 
4.5383433e+2, 9.371005e+1, 30573.096, -40765.355, -8285.191, -0.023642175, -0.00025748886, 31522.691, 31522.691, 0.0, 2.5001123, 2.499876 
4.5383397e+2, 9.620993e+1, 12004.963, -49691.17, -7470.0156, -0.028078254, 0.00032901575, 12896.529, 12896.529, 0.0, 2.5000803, 2.499876 
4.5383355e+2, 9.870981e+1, -6574.927, -58622.645, -6653.712, -0.032543555, 0.00090085715, -5737.7896, -5737.7896, 0.0, 2.5000484, 2.499876 
4.5634937e+2, 1.24908134e+0, -61397.297, -854446.7, -11071.829, 0.014147482, 0.0002307787, -61242.754, -61242.754, 0.0, 2.5007825, 2.498157 
4.5634928e+2, 3.7472442e+0, -66900.13, -857290.44, -10005.814, 0.013433045, 0.0006924369, -66773.49, -66773.49, 0.0, 2.5007732, 2.4981565 
4.563492e+2, 6.245407e+0, -72294.125, -859906.6, -8823.207, 0.012718532, 0.0011542296, -72195.29, -72195.29, 0.0, 2.500764, 2.4981565 
4.563491e+2, 8.743569e+0, -77688.92, -862523.25, -7640.52, 0.012003944, 0.0016161569, -77614.55, -77614.55, 0.0, 2.5007546, 2.4981565 
4.5634893e+2, 1.124181e+1, -32726.275, -762882.44, -27902.58, 0.011079721, 0.0012008485, -31661.545, -31661.545, 0.0, 2.500748, 2.4983306 
4.5634872e+2, 1.3740128e+1, -35218.707, -763906.9, -28236.287, 0.010127201, -0.0003139807, -34126.203, -34126.203, 0.0, 2.5007434, 2.498331 
4.5634848e+2, 1.6238445e+1, -37844.008, -765205.75, -28142.379, 0.0091737555, -0.0018286695, -36756.777, -36756.777, 0.0, 2.500739, 2.498331 
4.5634827e+2, 1.8736762e+1, -40469.934, -766504.94, -28048.725, 0.008219128, -0.0033429705, -39387.945, -39387.945, 0.0, 2.5007346, 2.4983308 
4.5634797e+2, 2.123518e+1, 2958.2417, -665012.3, -44797.93, 0.0074982876, -0.0036645622, 5949.2544, 5949.2544, 0.0, 2.5007224, 2.4985108 
4.563476e+2, 2.3733698e+1, -8806.647, -670427.7, -44074.105, 0.007274245, -0.0030626445, -5883.5503, -5883.5503, 0.0, 2.500702, 2.4985113 
4.563473e+2, 2.6232216e+1, -20770.941, -676253.4, -42590.844, 0.0070476113, -0.0024595044, -18015.13, -18015.13, 0.0, 2.5006814, 2.4985113 
4.5634696e+2, 2.8730735e+1, -32736.549, -682079.7, -41107.83, 0.006817664, -0.0018544333, -30144.492, -30144.492, 0.0, 2.500661, 2.498511 
4.5634657e+2, 3.1229347e+1, 10921.38, -573574.3, -52024.668, 0.0061125793, -0.0015380174, 15515.865, 15515.865, 0.0, 2.5006418, 2.4987063 
4.5634612e+2, 3.3728054e+1, 401.05032, -578226.6, -50821.746, 0.0051555466, -0.0018607095, 4830.8877, 4830.8877, 0.0, 2.5006232, 2.4987073 
4.5634568e+2, 3.6226758e+1, -10423.457, -583505.7, -48683.3, 0.004192325, -0.0021810634, -6317.236, -6317.236, 0.0, 2.5006049, 2.4987073 
4.5634526e+2, 3.872546e+1, -21249.334, -588785.3, -46544.92, 0.0032219589, -0.0024978116, -17457.414, -17457.414, 0.0, 2.5005863, 2.498707 
4.5634478e+2, 4.122426e+1, 20623.795, -485170.7, -52469.945, 0.0020110824, -0.0027765092, 26009.557, 26009.557, 0.0, 2.5005684, 2.4988935 
4.5634428e+2, 4.3723148e+1, 10474.322, -489424.13, -52982.6, 0.0007124951, -0.0035235628, 16028.074, 16028.074, 0.0, 2.5005503, 2.498895 
4.5634377e+2, 4.6222034e+1, -126.03668, -494606.34, -52590.555, -0.00058788207, -0.004269839, 5405.366, 5405.366, 0.0, 2.5005322, 2.4988947 
4.563433e+2, 4.872092e+1, -10728.581, -499789.63, -52198.17, -0.0018908556, -0.0050130025, -5219.4556, -5219.4556, 0.0, 2.500514, 2.4988945 
4.563428e+2, 5.1219916e+1, 31866.852, -391607.84, -55882.133, -0.0033376, -0.0049796887, 39116.99, 39116.99, 0.0, 2.5004928, 2.4990904 
4.5634222e+2, 5.371901e+1, 17678.752, -397265.63, -54798.746, -0.0049885847, -0.0048582484, 24793.637, 24793.637, 0.0, 2.500467, 2.499093 
4.563417e+2, 5.62181e+1, 2712.6704, -404527.3, -52973.348, -0.006649533, -0.004737086, 9490.58, 9490.58, 0.0, 2.5004416, 2.4990928 
4.5634115e+2, 5.87172e+1, -12256.558, -411790.5, -51147.863, -0.008320186, -0.0046122274, -5812.6006, -5812.6006, 0.0, 2.5004158, 2.4990928 
4.5634064e+2, 6.1216384e+1, 28219.596, -308301.38, -48395.004, -0.009367974, -0.0041054934, 35040.996, 35040.996, 0.0, 2.500395, 2.4992805 
4.563401e+2, 6.371567e+1, 19485.633, -310695.25, -47358.586, -0.010159703, -0.0039429315, 26144.105, 26144.105, 0.0, 2.500378, 2.4992845 
4.5633957e+2, 6.621496e+1, 9593.349, -315483.84, -45903.563, -0.010959335, -0.00378459, 15950.97, 15950.97, 0.0, 2.500361, 2.4992845 
4.5633906e+2, 6.8714243e+1, -302.3639, -320274.1, -44449.28, -0.011764387, -0.003625839, 5757.595, 5757.595, 0.0, 2.500344, 2.4992845 
4.5633852e+2, 7.121362e+1, 40241.82, -216029.81, -40401.605, -0.013112502, -0.0030106285, 46460.3, 46460.3, 0.0, 2.5003226, 2.4994738 
4.5633802e+2, 7.3713106e+1, 26005.426, -219961.47, -39895.426, -0.015945368, -0.0029731842, 32314.566, 32314.566, 0.0, 2.500295, 2.4994802 
4.5633748e+2, 7.6212585e+1, 9921.006, -227714.9, -39196.703, -0.018800052, -0.0029348948, 16219.349, 16219.349, 0.0, 2.5002673, 2.4994802 
4.5633698e+2, 7.871206e+1, -6168.3423, -235470.7, -38497.99, -0.021669876, -0.0028884627, 122.562965, 122.562965, 0.0, 2.5002396, 2.4994802 
4.563365e+2, 8.121164e+1, 33906.375, -131962.81, -27336.863, -0.022745637, -0.0022777156, 38295.61, 38295.61, 0.0, 2.500218, 2.4996684 
4.5633605e+2, 8.371132e+1, 26841.9, -131079.06, -26255.566, -0.022590626, -0.002016044, 31092.672, 31092.672, 0.0, 2.500201, 2.4996781 
4.5633563e+2, 8.6210996e+1, 17089.854, -135759.2, -25299.639, -0.02244065, -0.001756635, 21168.62, 21168.62, 0.0, 2.5001843, 2.4996781 
4.5633522e+2, 8.871068e+1, 7330.5503, -140442.81, -24344.654, -0.022291055, -0.0014926181, 11237.853, 11237.853, 0.0, 2.5001676, 2.4996781 
4.563348e+2, 9.1210455e+1, 47213.043, -36293.8, -13628.754, -0.022391785, -0.000049089398, 49381.043, 49381.043, 0.0, 2.5001447, 2.499868 
4.563344e+2, 9.3710345e+1, 32511.148, -37217.246, -13082.46, -0.02601376, 0.0005754245, 34884.875, 34884.875, 0.0, 2.5001128, 2.4998817 
4.5633402e+2, 9.621023e+1, 13936.468, -46145.918, -12259.334, -0.029709192, 0.0011728334, 16341.608, 16341.608, 0.0, 2.5000808, 2.4998817 
4.5633358e+2, 9.8710114e+1, -4649.969, -55080.246, -11435.08, -0.03345169, 0.0017588511, -2178.2112, -2178.2112, 0.0, 2.5000489, 2.4998817 
4.5885015e+2, 1.24908425e+0, -65150.695, -852750.25, -12500.192, 0.015914228, 0.00012219996, -64952.35, -64952.35, 0.0, 2.5007722, 2.498165 
4.5885006e+2, 3.7472525e+0, -70405.65, -855474.3, -11499.94, 0.015072264, 0.00036714063, -70237.23, -70237.23, 0.0, 2.5007634, 2.4981644 
4.5884997e+2, 6.245421e+0, -75572.05, -857980.7, -10381.396, 0.0142275905, 0.0006128025, -75434.32, -75434.32, 0.0, 2.5007546, 2.4981644 
4.5884985e+2, 8.7435895e+0, -80759.52, -860497.2, -9262.441, 0.013380206, 0.0008591854, -80649.51, -80649.51, 0.0, 2.5007455, 2.4981644 
4.588497e+2, 1.1241835e+1, -37716.715, -765025.6, -28808.086, 0.012291018, 0.0005891762, -36577.438, -36577.438, 0.0, 2.500739, 2.4983313 
4.5884946e+2, 1.3740158e+1, -40188.453, -766031.5, -29140.738, 0.011137962, -0.00043745714, -39020.406, -39020.406, 0.0, 2.5007346, 2.4983315 
4.5884925e+2, 1.6238481e+1, -42812.773, -767332.3, -29029.742, 0.009982709, -0.0014639187, -41651.48, -41651.48, 0.0, 2.5007303, 2.4983315 
4.58849e+2, 1.8736804e+1, -45450.523, -768639.6, -28925.39, 0.008825003, -0.0024899459, -44295.438, -44295.438, 0.0, 2.5007257, 2.4983315 
4.5884869e+2, 2.1235232e+1, 729.5075, -661777.8, -48087.434, 0.007855222, -0.0023458174, 4201.6885, 4201.6885, 0.0, 2.5007138, 2.4985204 
4.5884833e+2, 2.3733763e+1, -10557.144, -666883.5, -47470.47, 0.007344295, -0.0013988063, -7141.4976, -7141.4976, 0.0, 2.5006943, 2.498521 
4.5884797e+2, 2.6232296e+1, -22121.293, -672517.94, -46049.742, 0.0068285004, -0.00045083874, -18877.037, -18877.037, 0.0, 2.5006745, 2.498521 
4.5884758e+2, 2.8730828e+1, -33714.156, -678166.2, -44628.69, 0.006307094, 0.0004990387, -30638.273, -30638.273, 0.0, 2.5006545, 2.4985209 
4.588472e+2, 3.1229448e+1, 11514.738, -566974.9, -55300.063, 0.0060229376, 0.00053354644, 16753.64, 16753.64, 0.0, 2.500636, 2.4987206 
4.5884675e+2, 3.3728158e+1, 1347.1836, -571450.7, -54250.797, 0.006212732, -0.00071535725, 6440.099, 6440.099, 0.0, 2.500618, 2.4987216 
4.588463e+2, 3.622687e+1, -9152.994, -576574.94, -52227.566, 0.006394432, -0.0019607113, -4385.831, -4385.831, 0.0, 2.5006, 2.4987214 
4.5884585e+2, 3.872558e+1, -19677.898, -581711.1, -50206.746, 0.006567067, -0.0032012204, -15228.132, -15228.132, 0.0, 2.5005822, 2.4987211 
4.5884538e+2, 4.122438e+1, 19281.697, -484599.8, -56081.11, 0.0051631266, -0.00365586, 25447.965, 25447.965, 0.0, 2.5005648, 2.4988961 
4.5884484e+2, 4.372328e+1, 9300.884, -488848.66, -56604.89, 0.0022710608, -0.0038040783, 15651.944, 15651.944, 0.0, 2.500547, 2.4988976 
4.588443e+2, 4.6222174e+1, -1122.1143, -493945.88, -56174.195, -0.00062628265, -0.003948077, 5199.768, 5199.768, 0.0, 2.500529, 2.4988973 
4.5884377e+2, 4.872107e+1, -11586.175, -499062.88, -55736.098, -0.0035295456, -0.004085621, -5294.735, -5294.735, 0.0, 2.5005112, 2.498897 
4.5884323e+2, 5.122007e+1, 33930.297, -385326.03, -60483.25, -0.005303522, -0.0037008533, 42481.395, 42481.395, 0.0, 2.5004907, 2.499102 
4.588427e+2, 5.3719175e+1, 20235.705, -390636.94, -59562.16, -0.005924298, -0.0035907107, 28695.932, 28695.932, 0.0, 2.5004656, 2.4991052 
4.5884213e+2, 5.6218284e+1, 5640.6665, -397722.6, -57807.242, -0.006559665, -0.0034788542, 13761.698, 13761.698, 0.0, 2.5004406, 2.499105 
4.588416e+2, 5.8717394e+1, -9009.445, -404834.78, -56052.063, -0.0072096926, -0.0033607774, -1225.1078, -1225.1078, 0.0, 2.5004156, 2.4991047 
4.5884103e+2, 6.121659e+1, 30981.104, -302615.7, -52009.805, -0.008204178, -0.0028532606, 38901.695, 38901.695, 0.0, 2.500395, 2.4992902 
4.588405e+2, 6.371589e+1, 22184.365, -305082.75, -51031.418, -0.01001366, -0.0026774444, 29957.188, 29957.188, 0.0, 2.500378, 2.4992943 
4.5883992e+2, 6.621518e+1, 12167.551, -309932.25, -49604.957, -0.011837633, -0.002507691, 19633.887, 19633.887, 0.0, 2.5003607, 2.499294 
4.588394e+2, 6.8714476e+1, 2059.3694, -314825.78, -48184.848, -0.013673147, -0.00233946, 9224.249, 9224.249, 0.0, 2.5003436, 2.499294 
4.5883885e+2, 7.1213865e+1, 41292.875, -213386.7, -45650.45, -0.015041013, -0.0017362621, 49228.31, 49228.31, 0.0, 2.500322, 2.4994786 
4.5883828e+2, 7.371335e+1, 27292.316, -217247.72, -45150.957, -0.0168667, -0.0017518844, 35362.492, 35362.492, 0.0, 2.500295, 2.499485 
4.5883778e+2, 7.621283e+1, 11351.18, -224932.58, -44378.273, -0.018722015, -0.0017674662, 19411.262, 19411.262, 0.0, 2.5002675, 2.499485 
4.588372e+2, 7.871232e+1, -4713.748, -232677.06, -43607.9, -0.020600302, -0.0017756162, 3343.3882, 3343.3882, 0.0, 2.5002398, 2.499485 
4.588367e+2, 8.12119e+1, 35795.1, -128116.43, -30711.93, -0.021776447, -0.0012033863, 41360.59, 41360.59, 0.0, 2.500218, 2.499675 
4.5883626e+2, 8.3711576e+1, 28423.863, -127378.08, -29581.035, -0.02287787, -0.0009987198, 33851.152, 33851.152, 0.0, 2.5002007, 2.4996846 
4.5883578e+2, 8.6211264e+1, 18263.268, -132254.97, -28542.424, -0.023995344, -0.0007968162, 23493.93, 23493.93, 0.0, 2.500183, 2.4996846 
4.5883536e+2, 8.871095e+1, 7995.995, -137183.25, -27504.373, -0.025124064, -0.0005905695, 13032.037, 13032.037, 0.0, 2.5001655, 2.4996846 
4.5883492e+2, 9.121074e+1, 47575.516, -33468.203, -18796.553, -0.025477774, 0.0008060905, 51722.79, 51722.79, 0.0, 2.5001423, 2.4998739 
4.588345e+2, 9.371063e+1, 32820.258, -34435.703, -18281.541, -0.028337747, 0.0014313663, 37468.324, 37468.324, 0.0, 2.5001104, 2.4998877 
4.5883408e+2, 9.6210515e+1, 13857.027, -43550.8, -17310.717, -0.031285487, 0.0020332322, 18672.893, 18672.893, 0.0, 2.5000777, 2.4998877 
4.5883363e+2, 9.871041e+1, -5464.04, -52838.203, -16328.159, -0.03429438, 0.002627073, -381.57828, -381.57828, 0.0, 2.5000446, 2.4998877 
4.6135095e+2, 1.2490883e+0, -51761.56, -842545.1, -13257.268, 0.0173074, 0.00011424212, -51539.367, -51539.367, 0.0, 2.500791, 2.4981732 
4.6135083e+2, 3.7472647e+0, -54113.57, -843866.6, -11908.263, 0.016368259, 0.00034243736, -53934.05, -53934.05, 0.0, 2.5007873, 2.4981728 
4.6135074e+2, 6.2454414e+0, -56356.88, -844960.9, -10442.118, 0.015432772, 0.0005702476, -56218.637, -56218.637, 0.0, 2.5007834, 2.4981728 
4.6135065e+2, 8.743618e+0, -58601.023, -846055.56, -8976.078, 0.014500945, 0.00079767284, -58498.723, -58498.723, 0.0, 2.5007796, 2.4981728 
4.6135047e+2, 1.1241875e+1, -16893.926, -750727.56, -27578.39, 0.013452242, 0.0006487852, -15858.955, -15858.955, 0.0, 2.5007703, 2.4983408 
4.6135023e+2, 1.374021e+1, -25663.87, -754796.1, -25353.904, 0.012460745, -0.00009941114, -24783.309, -24783.309, 0.0, 2.500755, 2.498341 
4.6134996e+2, 1.6238545e+1, -34565.125, -759135.1, -22655.586, 0.011471194, -0.00084126915, -33857.43, -33857.43, 0.0, 2.5007398, 2.498341 
4.6134973e+2, 1.873688e+1, -43467.402, -763474.6, -19956.953, 0.010483346, -0.0015765423, -42914.664, -42914.664, 0.0, 2.5007246, 2.4983408 
4.6134943e+2, 2.1235318e+1, 719.732, -656780.25, -38722.273, 0.009415678, -0.0013108673, 2992.3552, 2992.3552, 0.0, 2.5007086, 2.4985316 
4.6134904e+2, 2.3733862e+1, -9194.539, -661231.44, -37599.773, 0.008539928, -0.0003992933, -7033.506, -7033.506, 0.0, 2.5006912, 2.4985323 
4.6134862e+2, 2.6232404e+1, -19351.307, -666182.9, -35634.35, 0.0076663964, 0.00051662937, -17394.11, -17394.11, 0.0, 2.5006738, 2.4985323 
4.6134827e+2, 2.8730947e+1, -29509.145, -671134.8, -33669.18, 0.0067943423, 0.0014378072, -27747.2, -27747.2, 0.0, 2.5006564, 2.498532 
4.6134785e+2, 3.122958e+1, 15470.403, -560525.25, -44556.703, 0.0064343596, 0.0014738161, 18896.748, 18896.748, 0.0, 2.500638, 2.4987307 
4.6134737e+2, 3.37283e+1, 3966.1118, -565682.8, -44485.43, 0.0068228887, 0.00027761448, 7419.168, 7419.168, 0.0, 2.5006177, 2.4987316 
4.6134692e+2, 3.6227018e+1, -7825.7964, -571432.9, -43403.086, 0.0072122305, -0.00091327174, -4502.9385, -4502.9385, 0.0, 2.5005975, 2.4987314 
4.6134645e+2, 3.872574e+1, -19619.16, -577183.7, -42320.88, 0.007601448, -0.0020976323, -16425.17, -16425.17, 0.0, 2.5005774, 2.4987311 
4.6134594e+2, 4.122455e+1, 17050.13, -480559.8, -47728.527, 0.006247806, -0.0024970795, 21586.682, 21586.682, 0.0, 2.5005553, 2.4989076 
4.613454e+2, 4.372346e+1, 3035.4495, -486772.13, -45794.22, 0.003204028, -0.0025885082, 7280.1636, 7280.1636, 0.0, 2.5005307, 2.4989088 
4.6134484e+2, 4.622237e+1, -11357.462, -493762.8, -42871.004, 0.00015902793, -0.0026816956, -7577.171, -7577.171, 0.0, 2.5005062, 2.4989088 
4.6134427e+2, 4.8721275e+1, -25752.42, -500754.5, -39948.473, -0.0028877088, -0.0027744686, -22416.12, -22416.12, 0.0, 2.5004814, 2.4989085 
4.613437e+2, 5.1220286e+1, 18498.277, -388421.78, -43786.65, -0.004703888, -0.002439006, 23156.615, 23156.615, 0.0, 2.5004594, 2.499112 
4.6134314e+2, 5.37194e+1, 7651.2163, -392423.94, -43577.5, -0.005293948, -0.0024198126, 12342.804, 12342.804, 0.0, 2.5004394, 2.4991148 
4.6134257e+2, 5.6218517e+1, -4002.8728, -398095.4, -42487.555, -0.0058843438, -0.0024034886, 525.71875, 525.71875, 0.0, 2.5004196, 2.4991145 
4.61342e+2, 5.871763e+1, -15658.824, -403767.78, -41397.473, -0.006474931, -0.0023858414, -11292.307, -11292.307, 0.0, 2.5003996, 2.4991143 
4.6134144e+2, 6.1216843e+1, 23296.852, -302677.0, -37666.664, -0.007695583, -0.001777971, 27592.668, 27592.668, 0.0, 2.500378, 2.4992983 
4.6134084e+2, 6.371615e+1, 10207.083, -307274.3, -37250.797, -0.010061109, -0.001283319, 14519.232, 14519.232, 0.0, 2.5003536, 2.4993021 
4.6134028e+2, 6.6215456e+1, -3979.7422, -314140.1, -36347.387, -0.012426402, -0.0007899999, 222.82927, 222.82927, 0.0, 2.5003293, 2.4993021 
4.6133968e+2, 6.871476e+1, -18170.016, -321007.5, -35443.99, -0.014788271, -0.0002935327, -14076.984, -14076.984, 0.0, 2.500305, 2.499302 
4.6133915e+2, 7.121416e+1, 21274.385, -219015.42, -32977.57, -0.016190546, 0.00035665327, 25718.076, 25718.076, 0.0, 2.5002832, 2.4994874 
4.6133855e+2, 7.371365e+1, 11771.24, -220771.33, -31604.334, -0.01752582, 0.000110321205, 15989.979, 15989.979, 0.0, 2.500264, 2.4994938 
4.61338e+2, 7.6213133e+1, 483.07645, -226223.72, -29911.852, -0.018853165, -0.00014424667, 4363.256, 4363.256, 0.0, 2.5002446, 2.4994938 
4.6133745e+2, 7.8712624e+1, -10809.586, -231678.28, -28219.232, -0.020165961, -0.00039984193, -7261.1704, -7261.1704, 0.0, 2.500225, 2.4994936 
4.613369e+2, 8.121221e+1, 28687.902, -128772.84, -14811.988, -0.021468356, 0.000110104804, 30069.117, 30069.117, 0.0, 2.5002027, 2.4996812 
4.6133643e+2, 8.3711904e+1, 15852.441, -130746.04, -14227.654, -0.023356857, 0.00042702694, 17220.494, 17220.494, 0.0, 2.5001762, 2.4996905 
4.6133593e+2, 8.6211604e+1, 381.84784, -138177.61, -13684.631, -0.0252392, 0.00073335494, 1720.459, 1720.459, 0.0, 2.5001495, 2.4996905 
4.6133548e+2, 8.8711286e+1, -15093.87, -145611.66, -13141.471, -0.02711104, 0.0010362772, -13783.842, -13783.842, 0.0, 2.500123, 2.4996908 
4.6133503e+2, 9.121108e+1, 23586.592, -42746.355, -5634.821, -0.0274661, 0.0026335667, 24061.85, 24061.85, 0.0, 2.5000987, 2.4998791 
4.6133456e+2, 9.371098e+1, 14210.74, -41202.637, -6004.0215, -0.029613197, 0.0036820148, 14853.812, 14853.812, 0.0, 2.500076, 2.4998925 
4.6133414e+2, 9.621088e+1, 1034.9199, -47518.035, -5850.172, -0.03175901, 0.00469924, 1729.8635, 1729.8635, 0.0, 2.5000534, 2.4998927 
4.613337e+2, 9.8710775e+1, -12157.84, -53841.582, -5696.8994, -0.033876356, 0.0056997025, -11393.271, -11393.271, 0.0, 2.5000308, 2.4998927 
4.6385175e+2, 1.2490942e+0, -49029.07, -836868.6, -13840.068, 0.017800758, 0.00021744183, -48786.016, -48786.016, 0.0, 2.500791, 2.498183 
4.6385163e+2, 3.7472826e+0, -51379.1, -838189.06, -12488.236, 0.016819756, 0.00065153645, -51180.94, -51180.94, 0.0, 2.5007873, 2.4981825 
4.6385154e+2, 6.245471e+0, -53620.355, -839282.06, -11020.343, 0.015839363, 0.0010845794, -53465.805, -53465.805, 0.0, 2.5007834, 2.4981825 
4.6385142e+2, 8.743659e+0, -55862.44, -840375.5, -9552.554, 0.014859576, 0.0015165707, -55746.145, -55746.145, 0.0, 2.5007796, 2.4981825 
4.638512e+2, 1.1241931e+1, -11848.652, -740256.5, -29862.814, 0.014037004, 0.0015058159, -10626.406, -10626.406, 0.0, 2.5007703, 2.4983587 
4.6385098e+2, 1.3740285e+1, -20631.572, -744347.8, -27658.266, 0.0135417115, 0.00084481726, -19576.096, -19576.096, 0.0, 2.500755, 2.498359 
4.6385074e+2, 1.6238637e+1, -29535.21, -748687.6, -24955.908, 0.0130465785, 0.00019109096, -28670.234, -28670.234, 0.0, 2.5007398, 2.498359 
4.638505e+2, 1.8736991e+1, -38439.867, -753027.9, -22253.236, 0.012551371, -0.00045513178, -37747.543, -37747.543, 0.0, 2.5007246, 2.4983587 
4.6385017e+2, 2.1235445e+1, 4442.9873, -649058.4, -41314.496, 0.011534283, -0.00035416737, 7044.542, 7044.542, 0.0, 2.5007086, 2.498545 
4.6384972e+2, 2.3733997e+1, -5524.5684, -653623.3, -40227.793, 0.010244531, 0.00023719447, -3037.157, -3037.157, 0.0, 2.5006912, 2.4985454 
4.6384934e+2, 2.623255e+1, -15680.238, -658575.44, -38260.61, 0.0089547075, 0.0008326303, -13411.243, -13411.243, 0.0, 2.5006738, 2.4985452 
4.6384895e+2, 2.8731102e+1, -25836.979, -663528.0, -36293.67, 0.0076641277, 0.0014327798, -23778.002, -23778.002, 0.0, 2.5006564, 2.4985452 
4.6384847e+2, 3.1229746e+1, 17558.336, -556236.06, -47575.727, 0.0068224436, 0.0017203775, 21476.29, 21476.29, 0.0, 2.500638, 2.498738 
4.63848e+2, 3.372848e+1, 6011.971, -561483.1, -47534.97, 0.0066548795, 0.0014004846, 9966.081, 9966.081, 0.0, 2.5006177, 2.4987388 
4.6384752e+2, 3.6227217e+1, -5779.2676, -567233.7, -46450.805, 0.006485902, 0.0010860018, -1962.2039, -1962.2039, 0.0, 2.5005977, 2.4987385 
4.63847e+2, 3.8725957e+1, -17571.96, -572984.9, -45366.78, 0.0063146288, 0.00077797007, -13890.748, -13890.748, 0.0, 2.5005774, 2.4987385 
4.638465e+2, 4.1224784e+1, 22518.035, -469269.16, -51421.24, 0.005240347, 0.00062005606, 27837.107, 27837.107, 0.0, 2.5005555, 2.4989269 
4.638459e+2, 4.3723708e+1, 8518.016, -475455.28, -49523.082, 0.0033138702, 0.00011609917, 13533.54, 13533.54, 0.0, 2.5005307, 2.4989283 
4.6384534e+2, 4.6222633e+1, -5874.7324, -482449.8, -46596.242, 0.001383383, -0.00038930125, -1361.611, -1361.611, 0.0, 2.5005062, 2.498928 
4.6384478e+2, 4.8721555e+1, -20269.527, -489445.3, -43670.086, -0.0005515436, -0.00089393964, -16239.408, -16239.408, 0.0, 2.5004814, 2.4989278 
4.638442e+2, 5.122058e+1, 20719.031, -383910.6, -46805.6, -0.0021348011, -0.00096573174, 26062.707, 26062.707, 0.0, 2.5004594, 2.4991195 
4.6384358e+2, 5.3719693e+1, 9748.8545, -388167.1, -46597.28, -0.0034959838, -0.0012111515, 15132.708, 15132.708, 0.0, 2.5004396, 2.499122 
4.63843e+2, 5.6218815e+1, -1907.4662, -393841.56, -45504.23, -0.0048612338, -0.0014584152, 3306.2969, 3306.2969, 0.0, 2.5004196, 2.4991217 
4.6384242e+2, 5.8717936e+1, -13565.649, -399516.94, -44411.04, -0.0062298332, -0.001704097, -8521.245, -8521.245, 0.0, 2.5003996, 2.4991217 
4.638418e+2, 6.1217153e+1, 25118.201, -299031.4, -41309.227, -0.007923469, -0.0009657189, 30299.77, 30299.77, 0.0, 2.500378, 2.4993045 
4.638412e+2, 6.371647e+1, 11992.275, -303705.78, -40926.17, -0.0104438905, 0.00007149375, 17211.537, 17211.537, 0.0, 2.5003536, 2.499308 
4.638406e+2, 6.621579e+1, -2193.8508, -310571.44, -40019.824, -0.012970575, 0.0011084651, 2915.0972, 2915.0972, 0.0, 2.5003293, 2.499308 
4.6384e+2, 6.87151e+1, -16383.426, -317438.75, -39113.484, -0.015500395, 0.0021496161, -11384.75, -11384.75, 0.0, 2.500305, 2.499308 
4.638394e+2, 7.121451e+1, 24605.305, -212296.53, -35900.484, -0.016917922, 0.0028240937, 29926.21, 29926.21, 0.0, 2.5002835, 2.4994988 
4.6383885e+2, 7.3714006e+1, 15073.932, -214111.9, -34535.26, -0.018125761, 0.0021047862, 20164.852, 20164.852, 0.0, 2.5002642, 2.499505 
4.6383825e+2, 7.62135e+1, 3786.6926, -219562.38, -32838.027, -0.019335655, 0.0013825388, 8514.641, 8514.641, 0.0, 2.5002449, 2.499505 
4.6383768e+2, 7.8713e+1, -7505.045, -225014.98, -31140.662, -0.02054093, 0.0006643127, -3134.49, -3134.49, 0.0, 2.5002253, 2.499505 
4.6383712e+2, 8.121259e+1, 30045.432, -126247.64, -18764.27, -0.022013443, 0.001038497, 32266.668, 32266.668, 0.0, 2.5002031, 2.4996853 
4.638366e+2, 8.3712286e+1, 17117.89, -128410.266, -18245.469, -0.024253475, 0.0015470454, 19370.531, 19370.531, 0.0, 2.5001764, 2.4996943 
4.638361e+2, 8.621199e+1, 1644.4088, -135844.61, -17698.83, -0.026498651, 0.0020500303, 3886.2092, 3886.2092, 0.0, 2.50015, 2.4996946 
4.6383557e+2, 8.8711685e+1, -13834.197, -143281.42, -17152.057, -0.028745363, 0.0025546467, -11600.069, -11600.069, 0.0, 2.5001233, 2.4996946 
4.6383512e+2, 9.1211486e+1, 24452.357, -41428.83, -9040.107, -0.028934458, 0.0045485785, 25670.309, 25670.309, 0.0, 2.5000992, 2.499881 
4.638346e+2, 9.3711394e+1, 14975.75, -40096.777, -9411.6, -0.030474156, 0.006359051, 16539.727, 16539.727, 0.0, 2.5000765, 2.4998941 
4.6383417e+2, 9.62113e+1, 1797.8966, -46415.668, -9244.196, -0.032044142, 0.00813507, 3509.5596, 3509.5596, 0.0, 2.500054, 2.4998941 
4.6383372e+2, 9.871121e+1, -11396.896, -52742.715, -9077.37, -0.03361685, 0.009889756, -9491.767, -9491.767, 0.0, 2.5000312, 2.4998944 
4.6635255e+2, 1.2491001e+0, -46296.688, -831192.44, -14421.914, 0.018293723, 0.0003186958, -46031.785, -46031.785, 0.0, 2.500791, 2.4981928 
4.663524e+2, 3.7473002e+0, -48646.58, -832515.56, -13068.146, 0.017270083, 0.00095479836, -48428.773, -48428.773, 0.0, 2.5007873, 2.4981923 
4.663523e+2, 6.2455e+0, -50885.773, -833607.3, -11598.504, 0.016243998, 0.0015891825, -50713.94, -50713.94, 0.0, 2.5007834, 2.4981923 
4.663522e+2, 8.7437e+0, -53125.8, -834699.5, -10128.965, 0.015215471, 0.0022218484, -52994.555, -52994.555, 0.0, 2.5007796, 2.4981923 
4.6635202e+2, 1.1241987e+1, -6837.681, -729856.75, -32146.902, 0.014621504, 0.002374404, -5411.1787, -5411.1787, 0.0, 2.5007703, 2.4983766 
4.6635175e+2, 1.3740359e+1, -15602.094, -733905.44, -29962.47, 0.014622615, 0.0017887085, -14354.441, -14354.441, 0.0, 2.500755, 2.4983768 
4.663515e+2, 1.6238731e+1, -24508.115, -738246.0, -27256.074, 0.01462209, 0.0012111374, -23468.78, -23468.78, 0.0, 2.5007398, 2.4983768 
4.6635124e+2, 1.8737105e+1, -33415.156, -742587.0, -24549.363, 0.014619717, 0.00064198865, -32566.348, -32566.348, 0.0, 2.5007246, 2.4983766 
4.6635088e+2, 2.1235573e+1, 8126.9673, -641418.25, -43903.508, 0.013651934, 0.0006067409, 11081.021, 11081.021, 0.0, 2.5007086, 2.4985578 
4.6635047e+2, 2.3734134e+1, -1856.3292, -646018.94, -42855.332, 0.011949058, 0.0008729225, 982.2736, 982.2736, 0.0, 2.5006912, 2.4985583 
4.6635002e+2, 2.6232696e+1, -12010.901, -650971.6, -40886.383, 0.010243832, 0.0011427139, -9405.253, -9405.253, 0.0, 2.5006738, 2.4985583 
4.6634957e+2, 2.873126e+1, -22166.545, -655924.9, -38917.68, 0.008535616, 0.0014166775, -19785.64, -19785.64, 0.0, 2.5006564, 2.498558 
4.6634912e+2, 3.1229916e+1, 19632.79, -551975.0, -50590.867, 0.0072128377, 0.0019610066, 24075.861, 24075.861, 0.0, 2.500638, 2.4987452 
4.663486e+2, 3.3728668e+1, 8056.3955, -557286.5, -50584.07, 0.0064892084, 0.002512595, 12546.741, 12546.741, 0.0, 2.5006177, 2.498746 
4.6634808e+2, 3.622742e+1, -3734.174, -563037.5, -49498.09, 0.0057619433, 0.0030696157, 612.60223, 612.60223, 0.0, 2.5005977, 2.4987457 
4.6634758e+2, 3.872617e+1, -15526.199, -568789.2, -48412.246, 0.0050302125, 0.0036330128, -11321.924, -11321.924, 0.0, 2.5005774, 2.4987457 
4.6634704e+2, 4.1225016e+1, 27946.563, -458060.44, -55111.266, 0.0042319917, 0.003737552, 34117.605, 34117.605, 0.0, 2.5005555, 2.4989462 
4.6634647e+2, 4.3723956e+1, 13998.7, -464142.5, -53250.676, 0.003425594, 0.0028111755, 19857.45, 19857.45, 0.0, 2.500531, 2.4989476 
4.6634585e+2, 4.6222895e+1, -393.88455, -471140.84, -50320.21, 0.00261244, 0.0018834283, 4924.968, 4924.968, 0.0, 2.5005062, 2.4989474 
4.6634528e+2, 4.8721832e+1, -14788.517, -478140.16, -47390.434, 0.0017921441, 0.00095679075, -9991.211, -9991.211, 0.0, 2.5004816, 2.4989474 
4.6634468e+2, 5.1220864e+1, 22890.3, -379502.28, -49821.05, 0.00043461565, 0.00051832193, 28966.98, 28966.98, 0.0, 2.5004597, 2.4991271 
4.6634406e+2, 5.371999e+1, 11844.798, -383913.88, -49616.695, -0.0016949975, 0.000001457063, 17970.482, 17970.482, 0.0, 2.5004396, 2.499129 
4.6634343e+2, 5.621911e+1, 186.24458, -389591.3, -48520.53, -0.0038323018, -0.00051675603, 6135.406, 6135.406, 0.0, 2.5004196, 2.499129 
4.663428e+2, 5.8718234e+1, -11474.171, -395269.7, -47424.23, -0.005976114, -0.0010331281, -5700.971, -5700.971, 0.0, 2.5003998, 2.4991288 
4.6634215e+2, 6.1217463e+1, 26917.238, -295432.3, -44944.01, -0.008148522, -0.00015805429, 33066.316, 33066.316, 0.0, 2.5003781, 2.4993107 
4.6634156e+2, 6.371679e+1, 13776.397, -300139.56, -44601.355, -0.010825024, 0.001418179, 19990.377, 19990.377, 0.0, 2.5003538, 2.4993143 
4.663409e+2, 6.621612e+1, -409.02982, -307005.13, -43692.066, -0.013514184, 0.0029951218, 5695.834, 5695.834, 0.0, 2.5003295, 2.499314 
4.663403e+2, 6.871545e+1, -14597.905, -313872.34, -42782.785, -0.01621304, 0.0045772754, -8602.018, -8602.018, 0.0, 2.5003052, 2.499314 
4.6633968e+2, 7.121486e+1, 27906.203, -205640.08, -38816.08, -0.017622514, 0.005297479, 34188.555, 34188.555, 0.0, 2.5002837, 2.4995103 
4.6633908e+2, 7.3714364e+1, 18375.486, -207454.92, -37466.203, -0.018709429, 0.004099539, 24429.018, 24429.018, 0.0, 2.5002644, 2.4995165 
4.6633846e+2, 7.6213866e+1, 7089.173, -212903.45, -35764.227, -0.019808672, 0.0029036193, 12757.325, 12757.325, 0.0, 2.500245, 2.4995165 
4.663379e+2, 7.871337e+1, -4201.64, -218354.14, -34062.11, -0.020913223, 0.0017167695, 1085.5859, 1085.5859, 0.0, 2.5002255, 2.4995165 
4.6633732e+2, 8.121297e+1, 31376.566, -123777.41, -22702.484, -0.022530744, 0.0019657093, 34630.215, 34630.215, 0.0, 2.5002034, 2.4996896 
4.6633676e+2, 8.371268e+1, 18382.68, -126075.984, -22263.127, -0.025124008, 0.0026636575, 21735.906, 21735.906, 0.0, 2.5001767, 2.4996984 
4.6633622e+2, 8.621238e+1, 2906.3103, -133513.1, -21712.875, -0.027734142, 0.0033608763, 6278.8154, 6278.8154, 0.0, 2.5001502, 2.4996984 
4.6633565e+2, 8.8712084e+1, -12575.185, -140952.67, -21162.486, -0.030357845, 0.0040647644, -9176.609, -9176.609, 0.0, 2.5001235, 2.4996984 
4.6633518e+2, 9.121189e+1, 25300.057, -40148.953, -12410.176, -0.030381467, 0.0064808424, 27574.205, 27574.205, 0.0, 2.5000997, 2.499883 
4.6633473e+2, 9.3711805e+1, 15739.639, -38993.34, -12818.642, -0.03130612, 0.009046281, 18593.049, 18593.049, 0.0, 2.500077, 2.4998958 
4.6633422e+2, 9.6211725e+1, 2559.7524, -45315.727, -12637.685, -0.03229267, 0.011573591, 5690.9336, 5690.9336, 0.0, 2.5000544, 2.4998958 
4.6633375e+2, 9.871164e+1, -10637.073, -51646.27, -12457.305, -0.03331312, 0.014075, -7149.527, -7149.527, 0.0, 2.5000317, 2.499896 
4.6885332e+2, 1.2491059e+0, -49888.742, -828571.94, -15017.133, 0.018812614, 0.00041696595, -49599.24, -49599.24, 0.0, 2.5007803, 2.4982026 
4.688532e+2, 3.7473178e+0, -52049.027, -829809.4, -13698.96, 0.017744577, 0.0012493995, -51807.816, -51807.816, 0.0, 2.5007768, 2.498202 
4.688531e+2, 6.2455297e+0, -54121.89, -830820.8, -12267.773, 0.016671538, 0.0020798347, -53928.17, -53928.17, 0.0, 2.5007732, 2.498202 
4.68853e+2, 8.743741e+0, -56222.523, -831845.6, -10841.026, 0.015593496, 0.0029082706, -56071.023, -56071.023, 0.0, 2.5007696, 2.4982018 
4.688528e+2, 1.1242043e+1, -7515.5005, -722265.75, -34657.555, 0.015229589, 0.0032483703, -5838.9214, -5838.9214, 0.0, 2.5007606, 2.4983943 
4.6885252e+2, 1.3740435e+1, -15996.978, -726093.7, -32630.137, 0.015725072, 0.0027249586, -14500.721, -14500.721, 0.0, 2.5007458, 2.4983947 
4.6885222e+2, 1.6238825e+1, -24683.139, -730327.2, -30051.8, 0.016217323, 0.002210167, -23405.611, -23405.611, 0.0, 2.500731, 2.4983947 
4.6885195e+2, 1.8737216e+1, -33381.145, -734566.44, -27468.525, 0.016706154, 0.0017044432, -32306.727, -32306.727, 0.0, 2.500716, 2.4983945 
4.6885163e+2, 2.1235698e+1, 7050.241, -636139.1, -47197.895, 0.015785292, 0.0015605871, 10495.22, 10495.22, 0.0, 2.5007005, 2.498571 
4.6885118e+2, 2.373427e+1, -2604.463, -640549.6, -46242.97, 0.013669822, 0.0014970225, 730.1382, 730.1382, 0.0, 2.5006835, 2.4985714 
4.688507e+2, 2.6232842e+1, -12473.762, -645365.94, -44326.133, 0.011550007, 0.0014366811, -9384.3545, -9384.3545, 0.0, 2.5006669, 2.4985714 
4.6885026e+2, 2.8731412e+1, -22366.81, -650193.6, -42411.4, 0.009425234, 0.0013802318, -19514.762, -19514.762, 0.0, 2.50065, 2.4985712 
4.6884975e+2, 3.1230083e+1, 18113.664, -549464.94, -54493.39, 0.0076217637, 0.002186748, 23298.232, 23298.232, 0.0, 2.5006318, 2.4987526 
4.688492e+2, 3.372885e+1, 6827.257, -554667.2, -54510.418, 0.006341432, 0.0036046435, 12070.224, 12070.224, 0.0, 2.5006123, 2.498753 
4.688487e+2, 3.622762e+1, -4683.1426, -560283.75, -53409.85, 0.0050554746, 0.005028088, 404.5543, 404.5543, 0.0, 2.5005925, 2.4987528 
4.6884814e+2, 3.8726386e+1, -16223.467, -565914.7, -52310.223, 0.003763106, 0.006457998, -11289.755, -11289.755, 0.0, 2.500573, 2.4987528 
4.6884757e+2, 4.1225252e+1, 30927.352, -448095.28, -59695.04, 0.0032360398, 0.0068464684, 38254.38, 38254.38, 0.0, 2.5005515, 2.4989653 
4.6884698e+2, 4.3724206e+1, 17494.15, -453790.63, -57982.773, 0.0035495723, 0.005489514, 24523.014, 24523.014, 0.0, 2.5005276, 2.498967 
4.6884638e+2, 4.6223155e+1, 3491.8655, -460604.6, -55159.21, 0.0038540526, 0.004131631, 9957.617, 9957.617, 0.0, 2.5005035, 2.4989667 
4.6884578e+2, 4.8722112e+1, -10547.548, -467436.4, -52337.47, 0.004149088, 0.0027758002, -4628.866, -4628.866, 0.0, 2.5004795, 2.4989667 
4.688452e+2, 5.1221156e+1, 24083.094, -375635.25, -54096.098, 0.0030090413, 0.0020130537, 31274.824, 31274.824, 0.0, 2.5004582, 2.4991345 
4.688445e+2, 5.372028e+1, 13260.176, -379981.63, -53851.85, 0.00011371443, 0.0012185738, 20501.484, 20501.484, 0.0, 2.5004387, 2.4991364 
4.6884388e+2, 5.6219405e+1, 1797.9023, -385565.94, -52703.098, -0.0027924418, 0.0004232168, 8840.427, 8840.427, 0.0, 2.500419, 2.4991362 
4.688432e+2, 5.871854e+1, -9717.906, -391176.06, -51551.703, -0.005707892, -0.0003695547, -2873.8096, -2873.8096, 0.0, 2.5003994, 2.4991362 
4.6884257e+2, 6.1217767e+1, 28479.744, -291969.13, -49624.758, -0.008364736, 0.0006499855, 35988.688, 35988.688, 0.0, 2.500378, 2.4993167 
4.6884188e+2, 6.371711e+1, 15444.244, -296617.66, -49264.914, -0.011198927, 0.0027629014, 23036.914, 23036.914, 0.0, 2.5003538, 2.4993203 
4.6884125e+2, 6.621645e+1, 1301.0756, -303463.3, -48289.23, -0.014051417, 0.0048772935, 8769.383, 8769.383, 0.0, 2.5003295, 2.4993203 
4.6884057e+2, 6.8715787e+1, -12903.112, -310338.3, -47315.21, -0.016919518, 0.0069978824, -5557.733, -5557.733, 0.0, 2.5003052, 2.4993203 
4.6883997e+2, 7.121522e+1, 31078.373, -199082.48, -42554.4, -0.018297682, 0.007787345, 38694.246, 38694.246, 0.0, 2.5002837, 2.4995215 
4.6883935e+2, 7.371472e+1, 21575.35, -200838.1, -41228.17, -0.019270984, 0.0061076228, 28971.736, 28971.736, 0.0, 2.5002644, 2.4995277 
4.6883872e+2, 7.6214236e+1, 10199.317, -206328.53, -39523.69, -0.020266352, 0.0044335024, 17188.156, 17188.156, 0.0, 2.5002449, 2.4995277 
4.688381e+2, 7.8713745e+1, -1270.2698, -211864.02, -37820.28, -0.02127614, 0.002772469, 5315.8545, 5315.8545, 0.0, 2.500225, 2.4995277 
4.6883753e+2, 8.121335e+1, 32127.568, -121611.17, -27401.648, -0.023013148, 0.0029084184, 36865.492, 36865.492, 0.0, 2.5002027, 2.4996934 
4.6883693e+2, 8.371306e+1, 18908.658, -124080.984, -26923.55, -0.025960676, 0.003796918, 23810.086, 23810.086, 0.0, 2.5001757, 2.4997022 
4.6883637e+2, 8.6212766e+1, 3130.1602, -131664.81, -26230.271, -0.028935483, 0.004688458, 8054.512, 8054.512, 0.0, 2.5001488, 2.4997022 
4.6883577e+2, 8.871248e+1, -12768.515, -139306.52, -25529.434, -0.03193421, 0.005590847, -7812.019, -7812.019, 0.0, 2.5001214, 2.4997022 
4.6883526e+2, 9.121229e+1, 24395.281, -39721.844, -15958.973, -0.031790696, 0.008455062, 28147.895, 28147.895, 0.0, 2.5000973, 2.4998848 
4.688348e+2, 9.3712217e+1, 14595.599, -38790.44, -16311.935, -0.032091953, 0.011769055, 19185.105, 19185.105, 0.0, 2.5000744, 2.4998975 
4.6883428e+2, 9.621214e+1, 1053.8567, -45289.523, -15989.451, -0.03248399, 0.015041649, 6035.137, 6035.137, 0.0, 2.500051, 2.4998975 
4.6883377e+2, 9.871207e+1, -12692.462, -51887.105, -15666.629, -0.032938406, 0.018284598, -7199.9795, -7199.9795, 0.0, 2.5000274, 2.4998977 
4.7135413e+2, 1.2491153e+0, -44308.7, -818120.56, -14249.748, 0.020306943, 0.0004954921, -44046.38, -44046.38, 0.0, 2.5007815, 2.4982197 
4.71354e+2, 3.747346e+0, -45725.957, -819002.3, -10545.78, 0.019328682, 0.0014920946, -45582.164, -45582.164, 0.0, 2.5007794, 2.4982193 
4.713539e+2, 6.245577e+0, -47028.9, -819644.9, -6728.136, 0.018357225, 0.0024961885, -46970.313, -46970.313, 0.0, 2.500777, 2.4982193 
4.7135377e+2, 8.7438077e+0, -48332.78, -820287.9, -2910.4397, 0.017392574, 0.003507774, -48321.81, -48321.81, 0.0, 2.5007749, 2.4982193 
4.713536e+2, 1.12421274e+1, 38.928158, -711133.56, -27411.219, 0.016878275, 0.0038714577, 1093.893, 1093.893, 0.0, 2.5007656, 2.498411 
4.7135326e+2, 1.3740534e+1, -9649.438, -715559.2, -25403.58, 0.016954308, 0.0032252017, -8736.42, -8736.42, 0.0, 2.5007486, 2.4984114 
4.7135296e+2, 1.623894e+1, -19512.273, -720344.1, -22827.518, 0.017030735, 0.0025778406, -18769.523, -18769.523, 0.0, 2.5007317, 2.4984114 
4.713527e+2, 1.8737346e+1, -29376.557, -725129.75, -20251.781, 0.017107366, 0.0019297783, -28787.572, -28787.572, 0.0, 2.5007148, 2.4984114 
4.713523e+2, 2.1235843e+1, 9746.07, -627073.75, -39598.527, 0.016073685, 0.0017022615, 12198.925, 12198.925, 0.0, 2.5006967, 2.4985883 
4.7135183e+2, 2.3734434e+1, -1695.6515, -632361.1, -37283.063, 0.014137959, 0.0016237146, 500.7625, 500.7625, 0.0, 2.5006769, 2.4985888 
4.713514e+2, 2.6233023e+1, -13319.303, -638022.44, -33969.547, 0.012203364, 0.0015563957, -11477.567, -11477.567, 0.0, 2.5006568, 2.4985886 
4.7135088e+2, 2.873161e+1, -24944.078, -643684.25, -30656.086, 0.010269327, 0.0015009838, -23428.902, -23428.902, 0.0, 2.500637, 2.4985886 
4.713504e+2, 3.12303e+1, 13177.369, -544862.4, -41239.918, 0.008475631, 0.0025548176, 16208.591, 16208.591, 0.0, 2.5006158, 2.498768 
4.7134984e+2, 3.3729088e+1, -141.34093, -551067.4, -38882.234, 0.0069946395, 0.0044882605, 2589.283, 2589.283, 0.0, 2.5005927, 2.4987686 
4.7134927e+2, 3.622788e+1, -13639.399, -557639.1, -35367.86, 0.0055112853, 0.006431196, -11349.614, -11349.614, 0.0, 2.5005696, 2.4987686 
4.713487e+2, 3.8726667e+1, -27139.064, -564211.7, -31854.133, 0.004024881, 0.008384455, -25256.373, -25256.373, 0.0, 2.5005467, 2.4987683 
4.713481e+2, 4.1225544e+1, 19115.441, -447870.97, -38880.22, 0.0034281795, 0.008908911, 22330.387, 22330.387, 0.0, 2.5005248, 2.4989784 
4.713475e+2, 4.3724507e+1, 7301.0073, -452822.72, -38855.473, 0.0037896498, 0.007335501, 10559.114, 10559.114, 0.0, 2.5005038, 2.49898 
4.7134688e+2, 4.6223474e+1, -5020.488, -458821.47, -37691.613, 0.0041516274, 0.005778545, -1911.217, -1911.217, 0.0, 2.5004826, 2.4989798 
4.7134626e+2, 4.8722434e+1, -17343.914, -464821.13, -36527.53, 0.004513797, 0.0042408733, -14381.783, -14381.783, 0.0, 2.5004616, 2.4989798 
4.713456e+2, 5.122149e+1, 16975.56, -374268.47, -38364.414, 0.0034051845, 0.0035114472, 20701.986, 20701.986, 0.0, 2.5004408, 2.499145 
4.7134495e+2, 5.372063e+1, 5436.3354, -378974.25, -37322.66, 0.00045605825, 0.0029657884, 9026.486, 9026.486, 0.0, 2.50042, 2.499147 
4.7134426e+2, 5.6219774e+1, -6672.2783, -384857.47, -35373.77, -0.0024952653, 0.0024305962, -3392.0244, -3392.0244, 0.0, 2.5003994, 2.499147 
4.713436e+2, 5.871891e+1, -18782.855, -390741.6, -33425.664, -0.005447007, 0.0019093131, -15802.968, -15802.968, 0.0, 2.5003786, 2.499147 
4.7134292e+2, 6.121816e+1, 18331.58, -292554.72, -31363.941, -0.008030124, 0.0030755498, 21464.184, 21464.184, 0.0, 2.500356, 2.4993262 
4.7134227e+2, 6.371751e+1, 4658.2764, -297569.28, -30304.668, -0.010705594, 0.0052203266, 7667.0044, 7667.0044, 0.0, 2.5003307, 2.4993298 
4.7134155e+2, 6.6216856e+1, -10028.097, -304682.28, -28608.809, -0.013383182, 0.007364743, -7276.09, -7276.09, 0.0, 2.5003054, 2.4993298 
4.713409e+2, 6.871621e+1, -24716.402, -311796.16, -26913.531, -0.016060026, 0.009513342, -22215.07, -22215.07, 0.0, 2.5002804, 2.4993296 
4.7134024e+2, 7.1215636e+1, 18132.293, -202823.98, -21750.684, -0.017568799, 0.010311814, 20253.05, 20253.05, 0.0, 2.500259, 2.499527 
4.713396e+2, 7.371515e+1, 9400.799, -204333.64, -22373.643, -0.019067721, 0.008623157, 11717.747, 11717.747, 0.0, 2.5002408, 2.499533 
4.7133896e+2, 7.621467e+1, -1037.3508, -209382.52, -22615.385, -0.0205684, 0.006910001, 1389.2345, 1389.2345, 0.0, 2.500223, 2.499533 
4.7133833e+2, 7.871418e+1, -11478.129, -214432.64, -22857.299, -0.022062814, 0.0051795957, -8935.726, -8935.726, 0.0, 2.500205, 2.499533 
4.713377e+2, 8.121379e+1, 21978.46, -123694.1, -14588.798, -0.023938427, 0.005341031, 23425.13, 23425.13, 0.0, 2.5001822, 2.4996998 
4.713371e+2, 8.371351e+1, 7753.3394, -126754.97, -13979.551, -0.026571365, 0.0063483184, 9190.881, 9190.881, 0.0, 2.5001538, 2.4997082 
4.7133648e+2, 8.6213225e+1, -8839.973, -134722.39, -13110.931, -0.029183414, 0.007332239, -7488.9404, -7488.9404, 0.0, 2.5001252, 2.4997082 
4.713359e+2, 8.871294e+1, -25438.527, -142692.33, -12242.567, -0.031771753, 0.008300599, -24173.91, -24173.91, 0.0, 2.5000966, 2.4997084 
4.7133535e+2, 9.121276e+1, 12001.491, -44068.137, -1304.02, -0.031455684, 0.011237809, 12031.803, 12031.803, 0.0, 2.5000741, 2.4998884 
4.7133484e+2, 9.3712693e+1, 5317.9404, -41781.96, -1757.5228, -0.032012235, 0.01475604, 5383.431, 5383.431, 0.0, 2.5000567, 2.4999008 
4.713343e+2, 9.6212626e+1, -4813.461, -46633.063, -1477.2831, -0.03258638, 0.018263761, -4761.3403, -4761.3403, 0.0, 2.5000393, 2.4999008 
4.713338e+2, 9.871256e+1, -14954.601, -51488.85, -1196.9774, -0.03314858, 0.021772066, -14915.426, -14915.426, 0.0, 2.500022, 2.4999008 
4.7385493e+2, 1.2491292e+0, -37213.06, -803376.5, -14595.444, 0.021568004, 0.00060513866, -36935.117, -36935.117, 0.0, 2.5007815, 2.498245 
4.738548e+2, 3.7473875e+0, -38625.957, -804249.75, -10879.983, 0.0208553, 0.0018202082, -38471.375, -38471.375, 0.0, 2.5007794, 2.4982445 
4.7385466e+2, 6.245645e+0, -39926.66, -804888.3, -7059.636, 0.02014592, 0.0030416676, -39861.516, -39861.516, 0.0, 2.500777, 2.4982445 
4.7385454e+2, 8.743904e+0, -41228.313, -805527.3, -3239.236, 0.01943986, 0.0042695175, -41214.586, -41214.586, 0.0, 2.5007749, 2.4982445 
4.7385433e+2, 1.12422444e+1, 4875.865, -701057.4, -29956.928, 0.01847376, 0.004565007, 6144.834, 6144.834, 0.0, 2.5007656, 2.4984283 
4.7385404e+2, 1.3740665e+1, -4867.609, -705607.5, -27959.898, 0.017384293, 0.0036748066, -3753.7644, -3753.7644, 0.0, 2.5007486, 2.4984286 
4.738537e+2, 1.6239086e+1, -14723.789, -710388.7, -25379.695, 0.016293194, 0.002781056, -13799.101, -13799.101, 0.0, 2.5007317, 2.4984286 
4.7385338e+2, 1.8737507e+1, -24581.416, -715170.56, -22799.818, 0.01520028, 0.0018840114, -23829.498, -23829.498, 0.0, 2.5007148, 2.4984283 
4.73853e+2, 2.1236025e+1, 15960.934, -614181.5, -42581.074, 0.013954293, 0.0016371188, 18825.275, 18825.275, 0.0, 2.5006967, 2.4986103 
4.7385252e+2, 2.3734638e+1, 4481.9053, -619546.9, -40288.77, 0.012756994, 0.001812063, 7072.2905, 7072.2905, 0.0, 2.5006769, 2.4986107 
4.73852e+2, 2.6233253e+1, -7141.945, -625209.0, -36972.79, 0.011558749, 0.0019984462, -4938.09, -4938.09, 0.0, 2.500657, 2.4986105 
4.7385153e+2, 2.8731865e+1, -18766.918, -630871.7, -33656.867, 0.010359035, 0.0021968498, -16921.842, -16921.842, 0.0, 2.500637, 2.4986105 
4.7385103e+2, 3.123058e+1, 19762.135, -531241.0, -44686.734, 0.0090246815, 0.0034743957, 23362.73, 23362.73, 0.0, 2.500616, 2.4987915 
4.7385043e+2, 3.3729392e+1, 6435.819, -537467.6, -42368.14, 0.0076929484, 0.005619704, 9716.359, 9716.359, 0.0, 2.500593, 2.498792 
4.7384986e+2, 3.6228207e+1, -7059.579, -544039.44, -38851.566, 0.0063567925, 0.0077733328, -4263.154, -4263.154, 0.0, 2.5005698, 2.4987917 
4.7384924e+2, 3.872702e+1, -20556.582, -550612.0, -35335.637, 0.005015647, 0.00993604, -18211.342, -18211.342, 0.0, 2.5005467, 2.4987917 
4.7384864e+2, 4.1225913e+1, 21441.793, -443116.2, -42065.574, 0.004111158, 0.010461011, 25220.088, 25220.088, 0.0, 2.5005248, 2.4989865 
4.73848e+2, 4.3724883e+1, 9525.88, -448279.56, -42045.95, 0.0036596423, 0.008789031, 13355.445, 13355.445, 0.0, 2.5005038, 2.498988 
4.7384736e+2, 4.6223855e+1, -2793.723, -454275.16, -40877.04, 0.0032056088, 0.007131395, 877.425, 877.425, 0.0, 2.5004826, 2.4989877 
4.738467e+2, 4.8722827e+1, -15115.257, -460271.66, -39707.906, 0.002748936, 0.005490418, -11601.057, -11601.057, 0.0, 2.5004616, 2.4989874 
4.7384605e+2, 5.1221895e+1, 20679.932, -366658.16, -41498.008, 0.0015451625, 0.005030594, 25075.986, 25075.986, 0.0, 2.5004408, 2.4991581 
4.7384536e+2, 5.372105e+1, 9130.624, -371389.56, -40453.125, -0.0007993996, 0.0052030957, 13383.663, 13383.663, 0.0, 2.50042, 2.49916 
4.7384468e+2, 5.6220216e+1, -2976.5415, -377274.44, -38501.387, -0.0031494736, 0.0053844512, 942.7848, 942.7848, 0.0, 2.5003994, 2.4991598 
4.7384396e+2, 5.871937e+1, -15085.67, -383160.22, -36550.43, -0.005503111, 0.0055777314, -11491.251, -11491.251, 0.0, 2.5003786, 2.4991598 
4.738433e+2, 6.121864e+1, 21627.676, -285808.38, -35180.297, -0.0075067463, 0.006833512, 25602.023, 25602.023, 0.0, 2.500356, 2.499338 
4.738426e+2, 6.371799e+1, 7895.3164, -290947.5, -34105.88, -0.009704631, 0.00847535, 11738.282, 11738.282, 0.0, 2.5003307, 2.499341 
4.7384188e+2, 6.6217345e+1, -6792.1377, -298064.66, -32407.336, -0.01190858, 0.010118713, -3230.021, -3230.021, 0.0, 2.5003057, 2.499341 
4.738412e+2, 6.8716705e+1, -21481.523, -305182.72, -30709.373, -0.0141152525, 0.011767828, -18195.436, -18195.436, 0.0, 2.5002804, 2.499341 
4.738405e+2, 7.121614e+1, 17977.486, -203322.53, -24476.41, -0.015915545, 0.012418128, 20652.316, 20652.316, 0.0, 2.500259, 2.499526 
4.7383985e+2, 7.371565e+1, 9105.19, -205123.22, -25080.004, -0.018479984, 0.011011033, 12002.164, 12002.164, 0.0, 2.500241, 2.4995315 
4.7383916e+2, 7.621517e+1, -1336.888, -210177.94, -25315.646, -0.021052083, 0.009587562, 1688.0522, 1688.0522, 0.0, 2.5002232, 2.4995315 
4.738385e+2, 7.871468e+1, -11781.595, -215233.9, -25551.459, -0.02362387, 0.008154457, -8621.68, -8621.68, 0.0, 2.5002053, 2.4995315 
4.7383785e+2, 8.1214297e+1, 23921.64, -119939.266, -18884.875, -0.025683917, 0.008392446, 26359.383, 26359.383, 0.0, 2.5001826, 2.499706 
4.7383726e+2, 8.371402e+1, 9621.225, -123155.83, -18293.146, -0.0274015, 0.00924949, 12095.429, 12095.429, 0.0, 2.500154, 2.4997144 
4.738366e+2, 8.621374e+1, -6975.3213, -131127.67, -17420.459, -0.029107396, 0.010087578, -4577.285, -4577.285, 0.0, 2.5001254, 2.4997144 
4.73836e+2, 8.871346e+1, -23577.11, -139102.03, -16548.027, -0.030800086, 0.010914473, -21253.473, -21253.473, 0.0, 2.500097, 2.4997144 
4.7383544e+2, 9.121328e+1, 12992.713, -42387.355, -3911.6904, -0.030396309, 0.013561019, 13267.645, 13267.645, 0.0, 2.5000746, 2.4998913 
4.738349e+2, 9.371321e+1, 6201.447, -40333.08, -4383.982, -0.0320232, 0.016728949, 6610.8564, 6610.8564, 0.0, 2.5000572, 2.4999032 
4.7383434e+2, 9.6213144e+1, -3922.8352, -45175.92, -4094.6882, -0.033689175, 0.019881302, -3520.333, -3520.333, 0.0, 2.5000398, 2.4999032 
4.738338e+2, 9.8713064e+1, -14056.855, -50023.453, -3805.3286, -0.035362966, 0.02302836, -13658.653, -13658.653, 0.0, 2.5000224, 2.4999032 
4.763557e+2, 1.2491427e+0, -30117.158, -788631.9, -14941.08, 0.022827722, 0.00071130024, -29822.967, -29822.967, 0.0, 2.5007815, 2.4982703 
4.7635558e+2, 3.7474284e+0, -31528.826, -789503.2, -11214.363, 0.022377884, 0.0021378668, -31362.943, -31362.943, 0.0, 2.5007794, 2.49827 
4.7635546e+2, 6.2457144e+0, -32827.297, -790137.75, -7391.313, 0.021927886, 0.0035697222, -32755.166, -32755.166, 0.0, 2.500777, 2.4982698 
4.7635537e+2, 8.7439996e+0, -34126.715, -790772.7, -3568.209, 0.021477727, 0.005006866, -34109.89, -34109.89, 0.0, 2.5007749, 2.4982698 
4.7635514e+2, 1.1242361e+1, 9657.531, -691096.06, -32511.557, 0.020073177, 0.005279653, 11162.677, 11162.677, 0.0, 2.5007656, 2.4984453 
4.7635478e+2, 1.3740797e+1, -88.627045, -695661.75, -30516.117, 0.017816864, 0.004132625, 1247.6061, 1247.6061, 0.0, 2.5007486, 2.4984455 
4.7635442e+2, 1.6239233e+1, -9938.152, -700439.25, -27931.771, 0.015556858, 0.0029794665, -8810.114, -8810.114, 0.0, 2.5007317, 2.4984455 
4.7635406e+2, 1.8737668e+1, -19789.123, -705217.4, -25347.756, 0.013293013, 0.0018204198, -18853.018, -18853.018, 0.0, 2.5007148, 2.4984455 
4.7635368e+2, 2.1236204e+1, 22142.45, -601358.56, -45562.85, 0.011835771, 0.0015709137, 25454.4, 25454.4, 0.0, 2.500697, 2.4986322 
4.7635317e+2, 2.3734842e+1, 10657.072, -606737.7, -43294.09, 0.011377408, 0.0019921728, 13678.236, 13678.236, 0.0, 2.5006769, 2.4986327 
4.7635266e+2, 2.623348e+1, -966.9777, -612400.6, -39975.652, 0.010916015, 0.0024249533, 1635.5605, 1635.5605, 0.0, 2.500657, 2.4986324 
4.7635219e+2, 2.8732118e+1, -12592.15, -618064.1, -36657.266, 0.010451127, 0.0028698677, -10380.875, -10380.875, 0.0, 2.500637, 2.4986324 
4.7635162e+2, 3.1230855e+1, 26329.139, -517656.6, -48126.992, 0.009572827, 0.004384761, 30554.17, 30554.17, 0.0, 2.500616, 2.4988148 
4.7635102e+2, 3.3729693e+1, 13011.042, -523872.06, -45853.2, 0.008390603, 0.0067356606, 16899.037, 16899.037, 0.0, 2.500593, 2.4988153 
4.7635043e+2, 3.6228535e+1, -481.69507, -530443.9, -42334.42, 0.0072019207, 0.00909356, 2878.7537, 2878.7537, 0.0, 2.5005698, 2.498815 
4.7634983e+2, 3.8727376e+1, -13976.038, -537016.44, -38816.297, 0.0060063093, 0.011459295, -11111.064, -11111.064, 0.0, 2.5005467, 2.4988148 
4.7634917e+2, 4.1226283e+1, 23704.85, -438492.97, -45253.453, 0.0048004566, 0.012030201, 28093.904, 28093.904, 0.0, 2.500525, 2.4989944 
4.7634852e+2, 4.372526e+1, 11748.125, -443741.97, -45236.438, 0.0035351638, 0.010245661, 16197.269, 16197.269, 0.0, 2.5005038, 2.4989955 
4.7634783e+2, 4.622424e+1, -569.58405, -449734.38, -44062.48, 0.002264278, 0.008472877, 3712.0728, 3712.0728, 0.0, 2.5004828, 2.4989955 
4.7634715e+2, 4.8723218e+1, -12889.225, -455727.72, -42888.297, 0.0009879221, 0.0067141256, -8773.798, -8773.798, 0.0, 2.5004616, 2.4989953 
4.7634646e+2, 5.12223e+1, 24343.484, -359132.72, -44631.605, -0.00031353187, 0.0065475563, 29469.498, 29469.498, 0.0, 2.5004408, 2.499171 
4.7634578e+2, 5.3721476e+1, 12823.515, -363807.88, -43582.48, -0.0020509877, 0.0074311267, 17800.947, 17800.947, 0.0, 2.5004203, 2.499173 
4.7634506e+2, 5.6220657e+1, 717.7977, -369694.4, -41627.89, -0.00379724, 0.008321583, 5338.41, 5338.41, 0.0, 2.5003996, 2.499173 
4.7634432e+2, 5.8719844e+1, -11389.882, -375581.84, -39674.09, -0.005550202, 0.009221979, -7118.002, -7118.002, 0.0, 2.5003788, 2.4991727 
4.7634363e+2, 6.1219114e+1, 24890.273, -279131.72, -38996.73, -0.0069834543, 0.010591302, 29812.664, 29812.664, 0.0, 2.500356, 2.499349 
4.7634292e+2, 6.3718474e+1, 11130.788, -284329.06, -37906.17, -0.008702841, 0.011724525, 15916.464, 15916.464, 0.0, 2.500331, 2.4993525 
4.763422e+2, 6.6217834e+1, -3557.7466, -291450.4, -36204.945, -0.010432101, 0.012860776, 925.5157, 925.5157, 0.0, 2.5003057, 2.4993522 
4.763415e+2, 6.87172e+1, -18248.213, -298572.66, -34504.297, -0.0121675525, 0.014004349, -14063.647, -14063.647, 0.0, 2.5002806, 2.4993522 
4.763408e+2, 7.1216637e+1, 17765.334, -203940.27, -27188.69, -0.014255058, 0.0145429615, 21050.906, 21050.906, 0.0, 2.5002592, 2.4995248 
4.763401e+2, 7.371616e+1, 8807.1, -205918.02, -27785.705, -0.017886136, 0.013403193, 12344.335, 12344.335, 0.0, 2.5002413, 2.49953 
4.763394e+2, 7.6215667e+1, -1638.9076, -210978.56, -28015.246, -0.021530781, 0.012254584, 2045.4377, 2045.4377, 0.0, 2.5002234, 2.49953 
4.7633868e+2, 7.871519e+1, -12087.543, -216040.39, -28244.959, -0.025181066, 0.011103958, -8248.237, -8248.237, 0.0, 2.5002055, 2.49953 
4.76338e+2, 8.1214803e+1, 25802.596, -116313.86, -23159.5, -0.027416252, 0.011444791, 29481.469, 29481.469, 0.0, 2.5001829, 2.4997122 
4.7633737e+2, 8.371453e+1, 11488.134, -119558.85, -22606.139, -0.028219333, 0.012149109, 15278.173, 15278.173, 0.0, 2.5001543, 2.4997203 
4.7633672e+2, 8.6214256e+1, -5111.646, -127535.12, -21729.383, -0.029020093, 0.012838416, -1369.2231, -1369.2231, 0.0, 2.500126, 2.4997203 
4.763361e+2, 8.871398e+1, -21716.668, -135513.9, -20852.885, -0.029818153, 0.013520901, -18015.818, -18015.818, 0.0, 2.5000973, 2.4997203 
4.763355e+2, 9.1213804e+1, 13960.227, -40755.906, -6502.529, -0.029312426, 0.015900573, 14722.379, 14722.379, 0.0, 2.500075, 2.499894 
4.7633493e+2, 9.371373e+1, 7083.636, -38886.99, -7011.064, -0.032011144, 0.018709935, 8129.1294, 8129.1294, 0.0, 2.5000577, 2.4999053 
4.763344e+2, 9.621366e+1, -3033.5264, -43721.57, -6712.7163, -0.03477064, 0.021498227, -1954.6683, -1954.6683, 0.0, 2.5000403, 2.4999053 
4.763338e+2, 9.871358e+1, -13160.427, -48560.844, -6414.3027, -0.037557717, 0.024275344, -12034.041, -12034.041, 0.0, 2.500023, 2.4999056 
4.788565e+2, 1.24915645e+0, -28088.605, -776350.4, -15385.445, 0.024089295, 0.0008153386, -27772.39, -27772.39, 0.0, 2.5007727, 2.4982955 
4.7885638e+2, 3.7474695e+0, -29696.965, -777320.3, -11841.341, 0.023899386, 0.0024489136, -29509.46, -29509.46, 0.0, 2.5007703, 2.498295 
4.7885627e+2, 6.2457824e+0, -31216.436, -778058.56, -8213.267, 0.02370612, 0.004086354, -31126.123, -31126.123, 0.0, 2.5007677, 2.498295 
4.7885618e+2, 8.7440956e+0, -32765.277, -778810.94, -4587.932, 0.023509495, 0.00572766, -32737.064, -32737.064, 0.0, 2.500765, 2.498295 
4.7885594e+2, 1.1242478e+1, 8674.272, -684008.3, -35864.457, 0.021680495, 0.0060231527, 10526.245, 10526.245, 0.0, 2.5007555, 2.4984622 
4.7885552e+2, 1.3740928e+1, -722.8747, -688336.44, -33873.07, 0.018257001, 0.004605848, 941.7434, 941.7434, 0.0, 2.5007393, 2.4984627 
4.7885516e+2, 1.6239378e+1, -10280.856, -692972.6, -31303.23, 0.014827906, 0.003180994, -8848.525, -8848.525, 0.0, 2.500723, 2.4984627 
4.7885478e+2, 1.8737827e+1, -19854.764, -697616.5, -28740.896, 0.01139314, 0.0017489436, -18638.172, -18638.172, 0.0, 2.5007064, 2.4984624 
4.7885433e+2, 2.1236385e+1, 23703.217, -590825.75, -49462.49, 0.009725328, 0.001515885, 27658.912, 27658.912, 0.0, 2.500689, 2.4986541 
4.7885382e+2, 2.3735046e+1, 12510.5205, -596024.3, -47332.52, 0.010004311, 0.0021777714, 16170.09, 16170.09, 0.0, 2.5006695, 2.4986546 
4.7885334e+2, 2.623371e+1, 1134.1573, -601567.8, -44120.28, 0.010278433, 0.002850786, 4346.82, 4346.82, 0.0, 2.50065, 2.4986544 
4.788528e+2, 2.873237e+1, -10263.631, -607121.6, -40901.9, 0.010547285, 0.0035357005, -7473.718, -7473.718, 0.0, 2.5006306, 2.4986544 
4.7885227e+2, 3.1231135e+1, 29339.676, -505818.6, -52904.29, 0.010120823, 0.005301306, 34519.516, 34519.516, 0.0, 2.50061, 2.498838 
4.7885162e+2, 3.373e+1, 16422.762, -511807.6, -50783.88, 0.009088086, 0.007850625, 21260.795, 21260.795, 0.0, 2.5005875, 2.4988384 
4.78851e+2, 3.6228862e+1, 3277.551, -518212.56, -47362.855, 0.008047101, 0.010405596, 7544.2393, 7544.2393, 0.0, 2.500565, 2.4988384 
4.7885036e+2, 3.872773e+1, -9901.609, -524633.9, -43939.55, 0.006997463, 0.0129672745, -6177.6987, -6177.6987, 0.0, 2.5005424, 2.4988382 
4.788497e+2, 4.1226655e+1, 23731.922, -435034.63, -50072.508, 0.00549685, 0.013628236, 29133.533, 29133.533, 0.0, 2.5005212, 2.4990022 
4.78849e+2, 4.372564e+1, 12116.615, -440088.84, -49938.516, 0.0034172088, 0.011715374, 17565.822, 17565.822, 0.0, 2.5005007, 2.4990034 
4.788483e+2, 4.6224624e+1, 70.41784, -445948.72, -48650.65, 0.0013290439, 0.009811466, 5315.4287, 5315.4287, 0.0, 2.5004802, 2.4990032 
4.788476e+2, 4.8723605e+1, -12029.7, -451834.6, -47370.758, -0.0007672335, 0.007919212, -6985.3203, -6985.3203, 0.0, 2.5004594, 2.4990032 
4.788469e+2, 5.12227e+1, 26795.19, -352245.63, -48999.563, -0.0021691683, 0.008068241, 33027.027, 33027.027, 0.0, 2.500439, 2.499184 
4.7884616e+2, 5.37219e+1, 15526.84, -356694.9, -47912.297, -0.003297994, 0.009654495, 21595.168, 21595.168, 0.0, 2.5004187, 2.499186 
4.7884545e+2, 5.6221104e+1, 3561.7664, -362516.13, -45924.164, -0.0044384897, 0.01124543, 9234.994, 9234.994, 0.0, 2.5003982, 2.4991858 
4.7884473e+2, 5.87203e+1, -8449.123, -368359.38, -43938.855, -0.005588467, 0.012844427, -3162.5945, -3162.5945, 0.0, 2.5003777, 2.4991858 
4.78844e+2, 6.121959e+1, 27539.674, -272792.88, -43917.2, -0.006460872, 0.01434992, 33829.88, 33829.88, 0.0, 2.5003552, 2.4993606 
4.7884327e+2, 6.3718957e+1, 14047.208, -277855.7, -42760.41, -0.0077015082, 0.014966868, 20182.176, 20182.176, 0.0, 2.5003304, 2.4993637 
4.7884253e+2, 6.621832e+1, -435.13098, -284881.16, -41002.574, -0.008955325, 0.01558761, 5357.3843, 5357.3843, 0.0, 2.5003057, 2.4993637 
4.7884175e+2, 6.8717694e+1, -14974.468, -291934.06, -39240.45, -0.010218436, 0.016216882, -9522.104, -9522.104, 0.0, 2.5002806, 2.4993634 
4.7884107e+2, 7.121714e+1, 17544.863, -204636.95, -30723.91, -0.012587815, 0.01667804, 21715.174, 21715.174, 0.0, 2.5002594, 2.4995236 
4.7884032e+2, 7.371665e+1, 8407.916, -206748.23, -31167.63, -0.017284673, 0.01579002, 12831.909, 12831.909, 0.0, 2.5002413, 2.4995286 
4.788396e+2, 7.6216173e+1, -2268.1575, -211922.81, -31220.41, -0.022000572, 0.014900043, 2282.2212, 2282.2212, 0.0, 2.500223, 2.4995286 
4.7883886e+2, 7.871569e+1, -13025.5, -217136.55, -31262.15, -0.026727624, 0.01401559, -8344.657, -8344.657, 0.0, 2.5002046, 2.4995286 
4.788382e+2, 8.121531e+1, 26863.752, -113171.875, -27622.412, -0.029127115, 0.014483126, 32115.4, 32115.4, 0.0, 2.500182, 2.499718 
4.7883752e+2, 8.371504e+1, 12663.333, -116285.805, -27097.426, -0.02901626, 0.0150287, 18126.168, 18126.168, 0.0, 2.5001533, 2.4997263 
4.7883686e+2, 8.6214775e+1, -3994.1357, -124292.29, -26175.877, -0.028911712, 0.015562443, 1454.7145, 1454.7145, 0.0, 2.5001247, 2.4997263 
4.788362e+2, 8.87145e+1, -20778.57, -132359.92, -25244.566, -0.02881409, 0.01609341, -15332.92, -15332.92, 0.0, 2.5000958, 2.4997263 
4.788356e+2, 9.1214323e+1, 13707.842, -39734.637, -9080.157, -0.028191252, 0.018226279, 15208.472, 15208.472, 0.0, 2.5000734, 2.4998963 
4.78835e+2, 9.371425e+1, 6279.678, -38242.81, -9566.513, -0.03196154, 0.020665891, 8248.192, 8248.192, 0.0, 2.500055, 2.4999077 
4.7883442e+2, 9.621418e+1, -4603.605, -43444.344, -9223.8545, -0.03581096, 0.023078527, -2524.434, -2524.434, 0.0, 2.5000365, 2.4999077 
4.788338e+2, 9.87141e+1, -15781.304, -48787.617, -8921.695, -0.039704233, 0.025474112, -13524.108, -13524.108, 0.0, 2.5000172, 2.499908 
4.8135728e+2, 1.2491715e+0, -19652.625, -759928.44, -16057.3, 0.023116637, 0.00093001785, -19304.49, -19304.49, 0.0, 2.500774, 2.4983232 
4.8135716e+2, 3.7475142e+0, -28021.797, -764161.94, -11257.244, 0.02289617, 0.0027856852, -27849.688, -27849.688, 0.0, 2.5007598, 2.4983227 
4.8135704e+2, 6.2458575e+0, -36273.043, -768147.0, -6374.1143, 0.022676881, 0.004635529, -36217.535, -36217.535, 0.0, 2.5007458, 2.4983227 
4.813569e+2, 8.7442e+0, -44526.344, -772133.0, -1490.7533, 0.022458766, 0.0064795497, -44523.293, -44523.293, 0.0, 2.5007315, 2.4983227 
4.8135662e+2, 1.1242613e+1, -5657.412, -677752.25, -31285.838, 0.020656608, 0.0069822185, -4204.2065, -4204.2065, 0.0, 2.500717, 2.4984915 
4.8135623e+2, 1.3741094e+1, -14557.37, -681851.8, -25571.8, 0.017304093, 0.0058133844, -13578.853, -13578.853, 0.0, 2.5007014, 2.498492 
4.8135585e+2, 1.6239576e+1, -23595.664, -686235.1, -19258.217, 0.013950771, 0.00467269, -23036.438, -23036.438, 0.0, 2.500686, 2.498492 
4.8135543e+2, 1.873806e+1, -32635.729, -690619.1, -12943.554, 0.010596585, 0.0035604925, -32381.207, -32381.207, 0.0, 2.5006704, 2.498492 
4.8135498e+2, 2.1236646e+1, 9137.564, -587212.9, -31967.053, 0.008940041, 0.003793395, 10846.246, 10846.246, 0.0, 2.5006526, 2.498678 
4.8135448e+2, 2.3735338e+1, -3001.869, -592906.0, -29074.566, 0.009133869, 0.005054732, -1572.3369, -1572.3369, 0.0, 2.5006313, 2.4986782 
4.8135394e+2, 2.623403e+1, -15269.069, -598860.75, -25070.992, 0.009328294, 0.0063189664, -14194.005, -14194.005, 0.0, 2.5006104, 2.4986782 
4.8135343e+2, 2.873272e+1, -27537.23, -604815.8, -21067.695, 0.009522988, 0.007586808, -26769.39, -26769.39, 0.0, 2.5005894, 2.498678 
4.8135284e+2, 3.1231508e+1, 11629.419, -505160.72, -32974.324, 0.00913615, 0.0093743615, 13724.882, 13724.882, 0.0, 2.5005696, 2.4988585 
4.8135218e+2, 3.3730388e+1, 590.59393, -510252.75, -31519.81, 0.008241225, 0.01136701, 2528.066, 2528.066, 0.0, 2.5005505, 2.498859 
4.8135152e+2, 3.6229268e+1, -10629.84, -515715.16, -28718.49, 0.0073441034, 0.013368264, -9002.189, -9002.189, 0.0, 2.5005312, 2.498859 
4.813509e+2, 3.8728145e+1, -21852.322, -521178.56, -25917.53, 0.0064444593, 0.015379231, -20510.678, -20510.678, 0.0, 2.5005121, 2.4988587 
4.813502e+2, 4.122709e+1, 12146.567, -432991.1, -30979.928, 0.005128915, 0.015880076, 14292.312, 14292.312, 0.0, 2.500493, 2.4990191 
4.813495e+2, 4.3726093e+1, 1335.1781, -437650.3, -28469.766, 0.003229055, 0.014171253, 3173.842, 3173.842, 0.0, 2.500474, 2.4990203 
4.8134875e+2, 4.6225095e+1, -9867.491, -443115.25, -24789.38, 0.0013220677, 0.012470184, -8453.717, -8453.717, 0.0, 2.500455, 2.49902 
4.8134807e+2, 4.8724097e+1, -21072.852, -448581.44, -21109.914, -0.00059146737, 0.0107796835, -20032.996, -20032.996, 0.0, 2.5004356, 2.49902 
4.8134732e+2, 5.1223207e+1, 15772.458, -353142.06, -22204.793, -0.0018815167, 0.010917945, 17104.146, 17104.146, 0.0, 2.5004153, 2.4991937 
4.8134658e+2, 5.372241e+1, 3740.042, -358031.44, -22237.352, -0.0029880675, 0.01231403, 5101.8003, 5101.8003, 0.0, 2.5003936, 2.4991956 
4.8134583e+2, 5.622162e+1, -8897.826, -364175.03, -21387.303, -0.004097083, 0.0137196705, -7614.9663, -7614.9663, 0.0, 2.500372, 2.4991956 
4.813451e+2, 5.872083e+1, -21537.402, -370319.47, -20537.76, -0.0052062934, 0.015138046, -20332.217, -20332.217, 0.0, 2.5003505, 2.4991953 
4.8134434e+2, 6.122012e+1, 14900.961, -276046.8, -21954.086, -0.0060796863, 0.01639852, 16548.227, 16548.227, 0.0, 2.5003304, 2.4993668 
4.8134357e+2, 6.3719493e+1, 5255.81, -279272.44, -22478.791, -0.0074114758, 0.016667694, 7020.77, 7020.77, 0.0, 2.5003123, 2.49937 
4.813428e+2, 6.6218865e+1, -5309.445, -284407.88, -22436.23, -0.008745951, 0.016932024, -3517.343, -3517.343, 0.0, 2.5002942, 2.4993699 
4.8134205e+2, 6.871823e+1, -15876.242, -289544.06, -22394.549, -0.010079016, 0.017196333, -14055.78, -14055.78, 0.0, 2.500276, 2.4993699 
4.813413e+2, 7.121768e+1, 16491.398, -202505.83, -13954.738, -0.012370366, 0.017592646, 17377.027, 17377.027, 0.0, 2.5002549, 2.4995294 
4.813406e+2, 7.3717207e+1, 3565.974, -206446.42, -12742.151, -0.016922653, 0.016958077, 4336.258, 4336.258, 0.0, 2.50023, 2.4995346 
4.813398e+2, 7.6216733e+1, -10804.419, -213384.75, -11162.003, -0.02148314, 0.016312845, -10191.258, -10191.258, 0.0, 2.5002055, 2.4995346 
4.8133907e+2, 7.871626e+1, -25177.086, -220324.16, -9582.189, -0.026043551, 0.015664306, -24707.705, -24707.705, 0.0, 2.5001807, 2.4995346 
4.8133835e+2, 8.121588e+1, 15128.439, -118612.805, -5839.812, -0.028575495, 0.0160487, 15382.951, 15382.951, 0.0, 2.5001614, 2.4997184 
4.8133767e+2, 8.3715606e+1, 9375.663, -117801.164, -7282.629, -0.028895408, 0.01612944, 9791.336, 9791.336, 0.0, 2.5001476, 2.4997265 
4.8133698e+2, 8.621533e+1, 1387.106, -121626.234, -8333.488, -0.02919579, 0.016183851, 1949.0873, 1949.0873, 0.0, 2.500134, 2.4997265 
4.813363e+2, 8.871506e+1, -6606.5894, -125453.77, -9384.33, -0.029477213, 0.016221175, -5870.154, -5870.154, 0.0, 2.5001202, 2.4997265 
4.8133567e+2, 9.1214883e+1, 27751.28, -33443.6, 4472.622, -0.028826041, 0.017964454, 28076.447, 28076.447, 0.0, 2.500098, 2.4998953 
4.8133504e+2, 9.37148e+1, 11634.475, -36359.727, 2432.7354, -0.03243052, 0.020163191, 11757.47, 11757.47, 0.0, 2.500065, 2.499906 
4.8133442e+2, 9.6214724e+1, -7561.617, -45631.992, 1349.6462, -0.036019467, 0.022339988, -7513.83, -7513.83, 0.0, 2.5000322, 2.499906 
4.813338e+2, 9.8714644e+1, -26774.27, -54912.234, 270.12393, -0.039555695, 0.024504447, -26771.678, -26771.678, 0.0, 2.4999993, 2.499906 
4.83858e+2, 1.2491883e+0, -10579.209, -741079.25, -18196.264, 0.019868325, 0.000994693, -10126.233, -10126.233, 0.0, 2.500774, 2.4983554 
4.8385787e+2, 3.747565e+0, -18940.969, -745306.6, -13393.974, 0.019366464, 0.0029774313, -18694.072, -18694.072, 0.0, 2.5007598, 2.4983552 
4.8385772e+2, 6.245941e+0, -27184.46, -749284.9, -8507.629, 0.018860813, 0.004951307, -27084.24, -27084.24, 0.0, 2.5007458, 2.4983552 
4.8385757e+2, 8.744317e+0, -35430.008, -753264.06, -3621.0525, 0.01835138, 0.0069163204, -35411.742, -35411.742, 0.0, 2.5007315, 2.4983552 
4.8385733e+2, 1.1242772e+1, 6131.2466, -653284.8, -33604.04, 0.016966624, 0.0078227855, 7839.2944, 7839.2944, 0.0, 2.500717, 2.4985335 
4.8385692e+2, 1.3741304e+1, -2810.5952, -657461.1, -27913.092, 0.014781266, 0.0074057453, -1622.5884, -1622.5884, 0.0, 2.5007014, 2.498534 
4.838565e+2, 1.6239834e+1, -11851.994, -661840.7, -21592.078, 0.01259286, 0.007018515, -11135.514, -11135.514, 0.0, 2.500686, 2.4985337 
4.838561e+2, 1.8738367e+1, -20895.164, -666220.94, -15269.984, 0.010401313, 0.0066613858, -20534.041, -20534.041, 0.0, 2.5006704, 2.4985337 
4.8385566e+2, 2.1236998e+1, 16646.459, -571636.2, -35100.016, 0.008977447, 0.0076969084, 18733.307, 18733.307, 0.0, 2.5006526, 2.4987047 
4.838551e+2, 2.3735723e+1, 4460.137, -577428.0, -32253.145, 0.008420487, 0.009836923, 6242.4194, 6242.4194, 0.0, 2.5006316, 2.4987047 
4.8385453e+2, 2.623445e+1, -7807.0645, -583383.75, -28247.588, 0.00786226, 0.011980408, -6424.08, -6424.08, 0.0, 2.5006104, 2.4987047 
4.8385397e+2, 2.8733176e+1, -20075.227, -589339.9, -24242.307, 0.0073025497, 0.014128003, -19044.727, -19044.727, 0.0, 2.5005894, 2.4987047 
4.8385337e+2, 3.1231984e+1, 16931.357, -494208.1, -35831.26, 0.0066261715, 0.015738394, 19430.934, 19430.934, 0.0, 2.5005698, 2.4988773 
4.838527e+2, 3.373087e+1, 5850.2876, -499394.66, -34421.14, 0.005879725, 0.016511016, 8184.534, 8184.534, 0.0, 2.5005505, 2.4988775 
4.8385206e+2, 3.6229756e+1, -5365.929, -504854.84, -31617.43, 0.005127591, 0.017290886, -3372.5151, -3372.5151, 0.0, 2.5005314, 2.4988775 
4.8385137e+2, 3.8728642e+1, -16584.193, -510316.0, -28814.076, 0.0043695555, 0.018078988, -14908.3, -14908.3, 0.0, 2.5005121, 2.4988773 
4.838507e+2, 4.1227603e+1, 19102.03, -418656.13, -33849.46, 0.0036682237, 0.018218642, 21703.959, 21703.959, 0.0, 2.5004933, 2.4990437 
4.8384994e+2, 4.3726635e+1, 8279.285, -423353.8, -31350.373, 0.002857213, 0.017094841, 10544.438, 10544.438, 0.0, 2.5004742, 2.499045 
4.8384923e+2, 4.622567e+1, -2913.1868, -428812.13, -27663.926, 0.0020339591, 0.015974367, -1123.8164, -1123.8164, 0.0, 2.500455, 2.4990447 
4.8384848e+2, 4.8724702e+1, -14108.35, -434271.72, -23978.398, 0.0011990642, 0.014859725, -12744.349, -12744.349, 0.0, 2.5004358, 2.4990444 
4.8384774e+2, 5.1223826e+1, 17514.373, -349602.94, -25531.273, 0.00025816995, 0.014793563, 19281.447, 19281.447, 0.0, 2.5004153, 2.4991996 
4.83847e+2, 5.3723025e+1, 5393.439, -354683.78, -25507.64, -0.0013189561, 0.015216191, 7191.4063, 7191.4063, 0.0, 2.5003939, 2.4992013 
4.8384622e+2, 5.622223e+1, -7237.174, -360820.72, -24652.197, -0.002903327, 0.015644807, -5526.673, -5526.673, 0.0, 2.5003722, 2.4992013 
4.8384544e+2, 5.8721435e+1, -19869.494, -366958.47, -23797.26, -0.004492372, 0.016082428, -18245.496, -18245.496, 0.0, 2.5003505, 2.499201 
4.8384467e+2, 6.1220723e+1, 15118.504, -275725.1, -24723.32, -0.005863122, 0.016795294, 17205.152, 17205.152, 0.0, 2.5003304, 2.4993672 
4.8384386e+2, 6.3720095e+1, 5449.93, -279004.9, -25207.59, -0.0077659613, 0.01697677, 7666.484, 7666.484, 0.0, 2.5003123, 2.4993703 
4.8384312e+2, 6.6219467e+1, -5116.075, -284147.16, -25161.236, -0.009674506, 0.017153427, -2865.3508, -2865.3508, 0.0, 2.5002942, 2.4993703 
4.838423e+2, 6.871883e+1, -15683.623, -289290.13, -25115.764, -0.0115844505, 0.017329933, -13397.223, -13397.223, 0.0, 2.5002763, 2.49937 
4.8384154e+2, 7.1218294e+1, 19591.613, -196262.58, -17718.262, -0.013532979, 0.017795146, 21036.336, 21036.336, 0.0, 2.5002549, 2.49954 
4.838408e+2, 7.371783e+1, 6678.8135, -200171.7, -16465.01, -0.016900681, 0.017459359, 7981.205, 7981.205, 0.0, 2.5002303, 2.4995453 
4.8384002e+2, 7.621737e+1, -7698.9893, -207119.56, -14876.702, -0.020281054, 0.017113714, -6595.3013, -6595.3013, 0.0, 2.5002058, 2.499545 
4.8383927e+2, 7.871691e+1, -22079.066, -214068.52, -13288.731, -0.02366535, 0.016765103, -21163.639, -21163.639, 0.0, 2.500181, 2.499545 
4.8383853e+2, 8.121654e+1, 13599.236, -122057.01, -7962.992, -0.02641308, 0.017021116, 14065.0625, 14065.0625, 0.0, 2.5001616, 2.4997125 
4.8383784e+2, 8.371625e+1, 7661.6772, -121615.31, -9362.033, -0.028409502, 0.016487151, 8336.142, 8336.142, 0.0, 2.500148, 2.4997199 
4.838371e+2, 8.6215955e+1, -344.48547, -125461.9, -10405.032, -0.030397652, 0.015932752, 514.9164, 514.9164, 0.0, 2.5001342, 2.4997199 
4.8383638e+2, 8.8715667e+1, -8355.787, -129310.945, -11448.017, -0.03237785, 0.015367337, -7281.805, -7281.805, 0.0, 2.5001204, 2.4997199 
4.8383576e+2, 9.1215485e+1, 26181.338, -37062.773, -377.13962, -0.03183324, 0.0167982, 26183.586, 26183.586, 0.0, 2.5000985, 2.499889 
4.8383507e+2, 9.3715394e+1, 9958.343, -40200.93, -2526.7334, -0.03419388, 0.019015945, 10085.304, 10085.304, 0.0, 2.5000656, 2.4998994 
4.8383445e+2, 9.621531e+1, -9224.808, -49445.594, -3593.5557, -0.03656755, 0.02121803, -8906.261, -8906.261, 0.0, 2.5000324, 2.4998994 
4.838338e+2, 9.871523e+1, -28424.518, -58698.24, -4656.811, -0.038915783, 0.0234137, -27724.383, -27724.383, 0.0, 2.4999995, 2.4998994 
4.8635876e+2, 1.2492051e+0, -1505.7518, -722230.0, -20336.533, 0.016618254, 0.0010557991, -932.3761, -932.3761, 0.0, 2.500774, 2.4983878 
4.8635858e+2, 3.7476152e+0, -9863.201, -726457.75, -15531.384, 0.015831474, 0.0031584704, -9526.734, -9526.734, 0.0, 2.5007598, 2.4983873 
4.8635843e+2, 6.246025e+0, -18098.938, -730429.2, -10641.823, 0.015035944, 0.00524924, -17939.99, -17939.99, 0.0, 2.5007458, 2.4983873 
4.8635828e+2, 8.7444353e+0, -26336.727, -734401.5, -5752.031, 0.014231669, 0.007328108, -26290.002, -26290.002, 0.0, 2.5007315, 2.4983873 
4.86358e+2, 1.1242931e+1, 17852.662, -628957.06, -35925.184, 0.013279744, 0.008695394, 19841.906, 19841.906, 0.0, 2.500717, 2.4985752 
4.863576e+2, 1.3741511e+1, 8931.127, -633081.0, -30255.2, 0.0122578135, 0.0090073645, 10353.769, 10353.769, 0.0, 2.5007014, 2.4985757 
4.8635718e+2, 1.6240093e+1, -113.377686, -637456.8, -23926.756, 0.011230551, 0.009350644, 783.6035, 783.6035, 0.0, 2.500686, 2.4985757 
4.863568e+2, 1.8738674e+1, -9159.652, -641833.3, -17597.234, 0.01019787, 0.00972563, -8670.579, -8670.579, 0.0, 2.5006704, 2.4985757 
4.863563e+2, 2.1237347e+1, 24074.762, -556227.1, -38227.043, 0.0090151, 0.011615145, 26582.111, 26582.111, 0.0, 2.5006526, 2.498731 
4.8635572e+2, 2.3736109e+1, 11919.81, -561954.94, -35431.273, 0.007707326, 0.0146274995, 14099.075, 14099.075, 0.0, 2.5006316, 2.4987314 
4.8635513e+2, 2.623487e+1, -347.39322, -567911.7, -31423.73, 0.0063963733, 0.017643584, 1387.1105, 1387.1105, 0.0, 2.5006104, 2.4987311 
4.8635456e+2, 2.8733632e+1, -12615.557, -573868.8, -27416.467, 0.005082187, 0.020664282, -11279.4795, -11279.4795, 0.0, 2.5005894, 2.4987311 
4.863539e+2, 3.123246e+1, 22219.027, -483285.2, -38681.883, 0.004121228, 0.022100704, 25161.887, 25161.887, 0.0, 2.5005698, 2.498896 
4.8635325e+2, 3.3731353e+1, 11107.976, -488540.8, -37322.164, 0.0035218496, 0.021647442, 13880.4375, 13880.4375, 0.0, 2.5005507, 2.4988961 
4.8635253e+2, 3.6230242e+1, -104.024, -493998.78, -34516.06, 0.002913265, 0.021200009, 2296.4792, 2296.4792, 0.0, 2.5005314, 2.4988961 
4.8635188e+2, 3.8729137e+1, -11318.071, -499457.7, -31710.316, 0.0022954, 0.02075932, -9266.74, -9266.74, 0.0, 2.5005121, 2.498896 
4.8635116e+2, 4.1228116e+1, 26039.137, -404359.34, -36715.98, 0.0022091873, 0.020553658, 29148.797, 29148.797, 0.0, 2.5004933, 2.499068 
4.8635045e+2, 4.372718e+1, 15220.53, -409063.3, -34230.47, 0.0024835959, 0.020000122, 17964.438, 17964.438, 0.0, 2.5004742, 2.4990692 
4.863497e+2, 4.6226242e+1, 4038.255, -414515.03, -30537.959, 0.002740641, 0.019445293, 6254.591, 6254.591, 0.0, 2.5004551, 2.4990692 
4.8634893e+2, 4.8725307e+1, -7146.7114, -419968.0, -26846.37, 0.002980951, 0.018891558, -5408.1743, -5408.1743, 0.0, 2.500436, 2.499069 
4.8634818e+2, 5.122444e+1, 19154.572, -346275.16, -28879.684, 0.0024180622, 0.018697957, 21422.836, 21422.836, 0.0, 2.5004156, 2.4992054 
4.8634738e+2, 5.372364e+1, 7044.2295, -351341.63, -28777.752, 0.00036644333, 0.018133916, 9340.321, 9340.321, 0.0, 2.5003939, 2.499207 
4.863466e+2, 5.6222844e+1, -5579.128, -357471.9, -27916.914, -0.0016975125, 0.017571386, -3378.1455, -3378.1455, 0.0, 2.5003722, 2.499207 
4.863458e+2, 5.8722043e+1, -18204.193, -363603.0, -27056.582, -0.003770621, 0.017014135, -16097.582, -16097.582, 0.0, 2.5003505, 2.4992068 
4.86345e+2, 6.122133e+1, 15299.299, -275479.78, -27487.887, -0.0056460463, 0.017196648, 17874.965, 17874.965, 0.0, 2.5003307, 2.4993677 
4.8634422e+2, 6.37207e+1, 5641.8433, -278742.03, -27935.184, -0.008115662, 0.01727978, 8359.952, 8359.952, 0.0, 2.5003126, 2.4993708 
4.8634338e+2, 6.622007e+1, -4924.912, -283891.06, -27885.037, -0.010593954, 0.017357782, -2164.8733, -2164.8733, 0.0, 2.5002944, 2.4993706 
4.8634258e+2, 6.8719435e+1, -15493.21, -289040.88, -27835.773, -0.01307645, 0.017435497, -12689.425, -12689.425, 0.0, 2.5002763, 2.4993706 
4.863418e+2, 7.12189e+1, 22618.703, -190171.33, -21469.959, -0.014704559, 0.018028224, 24763.352, 24763.352, 0.0, 2.500255, 2.4995503 
4.8634103e+2, 7.371845e+1, 9788.562, -193903.52, -20187.023, -0.01687996, 0.017970648, 11769.935, 11769.935, 0.0, 2.5002306, 2.4995558 
4.8634025e+2, 7.6218003e+1, -4596.6514, -200860.92, -18590.56, -0.019072182, 0.017903151, -2851.237, -2851.237, 0.0, 2.5002058, 2.4995558 
4.8633948e+2, 7.871756e+1, -18984.137, -207819.4, -16994.432, -0.021272328, 0.017833035, -17466.896, -17466.896, 0.0, 2.5001812, 2.4995558 
4.863387e+2, 8.121719e+1, 11950.228, -125750.13, -10057.868, -0.024281928, 0.018024113, 12680.993, 12680.993, 0.0, 2.500162, 2.499706 
4.86338e+2, 8.371688e+1, 5945.1445, -125434.78, -11439.438, -0.02794365, 0.016865034, 6933.7534, 6933.7534, 0.0, 2.5001483, 2.4997132 
4.863372e+2, 8.621658e+1, -2078.6245, -129302.875, -12474.579, -0.031607673, 0.015690342, -867.0072, -867.0072, 0.0, 2.5001345, 2.4997132 
4.863365e+2, 8.8716286e+1, -10107.532, -133173.44, -13509.704, -0.03527475, 0.014510703, -8641.942, -8641.942, 0.0, 2.5001206, 2.4997132 
4.863358e+2, 9.121608e+1, 24585.443, -40736.105, -5190.186, -0.03483591, 0.015660895, 24995.264, 24995.264, 0.0, 2.5000987, 2.4998825 
4.8633516e+2, 9.3715996e+1, 8279.474, -44048.02, -7491.9805, -0.035978526, 0.017880462, 9331.006, 9331.006, 0.0, 2.5000658, 2.4998925 
4.8633447e+2, 9.6215904e+1, -10890.735, -53265.09, -8542.535, -0.037162486, 0.020089997, -9233.407, -9233.407, 0.0, 2.500033, 2.4998925 
4.863338e+2, 9.871581e+1, -30077.504, -62490.133, -9589.523, -0.038348295, 0.022299044, -27452.898, -27452.898, 0.0, 2.5, 2.4998927 
4.888595e+2, 1.2492218e+0, 3443.7952, -705389.56, -22547.875, 0.013470989, 0.0011060449, 4160.315, 4160.315, 0.0, 2.500767, 2.49842 
4.8885933e+2, 3.7476653e+0, -4535.1084, -709443.2, -17902.342, 0.012392165, 0.0033086638, -4080.7407, -4080.7407, 0.0, 2.5007534, 2.4984195 
4.8885912e+2, 6.2461084e+0, -12425.426, -713245.8, -13191.432, 0.011300714, 0.0054986486, -12177.214, -12177.214, 0.0, 2.5007398, 2.4984195 
4.8885897e+2, 8.7445515e+0, -20357.584, -717068.5, -8500.622, 0.010196631, 0.007675991, -20253.883, -20253.883, 0.0, 2.5007262, 2.4984195 
4.8885867e+2, 1.124309e+1, 26500.41, -606247.8, -39152.223, 0.0096899355, 0.009556675, 28913.805, 28913.805, 0.0, 2.500712, 2.4986167 
4.8885828e+2, 1.374172e+1, 17583.31, -610228.6, -33853.84, 0.009822864, 0.0105716875, 19403.553, 19403.553, 0.0, 2.5006962, 2.4986174 
4.8885784e+2, 1.624035e+1, 8420.272, -614656.7, -27867.152, 0.009948857, 0.011617292, 9664.149, 9664.149, 0.0, 2.5006804, 2.4986174 
4.8885745e+2, 1.8738979e+1, -782.2459, -619103.6, -21875.723, 0.010067869, 0.012694177, -9.266389, -9.266389, 0.0, 2.5006647, 2.4986174 
4.8885697e+2, 2.1237695e+1, 28087.982, -542597.56, -43493.965, 0.009131214, 0.015480668, 31383.777, 31383.777, 0.0, 2.5006468, 2.4987571 
4.8885635e+2, 2.3736492e+1, 16228.681, -548008.7, -40810.29, 0.007069204, 0.019352065, 19165.135, 19165.135, 0.0, 2.500626, 2.4987578 
4.8885572e+2, 2.623529e+1, 4122.3164, -553888.1, -36851.23, 0.005002641, 0.023227911, 6545.4634, 6545.4634, 0.0, 2.5006053, 2.4987576 
4.888551e+2, 2.8734088e+1, -8010.478, -559780.25, -32887.3, 0.0029316605, 0.027109623, -6057.201, -6057.201, 0.0, 2.5005846, 2.4987576 
4.8885447e+2, 3.1232938e+1, 24793.607, -473681.34, -43819.066, 0.0016865361, 0.028375387, 28616.264, 28616.264, 0.0, 2.5005653, 2.4989147 
4.8885375e+2, 3.3731833e+1, 13818.301, -478906.78, -42473.98, 0.0012263502, 0.02669664, 17452.842, 17452.842, 0.0, 2.5005462, 2.4989147 
4.8885307e+2, 3.623073e+1, 2710.12, -484314.47, -39629.605, 0.00075460615, 0.025023514, 5913.7417, 5913.7417, 0.0, 2.5005274, 2.4989147 
4.8885235e+2, 3.8729632e+1, -8454.134, -489749.2, -36791.3, 0.00027137593, 0.023356913, -5657.9673, -5657.9673, 0.0, 2.500508, 2.4989145 
4.8885167e+2, 4.122863e+1, 30639.688, -391205.56, -41771.65, 0.00079618045, 0.02283076, 34736.188, 34736.188, 0.0, 2.5004895, 2.4990926 
4.888509e+2, 4.3727723e+1, 19958.213, -395827.06, -39351.023, 0.0021470925, 0.022841645, 23649.725, 23649.725, 0.0, 2.5004706, 2.4990938 
4.8885015e+2, 4.6226817e+1, 8828.627, -401251.3, -35698.02, 0.003477238, 0.022846995, 11912.989, 11912.989, 0.0, 2.5004516, 2.4990935 
4.888494e+2, 4.872591e+1, -2379.0164, -406713.13, -32042.582, 0.004787242, 0.022849247, 144.53711, 144.53711, 0.0, 2.5004325, 2.4990935 
4.8884863e+2, 5.122506e+1, 18711.637, -344084.28, -34457.164, 0.0046277717, 0.022611996, 21955.266, 21955.266, 0.0, 2.5004122, 2.4992106 
4.8884782e+2, 5.3724253e+1, 7129.3306, -348731.4, -34004.727, 0.0020929354, 0.021052333, 10349.556, 10349.556, 0.0, 2.5003912, 2.4992127 
4.88847e+2, 5.622345e+1, -5156.032, -354697.7, -32914.69, -0.00045815736, 0.019489843, -2083.6172, -2083.6172, 0.0, 2.5003703, 2.4992127 
4.8884615e+2, 5.872265e+1, -17530.906, -360707.03, -31851.47, -0.003021446, 0.017929869, -14599.6875, -14599.6875, 0.0, 2.500349, 2.4992125 
4.8884535e+2, 6.1221933e+1, 14620.377, -275683.0, -31591.293, -0.0054104654, 0.017606905, 18018.418, 18018.418, 0.0, 2.5003293, 2.499368 
4.888445e+2, 6.37213e+1, 5115.542, -278805.66, -31808.695, -0.008444384, 0.017590381, 8635.542, 8635.542, 0.0, 2.5003114, 2.4993713 
4.8884365e+2, 6.622067e+1, -5410.1846, -283942.47, -31569.598, -0.011489214, 0.017569235, -1876.8243, -1876.8243, 0.0, 2.5002935, 2.499371 
4.8884284e+2, 6.8720037e+1, -16002.757, -289111.44, -31342.543, -0.014540393, 0.017548788, -12451.983, -12451.983, 0.0, 2.5002754, 2.4993708 
4.8884204e+2, 7.1219504e+1, 24893.41, -184543.66, -25877.813, -0.01587196, 0.018338026, 28043.465, 28043.465, 0.0, 2.5002542, 2.4995606 
4.8884124e+2, 7.371908e+1, 12290.946, -187919.55, -24515.068, -0.01684962, 0.018547215, 15249.025, 15249.025, 0.0, 2.5002296, 2.4995666 
4.8884046e+2, 7.621864e+1, -2107.1008, -194890.98, -22856.982, -0.017846841, 0.018746246, 565.8257, 565.8257, 0.0, 2.500205, 2.4995666 
4.888397e+2, 7.871821e+1, -16588.164, -201902.36, -21206.818, -0.018854897, 0.01894362, -14192.292, -14192.292, 0.0, 2.5001802, 2.4995663 
4.888389e+2, 8.121784e+1, 9411.867, -130045.664, -12529.347, -0.022171075, 0.01914511, 10528.6045, 10528.6045, 0.0, 2.500161, 2.499699 
4.8883814e+2, 8.371752e+1, 3411.7095, -129635.46, -13745.525, -0.027483398, 0.017363857, 4816.961, 4816.961, 0.0, 2.500147, 2.4997065 
4.8883733e+2, 8.6217207e+1, -4745.8076, -133581.75, -14591.386, -0.032806057, 0.015570729, -3113.922, -3113.922, 0.0, 2.500133, 2.4997063 
4.888366e+2, 8.8716894e+1, -12979.948, -137564.92, -15429.958, -0.03814095, 0.013778665, -11097.382, -11097.382, 0.0, 2.500119, 2.4997063 
4.8883587e+2, 9.121669e+1, 21542.656, -45130.297, -9644.852, -0.03780214, 0.01469488, 22909.838, 22909.838, 0.0, 2.5000966, 2.4998758 
4.888352e+2, 9.371659e+1, 4757.5195, -48774.137, -12012.834, -0.03774932, 0.016915001, 7329.6826, 7329.6826, 0.0, 2.500063, 2.4998858 
4.888345e+2, 9.6216494e+1, -14930.023, -58223.54, -12980.34, -0.037762735, 0.019129032, -11336.509, -11336.509, 0.0, 2.500029, 2.4998858 
4.888338e+2, 9.871639e+1, -34745.074, -67734.3, -14005.822, -0.037802126, 0.021347446, -29600.943, -29600.943, 0.0, 2.4999952, 2.4998858 
4.9136028e+2, 1.24924324e+0, -16341.5625, -693309.2, -21473.676, 0.018796684, 0.0008458265, -15661.093, -15661.093, 0.0, 2.5007098, 2.4984684 
4.913601e+2, 3.74773e+0, -20503.75, -695549.94, -11585.539, 0.017786147, 0.0025658207, -20304.97, -20304.97, 0.0, 2.5007029, 2.498468 
4.9135992e+2, 6.2462175e+0, -24533.07, -697511.1, -1624.6711, 0.016784908, 0.0043236036, -24529.148, -24529.148, 0.0, 2.500696, 2.4984677 
4.9135974e+2, 8.744704e+0, -28564.326, -699472.9, 8336.395, 0.015792971, 0.006119175, -28460.758, -28460.758, 0.0, 2.500689, 2.4984677 
4.9135944e+2, 1.1243282e+1, 16384.17, -593192.2, -20752.813, 0.015230056, 0.0075600967, 17089.875, 17089.875, 0.0, 2.5006752, 2.4986567 
4.91359e+2, 1.3741946e+1, 4254.3003, -598821.0, -15135.283, 0.015118471, 0.008106981, 4633.909, 4633.909, 0.0, 2.500654, 2.4986572 
4.9135858e+2, 1.624061e+1, -8026.2036, -604758.44, -8850.574, 0.015012135, 0.008632171, -7894.963, -7894.963, 0.0, 2.500633, 2.4986572 
4.9135816e+2, 1.8739273e+1, -20309.092, -610696.8, -2566.2634, 0.014911028, 0.009136189, -20297.938, -20297.938, 0.0, 2.500612, 2.498657 
4.913576e+2, 2.123802e+1, 6161.346, -538463.8, -22923.38, 0.013675284, 0.011265337, 7124.4927, 7124.4927, 0.0, 2.5005934, 2.49879 
4.91357e+2, 2.3736843e+1, -3183.5874, -542687.6, -18259.762, 0.011208535, 0.0144557785, -2566.284, -2566.284, 0.0, 2.500577, 2.4987905 
4.9135634e+2, 2.6235667e+1, -12724.169, -547312.44, -12317.003, 0.008747093, 0.017666625, -12440.534, -12440.534, 0.0, 2.5005605, 2.4987905 
4.9135572e+2, 2.873449e+1, -22267.35, -551938.3, -6375.24, 0.006291162, 0.020899257, -22190.627, -22190.627, 0.0, 2.5005443, 2.4987905 
4.9135503e+2, 3.1233367e+1, 9089.475, -470440.7, -15714.245, 0.004729054, 0.022195302, 9603.88, 9603.88, 0.0, 2.5005267, 2.4989388 
4.9135432e+2, 3.3732295e+1, -2136.4895, -475917.03, -13004.225, 0.0039611547, 0.021269545, -1779.8208, -1779.8208, 0.0, 2.5005074, 2.4989386 
4.9135357e+2, 3.623123e+1, -13356.152, -481375.1, -8808.889, 0.0032034346, 0.020379324, -13190.413, -13190.413, 0.0, 2.5004883, 2.4989383 
4.913529e+2, 3.8730156e+1, -24577.924, -486834.1, -4613.769, 0.0024562213, 0.019525474, -24531.877, -24531.877, 0.0, 2.500469, 2.4989383 
4.9135214e+2, 4.1229182e+1, 12424.686, -392698.7, -10044.976, 0.0026401586, 0.01972785, 12673.597, 12673.597, 0.0, 2.5004504, 2.4991088 
4.9135134e+2, 4.3728298e+1, 2044.4115, -397415.94, -10280.296, 0.0035598443, 0.020439556, 2308.8047, 2308.8047, 0.0, 2.5004323, 2.4991095 
4.913506e+2, 4.6227413e+1, -8547.989, -402568.06, -9300.217, 0.00449597, 0.021171158, -8328.595, -8328.595, 0.0, 2.5004141, 2.4991093 
4.9134982e+2, 4.8726532e+1, -19143.104, -407721.53, -8320.286, 0.0054492727, 0.021924822, -18965.031, -18965.031, 0.0, 2.500396, 2.4991093 
4.9134904e+2, 5.12257e+1, 4258.4585, -345978.03, -11072.779, 0.004846951, 0.022646666, 4608.1772, 4608.1772, 0.0, 2.5003817, 2.499222 
4.9134818e+2, 5.372492e+1, -1194.1385, -347841.53, -9774.691, 0.0017869079, 0.022308467, -918.7326, -918.7326, 0.0, 2.5003717, 2.4992237 
4.913473e+2, 5.622414e+1, -7187.4536, -350820.9, -7860.4756, -0.0012587185, 0.02198736, -7007.7427, -7007.7427, 0.0, 2.5003614, 2.4992235 
4.913465e+2, 5.872336e+1, -13184.681, -353802.16, -5946.147, -0.004285934, 0.02168834, -13080.911, -13080.911, 0.0, 2.5003512, 2.4992232 
4.9134564e+2, 6.122266e+1, 18945.633, -272310.88, -5873.5938, -0.006777475, 0.022255173, 19064.035, 19064.035, 0.0, 2.5003355, 2.4993708 
4.9134478e+2, 6.372204e+1, 7234.5947, -276573.13, -5995.7666, -0.009512089, 0.022781348, 7361.2056, 7361.2056, 0.0, 2.5003138, 2.499374 
4.9134398e+2, 6.622141e+1, -5398.597, -282745.38, -5696.0596, -0.012248348, 0.023333123, -5281.6626, -5281.6626, 0.0, 2.500292, 2.4993737 
4.913431e+2, 6.8720794e+1, -18035.291, -288919.3, -5397.133, -0.014982013, 0.02391561, -17927.8, -17927.8, 0.0, 2.5002706, 2.4993734 
4.9134228e+2, 7.122026e+1, 21450.898, -186497.83, -2171.5095, -0.01621274, 0.024922233, 21473.572, 21473.572, 0.0, 2.5002487, 2.4995599 
4.9134147e+2, 7.3719823e+1, 10350.364, -189146.94, -4455.582, -0.017357336, 0.02497721, 10449.826, 10449.826, 0.0, 2.5002267, 2.4995658 
4.9134067e+2, 7.621939e+1, -2489.774, -195406.39, -6470.766, -0.01849583, 0.025039557, -2272.9766, -2272.9766, 0.0, 2.5002046, 2.4995658 
4.9133983e+2, 7.8718954e+1, -15333.093, -201667.34, -8488.19, -0.019619336, 0.025117418, -14947.224, -14947.224, 0.0, 2.5001826, 2.4995656 
4.9133906e+2, 8.121859e+1, 12075.235, -128742.8, 556.2706, -0.023088668, 0.025546692, 12077.433, 12077.433, 0.0, 2.5001655, 2.499699 
4.9133825e+2, 8.3718276e+1, 7172.33, -127673.336, 886.05237, -0.028389202, 0.02430776, 7178.152, 7178.152, 0.0, 2.5001533, 2.4997067 
4.9133748e+2, 8.621797e+1, 98.338135, -131107.44, 1528.4421, -0.033652186, 0.023050897, 116.14085, 116.14085, 0.0, 2.5001411, 2.4997067 
4.9133667e+2, 8.871766e+1, -6980.7046, -134543.98, 2165.5466, -0.038880713, 0.021789026, -6943.952, -6943.952, 0.0, 2.5001292, 2.4997065 
4.9133596e+2, 9.121746e+1, 28416.31, -40001.29, 6775.6465, -0.03813631, 0.022902882, 29080.873, 29080.873, 0.0, 2.5001066, 2.4998798 
4.9133524e+2, 9.371736e+1, 11027.225, -44087.664, 6949.7397, -0.03801102, 0.024819162, 11890.048, 11890.048, 0.0, 2.500072, 2.4998894 
4.9133453e+2, 9.621726e+1, -9144.321, -53916.793, 8690.173, -0.037878968, 0.026708754, -7516.756, -7516.756, 0.0, 2.5000374, 2.4998891 
4.913338e+2, 9.8717165e+1, -29333.428, -63754.355, 10435.688, -0.037696194, 0.028582837, -26416.703, -26416.703, 0.0, 2.5000029, 2.499889 
4.9386108e+2, 1.2492739e+0, 2157.8315, -654869.44, -22538.313, 0.027825419, 0.0006096191, 2930.0662, 2930.0662, 0.0, 2.5007098, 2.4985342 
4.938609e+2, 3.7478217e+0, -2007.4662, -657115.4, -12617.86, 0.02737351, 0.0018570477, -1764.527, -1764.527, 0.0, 2.5007029, 2.4985337 
4.9386072e+2, 6.24637e+0, -6034.3584, -659070.25, -2647.047, 0.026925249, 0.0031420637, -6023.629, -6023.629, 0.0, 2.500696, 2.4985337 
4.9386054e+2, 8.744919e+0, -10063.183, -661025.7, 7323.9634, 0.02648064, 0.0044646678, -9980.792, -9980.792, 0.0, 2.500689, 2.4985337 
4.938602e+2, 1.124354e+1, 28133.984, -568775.0, -23999.664, 0.025521873, 0.0048769834, 29097.373, 29097.373, 0.0, 2.5006752, 2.4986987 
4.9385974e+2, 1.3742232e+1, 15944.141, -574532.2, -18320.842, 0.02407503, 0.0040301993, 16512.04, 16512.04, 0.0, 2.500654, 2.498699 
4.938593e+2, 1.6240923e+1, 3666.148, -580468.2, -12025.019, 0.022628438, 0.003163174, 3913.5908, 3913.5908, 0.0, 2.500633, 2.4986987 
4.938588e+2, 1.8739614e+1, -8614.2295, -586405.2, -5729.593, 0.021182073, 0.002276198, -8557.418, -8557.418, 0.0, 2.500612, 2.4986987 
4.9385828e+2, 2.1238384e+1, 17336.0, -515250.44, -25430.025, 0.019273024, 0.0026843115, 18547.48, 18547.48, 0.0, 2.5005934, 2.4988298 
4.938576e+2, 2.3737228e+1, 7861.575, -519754.5, -20721.871, 0.016842274, 0.004046921, 8674.165, 8674.165, 0.0, 2.500577, 2.4988298 
4.9385697e+2, 2.6236072e+1, -1673.4233, -524378.94, -14772.238, 0.014410958, 0.0054286835, -1256.2765, -1256.2765, 0.0, 2.5005605, 2.4988298 
4.938563e+2, 2.873492e+1, -11211.0205, -529004.5, -8823.601, 0.011979208, 0.006830439, -11060.703, -11060.703, 0.0, 2.5005443, 2.4988298 
4.9385563e+2, 3.1233832e+1, 17016.906, -454013.2, -18688.71, 0.010226617, 0.008356449, 17757.242, 17757.242, 0.0, 2.5005267, 2.498967 
4.9385485e+2, 3.373281e+1, 5683.7886, -459713.16, -15884.489, 0.008984516, 0.009760796, 6225.313, 6225.313, 0.0, 2.5005074, 2.4989665 
4.9385414e+2, 3.6231792e+1, -5535.1978, -465170.84, -11683.8125, 0.0077471603, 0.011201674, -5238.39, -5238.39, 0.0, 2.5004883, 2.4989662 
4.9385336e+2, 3.8730773e+1, -16756.293, -470629.44, -7483.3535, 0.0065151197, 0.012679903, -16632.941, -16632.941, 0.0, 2.500469, 2.498966 
4.938526e+2, 4.1229832e+1, 14506.155, -388425.13, -12829.232, 0.0056817452, 0.014258801, 14914.222, 14914.222, 0.0, 2.5004504, 2.4991162 
4.938518e+2, 4.372896e+1, 3911.5522, -393593.38, -13010.412, 0.0050024176, 0.015419206, 4336.93, 4336.93, 0.0, 2.5004323, 2.499116 
4.9385098e+2, 4.6228084e+1, -6675.689, -398740.5, -12021.772, 0.0043316316, 0.016597984, -6307.4146, -6307.4146, 0.0, 2.5004141, 2.499116 
4.938502e+2, 4.8727214e+1, -17265.645, -403888.94, -11033.281, 0.00367027, 0.0177971, -16951.037, -16951.037, 0.0, 2.500396, 2.4991157 
4.9384937e+2, 5.122641e+1, 8116.797, -338045.7, -12591.751, 0.0019783468, 0.020094989, 8574.221, 8574.221, 0.0, 2.500382, 2.4992356 
4.938485e+2, 5.372567e+1, 2448.0552, -340368.22, -11286.689, -0.0014472436, 0.022834633, 2819.25, 2819.25, 0.0, 2.5003717, 2.4992363 
4.9384767e+2, 5.6224936e+1, -3532.077, -343330.06, -9358.315, -0.0048690527, 0.025589574, -3274.5364, -3274.5364, 0.0, 2.5003614, 2.4992363 
4.938468e+2, 5.8724195e+1, -9516.121, -346293.78, -7429.8286, -0.008284017, 0.02836304, -9352.287, -9352.287, 0.0, 2.5003514, 2.499236 
4.9384594e+2, 6.1223525e+1, 19650.295, -270955.28, -9184.415, -0.010421081, 0.030797636, 19940.273, 19940.273, 0.0, 2.5003355, 2.499373 
4.938451e+2, 6.3722914e+1, 7896.2793, -275310.25, -9227.294, -0.012000053, 0.03201757, 8196.601, 8196.601, 0.0, 2.500314, 2.499376 
4.9384424e+2, 6.62223e+1, -4733.7285, -281479.44, -8918.517, -0.01358975, 0.033261392, -4446.6147, -4446.6147, 0.0, 2.5002923, 2.4993758 
4.9384335e+2, 6.872169e+1, -17367.238, -287650.28, -8610.519, -0.015186262, 0.03453377, -17093.207, -17093.207, 0.0, 2.5002706, 2.4993756 
4.9384254e+2, 7.1221155e+1, 17906.404, -194026.34, -5534.683, -0.016435387, 0.03533865, 18050.846, 18050.846, 0.0, 2.5002487, 2.4995468 
4.9384168e+2, 7.372069e+1, 6802.7705, -196695.84, -7748.0, -0.01890411, 0.034381106, 7097.3413, 7097.3413, 0.0, 2.5002267, 2.4995527 
4.938408e+2, 7.622023e+1, -6033.6743, -202961.16, -9745.61, -0.021375928, 0.03342127, -5552.5557, -5552.5557, 0.0, 2.5002048, 2.4995527 
4.9384e+2, 7.871977e+1, -18873.299, -209227.97, -11745.461, -0.023841511, 0.032466512, -18151.307, -18151.307, 0.0, 2.5001829, 2.4995525 
4.9383917e+2, 8.12194e+1, 13263.131, -126436.41, -1398.1765, -0.027410254, 0.032741774, 13277.123, 13277.123, 0.0, 2.5001657, 2.499703 
4.9383837e+2, 8.37191e+1, 8575.471, -124959.15, -925.26276, -0.031315226, 0.032429006, 8581.881, 8581.881, 0.0, 2.5001535, 2.4997113 
4.938376e+2, 8.621881e+1, 1521.5824, -128391.445, -268.90012, -0.03519695, 0.032077145, 1522.139, 1522.139, 0.0, 2.5001416, 2.4997113 
4.938368e+2, 8.8718516e+1, -5537.357, -131826.17, 382.17688, -0.039060023, 0.03169769, -5536.2, -5536.2, 0.0, 2.5001295, 2.499711 
4.9383605e+2, 9.1218317e+1, 31649.322, -33343.91, 1496.1711, -0.03768089, 0.03260832, 31683.746, 31683.746, 0.0, 2.5001066, 2.4998913 
4.938353e+2, 9.371822e+1, 14285.676, -37295.91, 1768.3027, -0.038615514, 0.0330661, 14346.226, 14346.226, 0.0, 2.500072, 2.499901 
4.9383453e+2, 9.621811e+1, -5948.6035, -47177.64, 3537.7654, -0.03959393, 0.033538405, -5647.239, -5647.239, 0.0, 2.5000374, 2.4999008 
4.9383378e+2, 9.871801e+1, -26200.447, -57067.805, 5312.311, -0.0405665, 0.034037337, -25311.775, -25311.775, 0.0, 2.5000026, 2.4999006 
4.9636188e+2, 1.2493044e+0, 20658.885, -616426.3, -23612.955, 0.03685194, 0.00036123945, 21532.877, 21532.877, 0.0, 2.5007098, 2.4986002 
4.963617e+2, 3.7479132e+0, 16480.34, -618698.5, -13650.429, 0.036954228, 0.001111758, 16773.563, 16773.563, 0.0, 2.5007029, 2.4985998 
4.9636152e+2, 6.2465227e+0, 12455.878, -620647.0, -3669.6719, 0.037054516, 0.0018996636, 12477.147, 12477.147, 0.0, 2.500696, 2.4985995 
4.9636132e+2, 8.7451327e+0, 8429.482, -622596.06, 6311.2827, 0.037152804, 0.002724956, 8492.599, 8492.599, 0.0, 2.500689, 2.4985995 
4.96361e+2, 1.12437986e+1, 39674.83, -544792.06, -27246.28, 0.035813697, 0.0022688666, 40942.23, 40942.23, 0.0, 2.5006752, 2.4987397 
4.9636048e+2, 1.3742517e+1, 27627.977, -550255.94, -21506.041, 0.03302904, -0.00000070183944, 28427.22, 28427.22, 0.0, 2.500654, 2.4987404 
4.9635997e+2, 1.6241238e+1, 15352.495, -556190.5, -15199.102, 0.030239593, -0.0022894826, 15756.4, 15756.4, 0.0, 2.500633, 2.4987404 
4.963595e+2, 1.8739957e+1, 3074.629, -562126.06, -8892.561, 0.027445376, -0.0045969924, 3214.505, 3214.505, 0.0, 2.500612, 2.4987404 
4.9635893e+2, 2.1238749e+1, 28427.621, -492209.6, -27939.004, 0.024867695, -0.0058852173, 29922.623, 29922.623, 0.0, 2.5005934, 2.4988694 
4.9635825e+2, 2.3737614e+1, 18900.506, -496834.38, -23183.084, 0.022471782, -0.0063675493, 19940.523, 19940.523, 0.0, 2.500577, 2.4988692 
4.9635756e+2, 2.623648e+1, 9371.09, -501458.47, -17226.576, 0.020069402, -0.0068322206, 9951.358, 9951.358, 0.0, 2.5005608, 2.4988692 
4.963569e+2, 2.8735346e+1, -160.9241, -506083.66, -11271.065, 0.017660646, -0.0072786883, 90.05082, 90.05082, 0.0, 2.5005443, 2.498869 
4.963562e+2, 3.1234297e+1, 24891.996, -437694.53, -21663.334, 0.015713649, -0.0055021667, 25904.295, 25904.295, 0.0, 2.5005267, 2.4989948 
4.9635544e+2, 3.373333e+1, 13500.114, -443517.6, -18764.328, 0.013996249, -0.0017799484, 14269.249, 14269.249, 0.0, 2.5005076, 2.498994 
4.9635464e+2, 3.623236e+1, 2281.804, -448974.84, -14558.3125, 0.012278198, 0.001979577, 2750.9924, 2750.9924, 0.0, 2.5004883, 2.4989939 
4.963539e+2, 3.8731393e+1, -8938.614, -454433.1, -10352.514, 0.010560271, 0.0057774344, -8698.17, -8698.17, 0.0, 2.500469, 2.4989939 
4.963531e+2, 4.123048e+1, 16461.355, -384413.94, -15613.843, 0.008715456, 0.008798647, 17068.584, 17068.584, 0.0, 2.5004504, 2.4991229 
4.9635223e+2, 4.3729618e+1, 5774.199, -389780.25, -15740.732, 0.006432293, 0.010388182, 6399.5986, 6399.5986, 0.0, 2.5004323, 2.4991224 
4.9635142e+2, 4.6228755e+1, -4807.8823, -394922.34, -14743.533, 0.00414974, 0.011993954, -4251.476, -4251.476, 0.0, 2.5004141, 2.4991224 
4.9635056e+2, 4.8727894e+1, -15392.678, -400065.75, -13746.481, 0.0018688585, 0.013618338, -14902.066, -14902.066, 0.0, 2.500396, 2.4991224 
4.9634972e+2, 5.1227117e+1, 11872.209, -330327.22, -14115.565, -0.000883677, 0.017580248, 12453.482, 12453.482, 0.0, 2.500382, 2.4992487 
4.9634886e+2, 5.372642e+1, 6082.547, -332910.94, -12800.122, -0.004685819, 0.023369364, 6565.182, 6565.182, 0.0, 2.500372, 2.4992492 
4.96348e+2, 5.622573e+1, 115.597496, -335855.25, -10857.59, -0.008495128, 0.029170906, 466.11716, 466.11716, 0.0, 2.5003617, 2.499249 
4.963471e+2, 5.872504e+1, -5855.2637, -338801.44, -8914.945, -0.012309159, 0.03498741, -5616.7285, -5616.7285, 0.0, 2.5003514, 2.499249 
4.9634627e+2, 6.122439e+1, 20239.633, -269839.4, -12508.585, -0.014053871, 0.039343767, 20778.02, 20778.02, 0.0, 2.5003357, 2.4993749 
4.9634537e+2, 6.372379e+1, 8553.695, -274056.34, -12458.561, -0.014477344, 0.041240178, 9101.8545, 9101.8545, 0.0, 2.500314, 2.499378 
4.963445e+2, 6.622318e+1, -4073.1292, -280222.44, -12140.712, -0.0149211055, 0.04315793, -3540.399, -3540.399, 0.0, 2.5002923, 2.499378 
4.9634364e+2, 6.872258e+1, -16703.455, -286390.22, -11823.645, -0.015381093, 0.04510208, -16186.074, -16186.074, 0.0, 2.5002708, 2.4993777 
4.9634278e+2, 7.122204e+1, 14185.9375, -201920.5, -8891.517, -0.016666396, 0.045837115, 14551.154, 14551.154, 0.0, 2.500249, 2.4995332 
4.9634188e+2, 7.372156e+1, 3247.323, -204261.17, -11038.268, -0.020448526, 0.04382545, 3832.8438, 3832.8438, 0.0, 2.500227, 2.4995399 
4.96341e+2, 7.6221067e+1, -9585.428, -210532.33, -13018.304, -0.024242794, 0.041799977, -8745.55, -8745.55, 0.0, 2.500205, 2.4995396 
4.9634013e+2, 7.872059e+1, -22421.36, -216805.0, -15000.58, -0.028039582, 0.039769154, -21270.578, -21270.578, 0.0, 2.500183, 2.4995394 
4.963393e+2, 8.122021e+1, 14230.779, -124587.516, -3365.5957, -0.031770274, 0.0399814, 14312.329, 14312.329, 0.0, 2.500166, 2.499706 
4.963385e+2, 8.371993e+1, 9972.04, -122258.65, -2732.5405, -0.03426926, 0.040571485, 10028.484, 10028.484, 0.0, 2.5001538, 2.4997158 
4.963377e+2, 8.6219645e+1, 2938.2563, -125689.15, -2062.205, -0.036758665, 0.041099746, 2971.3098, 2971.3098, 0.0, 2.5001419, 2.4997158 
4.963369e+2, 8.871936e+1, -4100.58, -129122.07, -1397.1556, -0.03924524, 0.04157783, -4084.9683, -4084.9683, 0.0, 2.5001297, 2.4997156 
4.963362e+2, 9.121917e+1, 34810.637, -26835.537, -3846.7676, -0.037240654, 0.042313714, 35049.75, 35049.75, 0.0, 2.5001066, 2.4999025 
4.9633536e+2, 9.3719065e+1, 17536.287, -30520.627, -3411.9207, -0.03921998, 0.041270915, 17777.316, 17777.316, 0.0, 2.500072, 2.4999127 
4.9633455e+2, 9.621896e+1, -2760.725, -40454.953, -1613.4299, -0.041292988, 0.040283002, -2691.7913, -2691.7913, 0.0, 2.5000372, 2.4999125 
4.9633375e+2, 9.871886e+1, -23075.305, -50397.72, 190.14462, -0.04340503, 0.039363872, -23073.982, -23073.982, 0.0, 2.5000026, 2.499912 
4.9886215e+2, 1.24937594e+0, -26535.805, -609344.4, -23156.703, -0.0063490574, 0.004169281, -25617.168, -25617.168, 0.0, 2.5005965, 2.4986668 
4.9886197e+2, 3.7481275e+0, -29889.648, -611209.3, -10015.201, -0.0044317567, 0.012475512, -29717.154, -29717.154, 0.0, 2.500591, 2.4986663 
4.9886182e+2, 6.2468785e+0, -33110.58, -612767.4, 3081.9856, -0.0026373242, 0.020739084, -33094.19, -33094.19, 0.0, 2.5005856, 2.4986663 
4.9886164e+2, 8.745629e+0, -36350.406, -614333.9, 16176.136, -0.00096485706, 0.028960548, -35898.035, -35898.035, 0.0, 2.50058, 2.4986663 
4.9886128e+2, 1.12444066e+1, -9825.64, -550510.2, -18221.47, -0.00073627965, 0.034372497, -9212.259, -9212.259, 0.0, 2.5005705, 2.4987803 
4.9886078e+2, 1.3743205e+1, -17090.707, -553122.3, -12790.018, -0.0021273533, 0.035838056, -16785.703, -16785.703, 0.0, 2.5005572, 2.4987822 
4.988603e+2, 1.6242002e+1, -24962.156, -556933.44, -6830.977, -0.0037727759, 0.03716046, -24874.455, -24874.455, 0.0, 2.5005436, 2.4987822 
4.9885976e+2, 1.8740799e+1, -32872.234, -560763.06, -861.8948, -0.0056671416, 0.038343187, -32870.83, -32870.83, 0.0, 2.50053, 2.4987822 
4.988592e+2, 2.123965e+1, -3247.6943, -489973.6, -20172.586, -0.0054647312, 0.03888751, -2413.0632, -2413.0632, 0.0, 2.50052, 2.4989083 
4.9885854e+2, 2.3738557e+1, -7087.3457, -491834.34, -16861.166, -0.00325469, 0.03860504, -6501.5645, -6501.5645, 0.0, 2.5005136, 2.4989083 
4.9885792e+2, 2.6237464e+1, -10990.519, -493748.66, -12363.623, -0.0013851541, 0.038255513, -10674.089, -10674.089, 0.0, 2.5005069, 2.4989083 
4.9885726e+2, 2.8736368e+1, -14943.626, -495686.94, -7837.509, 0.00015146165, 0.037841562, -14815.886, -14815.886, 0.0, 2.5005, 2.4989083 
4.9885657e+2, 3.123535e+1, 11294.999, -431833.16, -19719.06, 0.0013895708, 0.039305557, 12170.761, 12170.761, 0.0, 2.50049, 2.4990225 
4.988558e+2, 3.3734402e+1, 3080.1772, -436141.6, -17165.762, 0.001872274, 0.04230559, 3750.0317, 3750.0317, 0.0, 2.5004764, 2.4990218 
4.9885505e+2, 3.6233455e+1, -4968.867, -440071.88, -13372.355, 0.0018706929, 0.045429192, -4558.272, -4558.272, 0.0, 2.5004625, 2.4990218 
4.9885425e+2, 3.873251e+1, -13039.261, -444012.34, -9555.339, 0.0013980567, 0.04867955, -12827.508, -12827.508, 0.0, 2.5004487, 2.4990215 
4.9885345e+2, 4.1231573e+1, 9700.027, -384820.72, -14880.6045, 0.0009179144, 0.047101684, 10260.501, 10260.501, 0.0, 2.5004358, 2.4991293 
4.988526e+2, 4.3730626e+1, 2526.514, -388446.47, -14841.14, -0.00011505405, 0.03980367, 3089.0667, 3089.0667, 0.0, 2.5004237, 2.499129 
4.9885175e+2, 4.6229687e+1, -4606.2715, -391923.44, -13714.536, -0.0018055023, 0.032864977, -4121.2603, -4121.2603, 0.0, 2.5004115, 2.4991288 
4.9885088e+2, 4.872875e+1, -11779.378, -395419.84, -12577.086, -0.0041353046, 0.02628956, -11367.499, -11367.499, 0.0, 2.500399, 2.4991288 
4.9885008e+2, 5.1227915e+1, 18815.83, -321212.03, -11201.246, -0.0046495884, 0.02334739, 19184.424, 19184.424, 0.0, 2.5003877, 2.4992616 
4.988492e+2, 5.3727174e+1, 12620.176, -324030.44, -8816.1455, -0.0039557046, 0.023464404, 12850.893, 12850.893, 0.0, 2.500377, 2.499262 
4.9884838e+2, 5.6226444e+1, 6292.5796, -327136.8, -5813.459, -0.004050253, 0.024014996, 6393.9087, 6393.9087, 0.0, 2.500366, 2.4992619 
4.9884754e+2, 5.8725715e+1, -25.379639, -330238.53, -2815.9458, -0.004911948, 0.025000507, -1.367952, -1.367952, 0.0, 2.5003552, 2.4992616 
4.9884665e+2, 6.1225057e+1, 22281.332, -268205.1, -7323.7383, -0.004930987, 0.027403105, 22465.86, 22465.86, 0.0, 2.5003383, 2.4993763 
4.9884576e+2, 6.372446e+1, 9967.841, -272428.13, -6301.445, -0.0051635234, 0.029860845, 10108.383, 10108.383, 0.0, 2.5003154, 2.49938 
4.988449e+2, 6.622386e+1, -3444.6982, -278970.66, -5109.458, -0.0062333397, 0.032484952, -3349.979, -3349.979, 0.0, 2.5002925, 2.4993799 
4.9884397e+2, 6.8723273e+1, -16834.55, -285502.22, -3914.058, -0.00810874, 0.03527871, -16777.541, -16777.541, 0.0, 2.5002697, 2.4993799 
4.9884307e+2, 7.1222734e+1, 8831.583, -210960.77, -948.3686, -0.010313181, 0.03670712, 8835.676, 8835.676, 0.0, 2.5002468, 2.4995186 
4.9884215e+2, 7.372224e+1, -2199.1133, -212812.02, -3555.2021, -0.014660213, 0.03462603, -2139.1177, -2139.1177, 0.0, 2.500224, 2.4995265 
4.9884126e+2, 7.622174e+1, -15419.667, -219275.47, -6014.397, -0.019946394, 0.032596223, -15242.378, -15242.378, 0.0, 2.5002015, 2.4995263 
4.9884033e+2, 7.8721243e+1, -28600.977, -225719.95, -8445.196, -0.026131602, 0.03062749, -28239.82, -28239.82, 0.0, 2.5001788, 2.499526 
4.9883944e+2, 8.1220865e+1, 10578.745, -125428.41, 3712.216, -0.030943397, 0.031729482, 10679.992, 10679.992, 0.0, 2.5001585, 2.4997082 
4.9883866e+2, 8.3720595e+1, 3761.1245, -123334.3, 3497.3945, -0.033258863, 0.03327836, 3857.2927, 3857.2927, 0.0, 2.5001411, 2.49972 
4.9883783e+2, 8.622033e+1, -6417.822, -128284.75, 3172.7231, -0.037117556, 0.03437442, -6335.2783, -6335.2783, 0.0, 2.5001237, 2.49972 
4.98837e+2, 8.872005e+1, -16559.316, -133217.25, 2860.8809, -0.042476658, 0.035043884, -16489.2, -16489.2, 0.0, 2.5001063, 2.4997199 
4.9883625e+2, 9.121987e+1, 24496.885, -27043.967, -4149.7065, -0.0403611, 0.036518283, 24828.852, 24828.852, 0.0, 2.5000837, 2.499913 
4.988354e+2, 9.3719786e+1, 11444.154, -28363.977, -4372.642, -0.040243313, 0.03616177, 11918.799, 11918.799, 0.0, 2.500056, 2.4999242 
4.9883455e+2, 9.6219695e+1, -5125.4478, -36524.71, -3365.4512, -0.042234503, 0.035094127, -4768.7817, -4768.7817, 0.0, 2.5000277, 2.4999237 
4.9883372e+2, 9.871959e+1, -21989.793, -44827.414, -2286.2722, -0.046214283, 0.033347897, -21763.164, -21763.164, 0.0, 2.499999, 2.4999232 
