coord_x,coord_y,stress_xx,stress_yy,tau_xy,velocity_x,velocity_y,stress_1,eps,damage,lx,ly
1.2502377e+0, 1.2491678e+0, -190987.4, -837576.25, 3.4399316, 0.000002974998, -0.000033043587, -190987.4, -190987.4, 0.0, 2.5004745, 2.4983342 
1.2502377e+0, 3.7475035e+0, -191244.83, -838031.3, 8.872099, 0.0000033372726, -0.00009893856, -191244.83, -191244.83, 0.0, 2.5004745, 2.4983335 
1.2502375e+0, 6.245839e+0, -191294.17, -838055.0, 19.72526, 0.000003037987, -0.00016457656, -191294.16, -191294.16, 0.0, 2.5004742, 2.4983335 
1.2502375e+0, 8.744175e+0, -191342.9, -838078.3, 30.205908, 0.0000020771402, -0.00022995773, -191342.9, -191342.9, 0.0, 2.5004742, 2.4983335 
1.2502375e+0, 1.1242588e+1, -149028.16, -750234.56, 52.806446, -0.0000017327638, -0.000014391583, -149028.16, -149028.16, 0.0, 2.5004742, 2.4984841 
1.2502375e+0, 1.3741076e+1, -148614.66, -749460.6, 33.022125, -0.0000059594295, -0.000010678248, -148614.66, -148614.66, 0.0, 2.5004745, 2.4984853 
1.2502375e+0, 1.6239563e+1, -148561.22, -749434.6, 18.685965, -0.000010617374, -0.0000070218853, -148561.22, -148561.22, 0.0, 2.5004745, 2.4984853 
1.2502375e+0, 1.8738051e+1, -148507.75, -749408.6, 4.222181, -0.000015707747, -0.0000028302663, -148507.75, -148507.75, 0.0, 2.5004747, 2.4984853 
1.2502375e+0, 2.1236615e+1, -106779.02, -662860.3, 28.818508, -0.000018319544, 0.00031469564, -106779.02, -106779.02, 0.0, 2.5004747, 2.4986336 
1.2502377e+0, 2.373525e+1, -106037.84, -661286.3, 34.38844, -0.0000011832088, 0.00010950842, -106037.836, -106037.836, 0.0, 2.5004747, 2.4986365 
1.2502378e+0, 2.6233888e+1, -106059.48, -661296.4, 49.870216, 0.00001534844, -0.00009705043, -106059.47, -106059.47, 0.0, 2.5004747, 2.4986365 
1.250238e+0, 2.8732523e+1, -106081.19, -661306.5, 65.04899, 0.000031232714, -0.00030297213, -106081.18, -106081.18, 0.0, 2.5004747, 2.4986365 
1.250238e+0, 3.1231236e+1, -64435.008, -574889.4, 81.135925, 0.000023637565, 0.00006198309, -64434.996, -64434.996, 0.0, 2.5004747, 2.4987845 
1.2502377e+0, 3.3730027e+1, -63396.465, -572760.94, 50.8968, 0.0000018695465, -0.000029498411, -63396.46, -63396.46, 0.0, 2.5004747, 2.4987884 
1.2502375e+0, 3.6228818e+1, -63378.742, -572752.1, 29.32344, -0.000020624195, -0.0001245135, -63378.742, -63378.742, 0.0, 2.5004747, 2.4987884 
1.2502372e+0, 3.8727605e+1, -63361.297, -572743.5, 7.633399, -0.00004387632, -0.00021945729, -63361.297, -63361.297, 0.0, 2.500475, 2.4987884 
1.2502374e+0, 4.122647e+1, -22185.58, -487414.56, 32.632256, -0.000042398653, 0.00021657236, -22185.578, -22185.578, 0.0, 2.5004752, 2.4989345 
1.2502375e+0, 4.372541e+1, -20786.51, -484510.38, 10.109434, -0.000012492377, 0.00007377776, -20786.51, -20786.51, 0.0, 2.5004752, 2.4989395 
1.250238e+0, 4.622435e+1, -20786.63, -484510.3, 3.864936, 0.000016493228, -0.00007391655, -20786.63, -20786.63, 0.0, 2.5004752, 2.4989395 
1.2502381e+0, 4.872329e+1, -20787.283, -484510.5, -3.1357334, 0.00004454431, -0.00022159879, -20787.283, -20787.283, 0.0, 2.5004752, 2.4989395 
1.2502381e+0, 5.1222306e+1, 20084.219, -399767.13, 15.948618, 0.000030303172, 0.00032248153, 20084.219, 20084.219, 0.0, 2.5004752, 2.499085 
1.2502378e+0, 5.372139e+1, 21774.906, -396238.78, -1.9020541, 0.000008304462, 0.00014486627, 21774.906, 21774.906, 0.0, 2.5004752, 2.499091 
1.2502375e+0, 5.6220484e+1, 21763.406, -396243.84, -4.8219547, -0.000014828201, -0.00004038546, 21763.406, 21763.406, 0.0, 2.5004752, 2.499091 
1.2502374e+0, 5.8719575e+1, 21751.156, -396249.25, -6.9591036, -0.00003928883, -0.00022578187, 21751.156, 21751.156, 0.0, 2.5004752, 2.499091 
1.2502375e+0, 6.1218745e+1, 62381.74, -312030.0, 13.538677, -0.000037527298, 0.0003548253, 62381.74, 62381.74, 0.0, 2.5004754, 2.4992354 
1.2502377e+0, 6.3717985e+1, 64504.746, -307624.22, -42.165565, -0.0000104181145, 0.00007778902, 64504.75, 64504.75, 0.0, 2.5004754, 2.499243 
1.2502381e+0, 6.6217226e+1, 64505.938, -307623.0, -82.05887, 0.000014919155, -0.00020931532, 64505.953, 64505.953, 0.0, 2.5004754, 2.499243 
1.2502383e+0, 6.8716466e+1, 64506.56, -307622.06, -122.83708, 0.000038493603, -0.000496688, 64506.598, 64506.598, 0.0, 2.5004754, 2.499243 
1.2502381e+0, 7.1215785e+1, 104576.49, -224572.47, -109.03626, 0.000009015348, 0.00035652338, 104576.53, 104576.53, 0.0, 2.5004756, 2.4993854 
1.250238e+0, 7.371518e+1, 106952.375, -219550.2, -123.16828, -0.0000051118523, 0.00023248389, 106952.42, 106952.42, 0.0, 2.5004754, 2.4993942 
1.2502377e+0, 7.621457e+1, 106896.984, -219575.3, -118.38085, -0.00002181161, 0.00009350065, 106897.02, 106897.02, 0.0, 2.5004754, 2.4993942 
1.2502375e+0, 7.8713965e+1, 106841.86, -219600.27, -111.3957, -0.000041543128, -0.000046328674, 106841.89, 106841.89, 0.0, 2.5004754, 2.4993942 
1.2502378e+0, 8.121343e+1, 146878.16, -136676.7, -76.54102, -0.000030154104, 0.00048636526, 146878.19, 146878.19, 0.0, 2.5004756, 2.4995363 
1.2502381e+0, 8.371298e+1, 149718.69, -130772.46, -143.62927, 0.0000013078884, 0.00010339288, 149718.77, 149718.77, 0.0, 2.5004756, 2.4995465 
1.2502384e+0, 8.6212516e+1, 149714.48, -130771.94, -186.24277, 0.000028473893, -0.00029194902, 149714.61, 149714.61, 0.0, 2.5004756, 2.4995465 
1.2502387e+0, 8.871206e+1, 149709.39, -130771.85, -227.92537, 0.000051443767, -0.0006882738, 149709.58, 149709.58, 0.0, 2.5004756, 2.4995465 
1.2502377e+0, 9.1211694e+1, 189034.75, -49274.145, -229.48802, -0.00006838873, 0.0011740658, 189034.97, 189034.97, 0.0, 2.500476, 2.4996862 
1.2502381e+0, 9.371139e+1, 192277.58, -42400.28, -256.8852, -0.000037659, 0.00064369105, 192277.86, 192277.86, 0.0, 2.5004756, 2.4996982 
1.2502384e+0, 9.6211076e+1, 192192.3, -42441.254, -261.07852, -0.000014323598, 0.00007795974, 192192.6, 192192.6, 0.0, 2.5004754, 2.4996982 
1.2502387e+0, 9.871077e+1, 192111.6, -42480.023, -263.11044, -0.0000006750909, -0.00048800287, 192111.89, 192111.89, 0.0, 2.5004754, 2.4996982 
3.7507132e+0, 1.2491679e+0, -191159.16, -837648.7, -7.154883, 0.0000087598955, -0.000019783893, -191159.16, -191159.16, 0.0, 2.5004742, 2.4983342 
3.7507132e+0, 3.7475038e+0, -191410.45, -838096.5, -23.848166, 0.000009516601, -0.00005877422, -191410.45, -191410.45, 0.0, 2.5004742, 2.4983335 
3.750713e+0, 6.2458396e+0, -191457.19, -838118.56, -23.308474, 0.000008288624, -0.000096993914, -191457.19, -191457.19, 0.0, 2.500474, 2.4983335 
3.7507126e+0, 8.744176e+0, -191504.34, -838140.9, -22.598768, 0.0000050759595, -0.00013444311, -191504.34, -191504.34, 0.0, 2.500474, 2.4983335 
3.7507126e+0, 1.1242588e+1, -149209.19, -750344.0, 20.633581, -0.0000043005307, 0.000052636155, -149209.19, -149209.19, 0.0, 2.500474, 2.498484 
3.7507126e+0, 1.3741076e+1, -148806.7, -749600.94, -18.020025, -0.0000174958, 0.000010376919, -148806.7, -148806.7, 0.0, 2.5004742, 2.4984853 
3.7507126e+0, 1.6239563e+1, -148748.73, -749572.3, -39.344994, -0.000031989304, -0.00003082687, -148748.73, -148748.73, 0.0, 2.5004742, 2.4984853 
3.7507126e+0, 1.8738051e+1, -148691.53, -749544.0, -60.387665, -0.000047780097, -0.000070424896, -148691.52, -148691.52, 0.0, 2.5004742, 2.4984853 
3.7507126e+0, 2.1236612e+1, -106840.42, -662750.75, -50.353825, -0.000053446296, 0.00021728399, -106840.414, -106840.414, 0.0, 2.5004745, 2.498634 
3.7507132e+0, 2.373525e+1, -106148.77, -661289.25, -69.04785, -0.0000024154192, 0.000066881636, -106148.766, -106148.766, 0.0, 2.5004745, 2.4986365 
3.7507135e+0, 2.6233888e+1, -106165.14, -661296.1, -56.53088, 0.000046791374, -0.00008346756, -106165.13, -106165.13, 0.0, 2.5004745, 2.4986365 
3.7507138e+0, 2.8732526e+1, -106182.77, -661303.56, -43.6226, 0.00009405604, -0.00023190526, -106182.77, -106182.77, 0.0, 2.5004745, 2.4986365 
3.7507138e+0, 3.123124e+1, -64571.33, -574975.44, -6.303746, 0.00007360445, 0.00012106828, -64571.33, -64571.33, 0.0, 2.5004745, 2.4987845 
3.7507132e+0, 3.3730027e+1, -63544.984, -572885.2, -55.34419, 0.000008081175, 0.000018785446, -63544.98, -63544.98, 0.0, 2.5004745, 2.498788 
3.7507123e+0, 3.6228818e+1, -63520.49, -572872.6, -76.5728, -0.000059635782, -0.00008664328, -63520.477, -63520.477, 0.0, 2.5004747, 2.498788 
3.7507117e+0, 3.8727605e+1, -63497.813, -572860.94, -97.612335, -0.0001296279, -0.00019185805, -63497.793, -63497.793, 0.0, 2.5004747, 2.498788 
3.750712e+0, 4.122647e+1, -22226.479, -487343.0, -49.91337, -0.00012631073, 0.00021897702, -22226.473, -22226.473, 0.0, 2.500475, 2.4989347 
3.750713e+0, 4.372541e+1, -20877.549, -484554.4, -102.96736, -0.000036358895, 0.000075258875, -20877.525, -20877.525, 0.0, 2.500475, 2.4989395 
3.7507135e+0, 4.622435e+1, -20872.268, -484551.5, -105.275665, 0.000050840878, -0.00007319361, -20872.244, -20872.244, 0.0, 2.500475, 2.4989395 
3.7507147e+0, 4.872329e+1, -20869.473, -484549.8, -107.42036, 0.00013523707, -0.0002216099, -20869.45, -20869.45, 0.0, 2.500475, 2.4989395 
3.7507144e+0, 5.1222306e+1, 20060.53, -399694.38, -60.45646, 0.00009414244, 0.00028744494, 20060.537, 20060.537, 0.0, 2.5004752, 2.499085 
3.7507135e+0, 5.372139e+1, 21723.166, -396229.8, -96.35784, 0.000028022692, 0.000119434495, 21723.188, 21723.188, 0.0, 2.5004752, 2.499091 
3.750713e+0, 5.6220484e+1, 21713.041, -396233.28, -88.0334, -0.00004151626, -0.000056123936, 21713.059, 21713.059, 0.0, 2.5004752, 2.499091 
3.7507123e+0, 5.8719575e+1, 21699.674, -396238.28, -79.49451, -0.00011503911, -0.00023211642, 21699.69, 21699.69, 0.0, 2.5004752, 2.499091 
3.7507123e+0, 6.1218745e+1, 62324.55, -312027.72, -18.728186, -0.00011057689, 0.00032940498, 62324.55, 62324.55, 0.0, 2.5004752, 2.4992354 
3.7507135e+0, 6.3717985e+1, 64386.684, -307753.72, -93.64742, -0.000030241481, 0.000082508144, 64386.707, 64386.707, 0.0, 2.5004752, 2.4992428 
3.750714e+0, 6.6217226e+1, 64388.496, -307750.9, -119.646225, 0.000044789434, -0.00017457527, 64388.535, 64388.535, 0.0, 2.5004752, 2.4992428 
3.7507147e+0, 6.8716466e+1, 64386.215, -307750.1, -145.45201, 0.00011453188, -0.00043246365, 64386.273, 64386.273, 0.0, 2.5004752, 2.4992428 
3.7507144e+0, 7.1215785e+1, 104599.836, -224388.88, -97.91872, 0.000035351582, 0.00038447295, 104599.87, 104599.87, 0.0, 2.5004754, 2.4993858 
3.7507138e+0, 7.371518e+1, 106916.555, -219484.2, -123.90605, -0.000009748932, 0.0002500182, 106916.6, 106916.6, 0.0, 2.5004754, 2.4993942 
3.7507132e+0, 7.621457e+1, 106854.05, -219509.56, -97.47025, -0.000062697065, 0.00009947965, 106854.08, 106854.08, 0.0, 2.5004752, 2.4993942 
3.7507126e+0, 7.8713965e+1, 106785.69, -219537.73, -71.03975, -0.0001247405, -0.000053597127, 106785.7, 106785.7, 0.0, 2.5004752, 2.4993942 
3.7507135e+0, 8.121343e+1, 146764.73, -136698.16, 25.879152, -0.00008299938, 0.00040411094, 146764.73, 146764.73, 0.0, 2.5004754, 2.4995363 
3.7507147e+0, 8.371298e+1, 149527.31, -130947.79, -67.87325, 0.000007425342, 0.000014885392, 149527.33, 149527.33, 0.0, 2.5004754, 2.4995463 
3.7507153e+0, 8.6212516e+1, 149513.7, -130946.71, -94.87189, 0.00008483784, -0.00038775016, 149513.73, 149513.73, 0.0, 2.5004754, 2.4995463 
3.7507161e+0, 8.871206e+1, 149491.69, -130949.68, -121.81005, 0.00014966194, -0.0007933344, 149491.75, 149491.75, 0.0, 2.5004752, 2.4995463 
3.7507135e+0, 9.1211694e+1, 188932.47, -49145.84, -76.99792, -0.00018321472, 0.0010666519, 188932.48, 188932.48, 0.0, 2.5004754, 2.4996867 
3.7507147e+0, 9.371138e+1, 192088.0, -42381.855, -89.82173, -0.00009222216, 0.0006104539, 192088.03, 192088.03, 0.0, 2.5004752, 2.4996984 
3.7507156e+0, 9.6211076e+1, 191938.86, -42453.395, -48.462082, -0.000023843952, 0.00011887697, 191938.86, 191938.86, 0.0, 2.500475, 2.4996984 
3.7507161e+0, 9.871077e+1, 191774.22, -42532.395, -7.054054, 0.000015473484, -0.00037339394, 191774.22, 191774.22, 0.0, 2.5004747, 2.4996984 
6.2511885e+0, 1.2491681e+0, -191152.69, -837634.75, -12.119815, 0.000014324724, -0.0000072701646, -191152.69, -191152.69, 0.0, 2.5004742, 2.4983342 
6.2511885e+0, 3.7475044e+0, -191402.53, -838078.5, -38.982178, 0.00001503569, -0.000020847785, -191402.53, -191402.53, 0.0, 2.5004742, 2.4983335 
6.2511885e+0, 6.245841e+0, -191449.72, -838100.56, -37.62158, 0.000012438854, -0.0000331411, -191449.72, -191449.72, 0.0, 2.500474, 2.4983335 
6.251188e+0, 8.7441766e+0, -191497.33, -838122.75, -36.090965, 0.0000065342065, -0.00004415025, -191497.33, -191497.33, 0.0, 2.500474, 2.4983335 
6.251188e+0, 1.1242589e+1, -149240.33, -750405.2, 37.754116, -0.0000056712383, 0.00012698842, -149240.33, -149240.33, 0.0, 2.500474, 2.498484 
6.251188e+0, 1.3741076e+1, -148840.47, -749666.2, -10.368552, -0.000028522147, 0.00003279441, -148840.47, -148840.47, 0.0, 2.5004742, 2.498485 
6.251188e+0, 1.6239563e+1, -148783.08, -749637.3, -29.74046, -0.00005354411, -0.000059268048, -148783.08, -148783.08, 0.0, 2.5004742, 2.498485 
6.251188e+0, 1.873805e+1, -148726.47, -749608.75, -48.83007, -0.00008072822, -0.00014865423, -148726.47, -148726.47, 0.0, 2.5004742, 2.498485 
6.251188e+0, 2.1236612e+1, -106783.62, -662624.7, -46.029385, -0.00008655656, 0.00012697038, -106783.62, -106783.62, 0.0, 2.5004745, 2.4986343 
6.2511885e+0, 2.373525e+1, -106124.57, -661228.2, -83.45994, -0.0000021353235, 0.000025579582, -106124.555, -106124.555, 0.0, 2.5004745, 2.4986367 
6.251189e+0, 2.6233888e+1, -106142.23, -661234.9, -68.879555, 0.000079229074, -0.00007443508, -106142.22, -106142.22, 0.0, 2.5004745, 2.4986367 
6.25119e+0, 2.8732526e+1, -106161.15, -661242.25, -53.907875, 0.00015735658, -0.00017126388, -106161.15, -106161.15, 0.0, 2.5004745, 2.4986367 
6.25119e+0, 3.123124e+1, -64610.94, -575047.5, 8.686498, 0.00012716037, 0.0001878813, -64610.94, -64610.94, 0.0, 2.5004745, 2.4987845 
6.2511885e+0, 3.3730027e+1, -63584.97, -572957.94, -58.16601, 0.00001758954, 0.000070216694, -63584.96, -63584.96, 0.0, 2.5004745, 2.498788 
6.2511873e+0, 3.6228818e+1, -63560.258, -572944.75, -77.65746, -0.00009566494, -0.00005035925, -63560.246, -63560.246, 0.0, 2.5004747, 2.498788 
6.251186e+0, 3.8727605e+1, -63537.375, -572932.5, -96.95984, -0.00021271135, -0.00017057858, -63537.355, -63537.355, 0.0, 2.5004747, 2.498788 
6.251187e+0, 4.122647e+1, -22195.709, -487267.8, -26.5583, -0.00020904247, 0.00022577746, -22195.709, -22195.709, 0.0, 2.500475, 2.498935 
6.2511885e+0, 4.372541e+1, -20885.904, -484559.44, -111.50878, -0.000058734426, 0.00007615482, -20885.877, -20885.877, 0.0, 2.500475, 2.4989395 
6.25119e+0, 4.6224347e+1, -20881.13, -484556.56, -111.99353, 0.00008700346, -0.00007815302, -20881.104, -20881.104, 0.0, 2.500475, 2.4989395 
6.251191e+0, 4.8723286e+1, -20878.846, -484554.88, -112.31467, 0.00022806873, -0.00023240055, -20878.818, -20878.818, 0.0, 2.500475, 2.4989395 
6.251191e+0, 5.12223e+1, 20084.215, -399634.0, -42.91748, 0.00016229229, 0.0002620467, 20084.219, 20084.219, 0.0, 2.5004752, 2.4990852 
6.251189e+0, 5.372139e+1, 21736.355, -396190.78, -106.00842, 0.00005188668, 0.000097363845, 21736.38, 21736.38, 0.0, 2.5004752, 2.4990911 
6.2511885e+0, 5.6220484e+1, 21726.523, -396193.16, -95.149635, -0.00006424652, -0.00007502492, 21726.545, 21726.545, 0.0, 2.5004752, 2.4990911 
6.251187e+0, 5.8719575e+1, 21713.451, -396197.1, -84.07639, -0.00018701954, -0.0002481371, 21713.467, 21713.467, 0.0, 2.500475, 2.4990911 
6.2511873e+0, 6.1218745e+1, 62307.1, -312046.9, 6.7006774, -0.00018095311, 0.00031171084, 62307.1, 62307.1, 0.0, 2.5004752, 2.4992354 
6.2511885e+0, 6.3717985e+1, 64330.324, -307854.63, -97.13162, -0.00004871435, 0.000088657966, 64330.348, 64330.348, 0.0, 2.5004752, 2.4992425 
6.2511903e+0, 6.6217226e+1, 64333.52, -307849.9, -120.50881, 0.00007470236, -0.00014494908, 64333.56, 64333.56, 0.0, 2.5004752, 2.4992425 
6.251191e+0, 6.871646e+1, 64332.62, -307847.13, -143.69301, 0.00018930496, -0.00037989774, 64332.676, 64332.676, 0.0, 2.5004752, 2.4992425 
6.251191e+0, 7.1215785e+1, 104668.82, -224225.95, -82.055984, 0.00007276188, 0.00042198462, 104668.836, 104668.836, 0.0, 2.5004754, 2.499386 
6.25119e+0, 7.371518e+1, 106958.55, -219382.19, -135.1515, -0.000006937152, 0.0002707596, 106958.6, 106958.6, 0.0, 2.5004754, 2.4993944 
6.2511885e+0, 7.621457e+1, 106901.08, -219401.95, -105.17247, -0.00009993215, 0.00010197871, 106901.12, 106901.12, 0.0, 2.5004752, 2.4993944 
6.251188e+0, 7.8713965e+1, 106837.766, -219424.52, -75.19873, -0.00020808596, -0.00007103254, 106837.78, 106837.78, 0.0, 2.5004752, 2.4993944 
6.251189e+0, 8.121343e+1, 146746.92, -136715.31, 62.805073, -0.00012589403, 0.0003289878, 146746.94, 146746.94, 0.0, 2.5004754, 2.4995363 
6.251191e+0, 8.371298e+1, 149464.9, -131062.445, -63.42309, 0.000018211747, -0.000072909745, 149464.92, 149464.92, 0.0, 2.5004754, 2.499546 
6.251192e+0, 8.6212516e+1, 149457.66, -131053.22, -86.64517, 0.0001404234, -0.0004895602, 149457.69, 149457.69, 0.0, 2.5004754, 2.499546 
6.251193e+0, 8.871206e+1, 149442.02, -131048.03, -109.806786, 0.00024165437, -0.0009111251, 149442.06, 149442.06, 0.0, 2.5004752, 2.499546 
6.251189e+0, 9.121168e+1, 189007.7, -48973.34, -55.774517, -0.0002687721, 0.0009683615, 189007.7, 189007.7, 0.0, 2.5004754, 2.499687 
6.251191e+0, 9.371138e+1, 192147.5, -42245.234, -82.81676, -0.00011911207, 0.0005773563, 192147.53, 192147.53, 0.0, 2.5004752, 2.4996986 
6.2511927e+0, 9.6211076e+1, 192000.6, -42315.5, -32.19525, -0.00000786165, 0.00015055691, 192000.6, 192000.6, 0.0, 2.500475, 2.4996986 
6.251194e+0, 9.871077e+1, 191838.2, -42393.227, 18.474648, 0.000054954136, -0.00027739917, 191838.2, 191838.2, 0.0, 2.5004747, 2.4996986 
8.751664e+0, 1.24916814e+0, -191349.16, -837718.1, -11.779277, 0.000019727417, 0.0000044945323, -191349.16, -191349.16, 0.0, 2.5004737, 2.4983342 
8.751664e+0, 3.7475047e+0, -191549.98, -838135.94, -37.021767, 0.000019934507, 0.000014829869, -191549.98, -191549.98, 0.0, 2.5004737, 2.4983335 
8.751663e+0, 6.245841e+0, -191582.92, -838150.8, -23.234426, 0.000015522613, 0.00002696093, -191582.9, -191582.9, 0.0, 2.5004737, 2.4983335 
8.751663e+0, 8.744178e+0, -191649.83, -838182.06, -9.16498, 0.0000064917162, 0.000040887575, -191649.83, -191649.83, 0.0, 2.5004737, 2.4983335 
8.751663e+0, 1.124259e+1, -149451.27, -750577.06, 107.23563, -0.0000058035334, 0.0002086257, -149451.25, -149451.25, 0.0, 2.5004737, 2.4984837 
8.751663e+0, 1.3741076e+1, -149020.73, -749803.1, 62.296753, -0.000039004677, 0.00005653262, -149020.73, -149020.73, 0.0, 2.5004737, 2.498485 
8.751663e+0, 1.6239561e+1, -148964.13, -749774.1, 58.377422, -0.00007524966, -0.00009239407, -148964.13, -148964.13, 0.0, 2.500474, 2.498485 
8.7516624e+0, 1.8738046e+1, -148927.47, -749754.75, 55.55065, -0.00011451577, -0.00023757888, -148927.47, -148927.47, 0.0, 2.500474, 2.498485 
8.751663e+0, 2.123661e+1, -106914.09, -662629.25, 65.18747, -0.000117616735, 0.000043690106, -106914.086, -106914.086, 0.0, 2.5004742, 2.4986343 
8.751664e+0, 2.3735249e+1, -106238.83, -661234.75, 21.870852, -0.00000031779248, -0.000014458308, -106238.83, -106238.83, 0.0, 2.5004742, 2.4986367 
8.7516654e+0, 2.6233888e+1, -106256.48, -661240.8, 51.380096, 0.000112686146, -0.00007001439, -106256.47, -106256.47, 0.0, 2.5004742, 2.4986367 
8.7516654e+0, 2.8732526e+1, -106298.9, -661258.8, 81.38705, 0.00022116637, -0.00012111527, -106298.89, -106298.89, 0.0, 2.500474, 2.4986367 
8.7516654e+0, 3.123124e+1, -64826.258, -575236.8, 182.39417, 0.00018433663, 0.00026235176, -64826.19, -64826.19, 0.0, 2.5004742, 2.4987843 
8.751664e+0, 3.3730027e+1, -63751.625, -573092.44, 108.39579, 0.000030417088, 0.00012472851, -63751.6, -63751.6, 0.0, 2.5004742, 2.4987879 
8.7516624e+0, 3.6228818e+1, -63722.64, -573076.75, 102.40325, -0.00012868978, -0.000015724512, -63722.62, -63722.62, 0.0, 2.5004745, 2.4987879 
8.7516606e+0, 3.8727605e+1, -63720.703, -573074.06, 96.67572, -0.000293097, -0.00015567816, -63720.684, -63720.684, 0.0, 2.5004745, 2.4987879 
8.751661e+0, 4.1226467e+1, -22324.766, -487300.47, 200.69522, -0.00029056624, 0.00023691739, -22324.68, -22324.68, 0.0, 2.5004747, 2.498935 
8.751663e+0, 4.3725407e+1, -21009.926, -484621.0, 95.1881, -0.00007960284, 0.00007641148, -21009.906, -21009.906, 0.0, 2.5004747, 2.4989395 
8.7516654e+0, 4.6224347e+1, -21009.762, -484620.13, 109.66576, 0.0001249952, -0.00008884719, -21009.734, -21009.734, 0.0, 2.5004747, 2.4989395 
8.751667e+0, 4.8723286e+1, -21042.297, -484634.97, 126.25897, 0.0003230612, -0.0002540218, -21042.262, -21042.262, 0.0, 2.5004747, 2.4989395 
8.751667e+0, 5.12223e+1, 19933.768, -399692.63, 228.06273, 0.0002347738, 0.00024623988, 19933.893, 19933.893, 0.0, 2.500475, 2.4990852 
8.7516654e+0, 5.372139e+1, 21626.633, -396212.16, 141.9924, 0.0000799111, 0.000078616, 21626.68, 21626.68, 0.0, 2.500475, 2.4990911 
8.751663e+0, 5.6220484e+1, 21601.518, -396220.9, 161.74953, -0.00008299605, -0.000097116514, 21601.58, 21601.58, 0.0, 2.500475, 2.4990911 
8.751661e+0, 5.8719575e+1, 21526.477, -396253.75, 183.39075, -0.00025518436, -0.0002738602, 21526.557, 21526.557, 0.0, 2.5004747, 2.4990911 
8.7516624e+0, 6.121874e+1, 62072.137, -312211.44, 317.30438, -0.00024861316, 0.000301734, 62072.406, 62072.406, 0.0, 2.500475, 2.4992354 
8.751664e+0, 6.3717985e+1, 64152.668, -308015.06, 200.09048, -0.00006582005, 0.00009623301, 64152.773, 64152.773, 0.0, 2.500475, 2.4992425 
8.751666e+0, 6.6217226e+1, 64164.46, -308004.94, 188.63513, 0.000104669365, -0.00012043626, 64164.56, 64164.56, 0.0, 2.500475, 2.4992425 
8.751668e+0, 6.871646e+1, 64110.207, -308026.6, 172.02806, 0.00026283984, -0.00033898122, 64110.29, 64110.29, 0.0, 2.500475, 2.4992425 
8.751667e+0, 7.1215785e+1, 104567.836, -224187.53, 247.27066, 0.000121270496, 0.0004690768, 104568.016, 104568.016, 0.0, 2.5004752, 2.4993863 
8.7516654e+0, 7.371518e+1, 106929.99, -219315.55, 170.72612, 0.0000033361237, 0.0002947394, 106930.08, 106930.08, 0.0, 2.5004752, 2.4993947 
8.751664e+0, 7.621457e+1, 106839.68, -219347.97, 195.5436, -0.00013347944, 0.00010104837, 106839.8, 106839.8, 0.0, 2.500475, 2.4993947 
8.7516624e+0, 7.8713965e+1, 106630.97, -219437.39, 211.81364, -0.00029148094, -0.000098558914, 106631.11, 106631.11, 0.0, 2.5004747, 2.4993947 
8.7516654e+0, 8.1213427e+1, 146492.22, -136888.2, 384.7505, -0.0001587464, 0.00026108546, 146492.73, 146492.73, 0.0, 2.500475, 2.4995363 
8.751667e+0, 8.3712965e+1, 149384.86, -131186.97, 247.84021, 0.000033695902, -0.00015989978, 149385.08, 149385.08, 0.0, 2.5004754, 2.4995458 
8.751669e+0, 8.621251e+1, 149372.88, -131174.97, 227.05498, 0.000195258, -0.0005972725, 149373.05, 149373.05, 0.0, 2.5004752, 2.4995458 
8.751671e+0, 8.871205e+1, 149148.39, -131265.3, 189.13812, 0.00032750878, -0.0010415146, 149148.52, 149148.52, 0.0, 2.500475, 2.499546 
8.7516654e+0, 9.121168e+1, 188830.98, -48963.414, 209.63277, -0.00032497436, 0.00087935134, 188831.17, 188831.17, 0.0, 2.500475, 2.4996872 
8.751668e+0, 9.371138e+1, 192186.75, -42120.06, 146.03932, -0.0001182893, 0.00054457336, 192186.84, 192186.84, 0.0, 2.5004752, 2.4996989 
8.75167e+0, 9.6211076e+1, 191957.39, -42229.844, 177.0854, 0.000033708893, 0.0001731934, 191957.53, 191957.53, 0.0, 2.5004747, 2.4996989 
8.751672e+0, 9.871077e+1, 191421.75, -42487.125, 209.5134, 0.000117994656, -0.00019980563, 191421.94, 191421.94, 0.0, 2.5004737, 2.4996989 
1.1252139e+1, 1.2491683e+0, -191303.81, -837647.44, 2.8576415, 0.00007374679, 0.000004123037, -191303.81, -191303.81, 0.0, 2.5004737, 2.4983344 
1.1252139e+1, 3.7475047e+0, -191368.55, -837993.75, -54.160362, 0.00005696777, 0.000011914578, -191368.55, -191368.55, 0.0, 2.500474, 2.4983337 
1.1252139e+1, 6.245841e+0, -191236.3, -837927.94, -63.03353, 0.00004823338, 0.000019100778, -191236.28, -191236.28, 0.0, 2.5004742, 2.4983337 
1.1252138e+1, 8.744178e+0, -191105.83, -837863.0, -71.77625, 0.000047543614, 0.0000256815, -191105.83, -191105.83, 0.0, 2.5004745, 2.4983337 
1.1252138e+1, 1.124259e+1, -148893.4, -750257.94, 52.267647, 0.00003054402, 0.00018653646, -148893.4, -148893.4, 0.0, 2.5004747, 2.498484 
1.1252138e+1, 1.3741076e+1, -148627.11, -749563.1, 4.4418826, -0.0000006812136, 0.000017909968, -148627.11, -148627.11, 0.0, 2.5004745, 2.498485 
1.1252138e+1, 1.6239561e+1, -148714.33, -749600.3, 7.715421, -0.000028983875, -0.00015304532, -148714.31, -148714.31, 0.0, 2.5004742, 2.498485 
1.1252138e+1, 1.8738046e+1, -148802.86, -749638.2, 11.897753, -0.000054374617, -0.00032574372, -148802.86, -148802.86, 0.0, 2.5004742, 2.498485 
1.1252138e+1, 2.123661e+1, -106831.484, -662498.6, 42.234695, -0.000066067965, -0.000050364783, -106831.484, -106831.484, 0.0, 2.5004742, 2.4986346 
1.1252139e+1, 2.3735249e+1, -106089.42, -661093.44, -67.85218, 0.000022362992, -0.00008775749, -106089.414, -106089.414, 0.0, 2.5004745, 2.498637 
1.125214e+1, 2.6233888e+1, -106003.43, -661047.5, -90.90518, 0.00011490634, -0.00012803396, -106003.414, -106003.414, 0.0, 2.5004745, 2.498637 
1.125214e+1, 2.8732526e+1, -105919.336, -661002.5, -113.247925, 0.00021133458, -0.00016934726, -105919.31, -105919.31, 0.0, 2.5004747, 2.498637 
1.125214e+1, 3.123124e+1, -64357.875, -574924.06, 32.969566, 0.00017334352, 0.00021240124, -64357.875, -64357.875, 0.0, 2.500475, 2.4987845 
1.1252139e+1, 3.3730027e+1, -63375.91, -572851.94, -62.08209, 0.000042859232, 0.0000703116, -63375.902, -63375.902, 0.0, 2.500475, 2.498788 
1.1252138e+1, 3.6228818e+1, -63395.785, -572856.56, -62.101017, -0.00008369107, -0.00007439579, -63395.777, -63395.777, 0.0, 2.500475, 2.498788 
1.12521365e+1, 3.8727605e+1, -63417.66, -572862.1, -61.425163, -0.00020646736, -0.00021841166, -63417.652, -63417.652, 0.0, 2.500475, 2.498788 
1.1252137e+1, 4.1226467e+1, -22083.729, -487081.84, 74.2288, -0.00021744777, 0.00016990812, -22083.717, -22083.717, 0.0, 2.500475, 2.4989352 
1.1252139e+1, 4.3725407e+1, -20827.012, -484472.5, -83.797195, -0.00004925171, 0.0000099269955, -20826.996, -20826.996, 0.0, 2.500475, 2.4989398 
1.125214e+1, 4.6224347e+1, -20825.98, -484465.34, -98.75354, 0.00012240061, -0.00015469175, -20825.959, -20825.959, 0.0, 2.500475, 2.4989398 
1.1252142e+1, 4.8723286e+1, -20828.025, -484459.7, -113.074646, 0.0002972245, -0.00031914038, -20827.998, -20827.998, 0.0, 2.500475, 2.4989398 
1.1252142e+1, 5.12223e+1, 20235.324, -399434.03, 37.716175, 0.0002029886, 0.00018811977, 20235.328, 20235.328, 0.0, 2.5004752, 2.4990854 
1.125214e+1, 5.372139e+1, 21913.65, -395999.7, -124.81601, 0.00007474453, 0.00003918672, 21913.688, 21913.688, 0.0, 2.5004752, 2.4990914 
1.1252139e+1, 5.6220484e+1, 21945.049, -395976.0, -150.00616, -0.000046670015, -0.00011611884, 21945.104, 21945.104, 0.0, 2.5004754, 2.4990914 
1.1252138e+1, 5.8719575e+1, 21972.416, -395954.25, -174.4975, -0.00016256463, -0.00027072922, 21972.488, 21972.488, 0.0, 2.5004754, 2.4990914 
1.1252138e+1, 6.1218745e+1, 62523.242, -311851.63, 9.242263, -0.00017743651, 0.0002970426, 62523.242, 62523.242, 0.0, 2.5004754, 2.4992356 
1.125214e+1, 6.3717985e+1, 64409.637, -307830.28, -130.83708, -0.000033315988, 0.00008819851, 64409.68, 64409.68, 0.0, 2.5004754, 2.4992425 
1.1252141e+1, 6.6217226e+1, 64338.926, -307862.97, -131.1694, 0.00012039928, -0.00012860562, 64338.973, 64338.973, 0.0, 2.5004752, 2.4992425 
1.1252143e+1, 6.8716466e+1, 64260.586, -307899.34, -130.05077, 0.00028334677, -0.00034429514, 64260.633, 64260.633, 0.0, 2.5004752, 2.4992425 
1.1252142e+1, 7.1215785e+1, 104764.27, -223938.3, 13.60998, 0.00010759931, 0.00046201807, 104764.27, 104764.27, 0.0, 2.5004754, 2.4993865 
1.1252141e+1, 7.371518e+1, 107055.68, -219182.17, -163.90942, -0.000017447854, 0.0003067081, 107055.76, 107055.76, 0.0, 2.5004754, 2.499395 
1.125214e+1, 7.621457e+1, 107047.28, -219186.1, -202.07996, -0.00012220096, 0.00013979441, 107047.41, 107047.41, 0.0, 2.5004754, 2.499395 
1.1252139e+1, 7.8713965e+1, 107030.586, -219194.0, -238.733, -0.00020934886, -0.000025444297, 107030.76, 107030.76, 0.0, 2.5004754, 2.499395 
1.1252142e+1, 8.121343e+1, 146978.3, -136470.9, 41.516434, -0.000025612331, 0.00034560848, 146978.3, 146978.3, 0.0, 2.5004756, 2.4995368 
1.1252144e+1, 8.371298e+1, 149462.23, -131081.11, -134.562, 0.00011014376, -0.00006980121, 149462.3, 149462.3, 0.0, 2.5004754, 2.499546 
1.12521455e+1, 8.6212516e+1, 149302.27, -131162.27, -140.31393, 0.000281042, -0.0004900351, 149302.34, 149302.34, 0.0, 2.5004752, 2.499546 
1.1252148e+1, 8.871206e+1, 149130.69, -131249.02, -146.7463, 0.00048941455, -0.0009057089, 149130.77, 149130.77, 0.0, 2.5004747, 2.499546 
1.1252141e+1, 9.121168e+1, 189115.16, -48704.973, 36.176228, -0.0003933243, 0.0009756917, 189115.17, 189115.17, 0.0, 2.5004754, 2.4996874 
1.1252144e+1, 9.371138e+1, 192309.23, -42015.65, -170.95251, -0.0001669097, 0.00067159376, 192309.36, 192309.36, 0.0, 2.5004754, 2.499699 
1.1252147e+1, 9.6211076e+1, 192220.63, -42051.582, -244.00597, 0.000100191886, 0.00033078613, 192220.88, 192220.88, 0.0, 2.5004752, 2.499699 
1.1252151e+1, 9.8710775e+1, 192077.72, -42113.656, -316.3606, 0.00039075912, -0.0000129125965, 192078.14, 192078.14, 0.0, 2.500475, 2.499699 
1.3752614e+1, 1.24916814e+0, -191298.02, -837646.75, 38.713814, 0.000014831787, -0.00000005061119, -191298.02, -191298.02, 0.0, 2.500474, 2.4983344 
1.3752614e+1, 3.7475044e+0, -191358.25, -837982.6, -25.460726, 0.000015068972, 0.000000017264139, -191358.25, -191358.25, 0.0, 2.500474, 2.4983337 
1.3752614e+1, 6.245841e+0, -191225.78, -837916.0, -34.011135, 0.000017243621, 0.0000003112982, -191225.78, -191225.78, 0.0, 2.5004742, 2.4983337 
1.3752614e+1, 8.7441766e+0, -191094.64, -837850.06, -42.41275, 0.00002135572, 0.0000008313519, -191094.64, -191094.64, 0.0, 2.5004745, 2.4983337 
1.3752614e+1, 1.1242589e+1, -148844.61, -750162.7, 19.864342, -0.0000059351596, 0.0001625627, -148844.61, -148844.61, 0.0, 2.5004747, 2.4984841 
1.3752614e+1, 1.3741076e+1, -148599.19, -749508.6, -35.723312, -0.0000028675927, 0.000025345144, -148599.19, -148599.19, 0.0, 2.5004745, 2.4984853 
1.3752614e+1, 1.6239561e+1, -148687.31, -749545.3, -31.977774, -0.0000009612962, -0.00011137396, -148687.31, -148687.31, 0.0, 2.5004742, 2.4984853 
1.3752614e+1, 1.8738046e+1, -148776.77, -749582.56, -27.44509, -0.0000003020329, -0.000247032, -148776.77, -148776.77, 0.0, 2.5004742, 2.4984853 
1.3752614e+1, 2.123661e+1, -106823.6, -662493.0, 46.515842, -0.000023482462, 0.000018952462, -106823.59, -106823.59, 0.0, 2.5004742, 2.4986346 
1.3752614e+1, 2.3735249e+1, -106109.85, -661146.06, -72.04499, -0.0000020950283, -0.000031850705, -106109.84, -106109.84, 0.0, 2.5004745, 2.4986367 
1.3752614e+1, 2.6233888e+1, -106022.87, -661098.4, -95.5143, 0.000019112736, -0.00008352063, -106022.85, -106022.85, 0.0, 2.5004745, 2.4986367 
1.3752614e+1, 2.8732526e+1, -105937.45, -661051.4, -118.37779, 0.00003996986, -0.00013431221, -105937.43, -105937.43, 0.0, 2.5004747, 2.4986367 
1.3752614e+1, 3.123124e+1, -64282.99, -574772.1, 20.384773, 0.0000090817775, 0.00021901328, -64282.984, -64282.984, 0.0, 2.500475, 2.4987848 
1.3752614e+1, 3.3730027e+1, -63363.406, -572826.4, -107.17887, -0.00000503664, 0.000078865865, -63363.383, -63363.383, 0.0, 2.500475, 2.498788 
1.3752614e+1, 3.6228818e+1, -63384.688, -572830.5, -107.885216, -0.00001979044, -0.00006251166, -63384.664, -63384.664, 0.0, 2.500475, 2.498788 
1.3752612e+1, 3.8727605e+1, -63408.063, -572835.56, -108.00005, -0.000035429, -0.00020197623, -63408.04, -63408.04, 0.0, 2.500475, 2.498788 
1.3752614e+1, 4.1226467e+1, -22050.273, -487024.0, 42.723072, -0.00006036513, 0.00017592197, -22050.27, -22050.27, 0.0, 2.500475, 2.4989352 
1.3752614e+1, 4.3725407e+1, -20841.326, -484508.13, -133.39888, -0.0000057117613, 0.000022708955, -20841.29, -20841.29, 0.0, 2.500475, 2.4989395 
1.3752615e+1, 4.6224347e+1, -20842.95, -484501.5, -148.7628, 0.000046744986, -0.00013377344, -20842.902, -20842.902, 0.0, 2.500475, 2.4989395 
1.3752615e+1, 4.8723286e+1, -20847.463, -484496.25, -163.46936, 0.00009661407, -0.00028885005, -20847.406, -20847.406, 0.0, 2.500475, 2.4989395 
1.3752615e+1, 5.12223e+1, 20261.498, -399366.06, 22.868788, 0.0000015625014, 0.00020488564, 20261.5, 20261.5, 0.0, 2.5004752, 2.4990857 
1.3752615e+1, 5.372139e+1, 21866.08, -396079.03, -176.6817, -0.000009736772, 0.00007364146, 21866.156, 21866.156, 0.0, 2.5004752, 2.4990911 
1.3752615e+1, 5.6220484e+1, 21894.371, -396057.53, -200.39417, -0.000022288237, -0.000062560604, 21894.467, 21894.467, 0.0, 2.5004754, 2.4990911 
1.3752614e+1, 5.8719575e+1, 21918.635, -396037.94, -223.49825, -0.000037378733, -0.00019692595, 21918.754, 21918.754, 0.0, 2.5004754, 2.4990911 
1.3752615e+1, 6.1218745e+1, 62605.082, -311663.47, -46.059185, -0.00007516965, 0.00031838086, 62605.086, 62605.086, 0.0, 2.5004754, 2.4992359 
1.3752615e+1, 6.3717985e+1, 64401.46, -307824.97, -210.5917, 0.000010723305, 0.000077696124, 64401.58, 64401.58, 0.0, 2.5004754, 2.4992425 
1.3752617e+1, 6.6217226e+1, 64331.01, -307854.0, -210.79347, 0.00009541573, -0.00017033883, 64331.133, 64331.133, 0.0, 2.5004752, 2.4992425 
1.3752618e+1, 6.871646e+1, 64255.31, -307885.6, -210.58078, 0.00017801809, -0.00041720583, 64255.43, 64255.43, 0.0, 2.5004752, 2.4992425 
1.3752615e+1, 7.1215785e+1, 104774.8, -223890.89, -31.45732, -0.00004257354, 0.00034482195, 104774.805, 104774.805, 0.0, 2.5004754, 2.4993868 
1.3752615e+1, 7.3715174e+1, 106973.53, -219328.34, -238.84967, -0.00010443106, 0.00021872044, 106973.7, 106973.7, 0.0, 2.5004754, 2.4993947 
1.3752615e+1, 7.621457e+1, 106966.336, -219332.63, -275.57736, -0.00016441113, 0.00008141853, 106966.57, 106966.57, 0.0, 2.5004754, 2.4993944 
1.3752614e+1, 7.8713965e+1, 106951.45, -219340.61, -311.79776, -0.00022569452, -0.000054375643, 106951.75, 106951.75, 0.0, 2.5004754, 2.4993944 
1.3752618e+1, 8.1213427e+1, 147092.23, -136233.98, -34.65926, 0.00002722585, 0.00033402693, 147092.25, 147092.25, 0.0, 2.5004756, 2.499537 
1.375262e+1, 8.3712965e+1, 149479.42, -131049.53, -261.42715, 0.00017280584, -0.00005647759, 149479.67, 149479.67, 0.0, 2.5004754, 2.499546 
1.3752621e+1, 8.6212516e+1, 149323.55, -131121.4, -261.07156, 0.000320383, -0.0004553572, 149323.8, 149323.8, 0.0, 2.5004752, 2.499546 
1.3752623e+1, 8.871206e+1, 149154.83, -131199.48, -261.22156, 0.0004730639, -0.0008533495, 149155.08, 149155.08, 0.0, 2.5004747, 2.499546 
1.3752614e+1, 9.121168e+1, 189102.33, -48666.93, -1.2083988, -0.0007027666, 0.0008494224, 189102.33, 189102.33, 0.0, 2.5004754, 2.4996877 
1.3752618e+1, 9.371138e+1, 192191.38, -42195.242, -246.70476, -0.00034687237, 0.0005180331, 192191.64, 192191.64, 0.0, 2.5004752, 2.4996986 
1.3752623e+1, 9.6211076e+1, 192138.25, -42210.566, -284.51678, 0.0000044595004, 0.0001504841, 192138.6, 192138.6, 0.0, 2.5004752, 2.4996989 
1.3752627e+1, 9.871077e+1, 192066.14, -42235.03, -322.04596, 0.00032890684, -0.00022205616, 192066.58, 192066.58, 0.0, 2.500475, 2.4996989 
1.6253088e+1, 1.2491681e+0, -191300.0, -837650.2, 74.6784, -0.000044492514, -0.0000049734335, -191299.98, -191299.98, 0.0, 2.500474, 2.4983344 
1.6253088e+1, 3.7475044e+0, -191356.69, -837977.4, 5.7910395, -0.000028053828, -0.000014127614, -191356.69, -191356.69, 0.0, 2.500474, 2.4983337 
1.6253088e+1, 6.245841e+0, -191224.63, -837910.3, -0.6889473, -0.000015784983, -0.000022224182, -191224.63, -191224.63, 0.0, 2.5004742, 2.4983337 
1.625309e+1, 8.7441766e+0, -191093.89, -837843.9, -7.020138, -0.000007685994, -0.000029263278, -191093.89, -191093.89, 0.0, 2.5004745, 2.4983337 
1.625309e+1, 1.1242589e+1, -148816.92, -750093.9, -6.191664, -0.00003936748, 0.00013922334, -148816.92, -148816.92, 0.0, 2.5004747, 2.4984841 
1.625309e+1, 1.3741076e+1, -148584.89, -749462.56, -66.74289, -0.0000030053131, 0.000029519038, -148584.89, -148584.89, 0.0, 2.5004745, 2.4984853 
1.625309e+1, 1.6239561e+1, -148675.6, -749499.44, -60.601673, 0.000028098495, -0.00007687839, -148675.58, -148675.58, 0.0, 2.5004742, 2.4984853 
1.625309e+1, 1.873805e+1, -148767.61, -749536.94, -53.67331, 0.000053796262, -0.00017941048, -148767.61, -148767.61, 0.0, 2.5004742, 2.4984853 
1.625309e+1, 2.1236612e+1, -106850.31, -662532.0, 68.43241, 0.00002392593, 0.00009047309, -106850.305, -106850.305, 0.0, 2.5004742, 2.4986346 
1.6253088e+1, 2.3735249e+1, -106149.52, -661209.06, -58.41036, -0.000023147335, 0.000022927565, -106149.516, -106149.516, 0.0, 2.5004745, 2.4986367 
1.6253088e+1, 2.6233888e+1, -106063.56, -661160.56, -79.760124, -0.000074714284, -0.000043545515, -106063.555, -106063.555, 0.0, 2.5004745, 2.4986367 
1.6253088e+1, 2.8732526e+1, -105979.164, -661112.8, -100.50408, -0.00013086753, -0.00010722512, -105979.15, -105979.15, 0.0, 2.5004747, 2.4986367 
1.6253088e+1, 3.123124e+1, -64248.06, -574665.1, 31.82416, -0.00015122464, 0.00022485656, -64248.06, -64248.06, 0.0, 2.500475, 2.498785 
1.625309e+1, 3.3730027e+1, -63375.21, -572813.4, -123.79412, -0.000049493163, 0.00008379989, -63375.184, -63375.184, 0.0, 2.500475, 2.498788 
1.625309e+1, 3.6228818e+1, -63397.63, -572816.8, -122.40878, 0.00004700961, -0.000057162702, -63397.6, -63397.6, 0.0, 2.500475, 2.498788 
1.625309e+1, 3.8727605e+1, -63422.137, -572821.3, -120.431946, 0.00013796892, -0.0001949909, -63422.11, -63422.11, 0.0, 2.5004747, 2.498788 
1.6253091e+1, 4.1226467e+1, -22052.26, -487004.56, 50.53589, 0.000107536645, 0.00018569625, -22052.254, -22052.254, 0.0, 2.500475, 2.4989352 
1.625309e+1, 4.3725407e+1, -20877.303, -484555.13, -143.16931, 0.00004962614, 0.00003627417, -20877.258, -20877.258, 0.0, 2.500475, 2.4989395 
1.625309e+1, 4.6224347e+1, -20881.18, -484548.8, -156.06627, -0.000016213167, -0.00011518763, -20881.127, -20881.127, 0.0, 2.500475, 2.4989395 
1.6253088e+1, 4.8723286e+1, -20887.945, -484543.9, -168.30586, -0.00009039941, -0.0002640081, -20887.885, -20887.885, 0.0, 2.500475, 2.4989395 
1.6253088e+1, 5.12223e+1, 20252.975, -399341.8, 57.51029, -0.00020183157, 0.00022481942, 20252.982, 20252.982, 0.0, 2.5004752, 2.4990857 
1.625309e+1, 5.372139e+1, 21801.385, -396167.78, -178.35393, -0.000094931376, 0.000107600055, 21801.46, 21801.46, 0.0, 2.5004752, 2.4990911 
1.625309e+1, 5.6220484e+1, 21826.947, -396148.28, -198.75688, 0.0000028122101, -0.000013273485, 21827.041, 21827.041, 0.0, 2.5004752, 2.4990911 
1.6253091e+1, 5.8719575e+1, 21848.48, -396130.72, -218.55147, 0.00008995768, -0.0001311688, 21848.596, 21848.596, 0.0, 2.5004752, 2.4990911 
1.6253091e+1, 6.121874e+1, 62655.586, -311516.44, -45.523903, 0.000045325247, 0.00034544815, 62655.59, 62655.59, 0.0, 2.5004754, 2.499236 
1.6253091e+1, 6.371798e+1, 64379.082, -307828.1, -231.3266, 0.00007140653, 0.00006911744, 64379.223, 64379.223, 0.0, 2.5004754, 2.4992425 
1.6253091e+1, 6.6217226e+1, 64309.953, -307852.97, -227.12085, 0.00008529641, -0.00021414779, 64310.094, 64310.094, 0.0, 2.5004752, 2.4992425 
1.6253091e+1, 6.871646e+1, 64235.57, -307880.38, -222.50066, 0.00008577361, -0.00049619173, 64235.703, 64235.703, 0.0, 2.5004752, 2.4992425 
1.625309e+1, 7.1215785e+1, 104758.44, -223877.44, -4.5215507, -0.00018134073, 0.00022971019, 104758.44, 104758.44, 0.0, 2.5004752, 2.4993868 
1.625309e+1, 7.3715174e+1, 106877.555, -219482.38, -236.43214, -0.00018076827, 0.00013073294, 106877.73, 106877.73, 0.0, 2.5004752, 2.4993942 
1.625309e+1, 7.621457e+1, 106871.07, -219487.27, -267.10187, -0.00019670677, 0.00002081972, 106871.29, 106871.29, 0.0, 2.5004752, 2.4993942 
1.625309e+1, 7.871396e+1, 106856.91, -219495.88, -297.2643, -0.00023285711, -0.000087753004, 106857.18, 106857.18, 0.0, 2.5004752, 2.4993942 
1.6253096e+1, 8.1213427e+1, 147181.58, -136024.39, -18.648043, 0.00009568064, 0.00032145414, 147181.58, 147181.58, 0.0, 2.5004756, 2.4995375 
1.6253096e+1, 8.3712965e+1, 149483.6, -131025.84, -288.95276, 0.00024405256, -0.000047993806, 149483.89, 149483.89, 0.0, 2.5004754, 2.499546 
1.6253097e+1, 8.621251e+1, 149337.75, -131085.6, -277.59348, 0.0003611735, -0.00042944757, 149338.03, 149338.03, 0.0, 2.5004752, 2.499546 
1.6253099e+1, 8.871205e+1, 149179.06, -131151.55, -266.73975, 0.0004510281, -0.00081368757, 149179.31, 149179.31, 0.0, 2.5004747, 2.4995463 
1.6253088e+1, 9.1211677e+1, 189078.25, -48681.55, 47.462673, -0.00095507264, 0.00073549175, 189078.27, 189078.27, 0.0, 2.5004752, 2.4996877 
1.6253094e+1, 9.371137e+1, 192095.03, -42365.68, -235.30557, -0.00047386272, 0.00037112975, 192095.28, 192095.28, 0.0, 2.5004752, 2.4996984 
1.6253099e+1, 9.621107e+1, 192048.03, -42374.535, -254.65721, -0.00004349091, -0.000029261199, 192048.31, 192048.31, 0.0, 2.5004752, 2.4996984 
1.6253103e+1, 9.8710763e+1, 191982.05, -42392.527, -273.72598, 0.00030963737, -0.00043674474, 191982.36, 191982.36, 0.0, 2.500475, 2.4996986 
1.8753563e+1, 1.2491681e+0, -191872.0, -837928.7, 119.27682, -0.00010395542, -0.000010655127, -191871.97, -191871.97, 0.0, 2.5004728, 2.4983344 
1.8753563e+1, 3.747504e+0, -191876.05, -838224.8, 65.0594, -0.000072169634, -0.00003055315, -191876.03, -191876.03, 0.0, 2.5004733, 2.4983337 
1.8753563e+1, 6.24584e+0, -191746.5, -838158.25, 79.84296, -0.00005062407, -0.0000485675, -191746.5, -191746.5, 0.0, 2.5004735, 2.4983337 
1.8753564e+1, 8.744176e+0, -191670.34, -838117.5, 95.151924, -0.00003931875, -0.00006469831, -191670.33, -191670.33, 0.0, 2.5004735, 2.4983337 
1.8753564e+1, 1.1242589e+1, -149380.89, -750326.4, 51.8359, -0.00006949317, 0.00011640335, -149380.88, -149380.88, 0.0, 2.5004735, 2.4984841 
1.8753564e+1, 1.3741076e+1, -149098.64, -749672.56, 5.5148163, -0.00000088049467, 0.000030307667, -149098.64, -149098.64, 0.0, 2.5004735, 2.4984853 
1.8753564e+1, 1.6239561e+1, -149176.55, -749702.3, 33.103397, 0.000058394282, -0.000049703744, -149176.55, -149176.55, 0.0, 2.5004735, 2.4984853 
1.8753564e+1, 1.873805e+1, -149294.89, -749751.5, 62.34391, 0.000108134795, -0.00012305769, -149294.88, -149294.88, 0.0, 2.5004733, 2.4984853 
1.8753564e+1, 2.1236612e+1, -107425.24, -662862.94, 255.54007, 0.000076366174, 0.00016399854, -107425.125, -107425.125, 0.0, 2.5004733, 2.4986343 
1.8753563e+1, 2.373525e+1, -106681.31, -661510.3, 138.81119, -0.000040618703, 0.00007637744, -106681.28, -106681.28, 0.0, 2.5004735, 2.4986367 
1.8753563e+1, 2.6233888e+1, -106589.31, -661457.56, 140.13603, -0.00016640984, -0.00000831603, -106589.28, -106589.28, 0.0, 2.5004737, 2.4986367 
1.8753561e+1, 2.8732526e+1, -106531.15, -661421.2, 142.22939, -0.00030099985, -0.00008830705, -106531.11, -106531.11, 0.0, 2.5004737, 2.4986367 
1.8753563e+1, 3.123124e+1, -64731.824, -574833.5, 288.39832, -0.00030740857, 0.00022970508, -64731.66, -64731.66, 0.0, 2.500474, 2.498785 
1.8753564e+1, 3.3730027e+1, -63852.027, -573025.2, 129.98767, -0.000090378344, 0.00008489224, -63851.996, -63851.996, 0.0, 2.500474, 2.498788 
1.8753564e+1, 3.6228812e+1, -63873.977, -573027.2, 157.7808, 0.00011682974, -0.000058571568, -63873.93, -63873.93, 0.0, 2.500474, 2.498788 
1.8753567e+1, 3.8727605e+1, -63934.07, -573047.6, 186.9553, 0.00031385926, -0.00019768537, -63934.004, -63934.004, 0.0, 2.500474, 2.498788 
1.8753569e+1, 4.1226467e+1, -22556.389, -487248.22, 405.617, 0.00028638315, 0.00019900309, -22556.035, -22556.035, 0.0, 2.500474, 2.4989352 
1.8753567e+1, 4.3725407e+1, -21358.799, -484817.53, 219.20778, 0.00011686558, 0.000050407278, -21358.695, -21358.695, 0.0, 2.5004742, 2.4989395 
1.8753564e+1, 4.6224347e+1, -21368.027, -484813.0, 238.67041, -0.00006636322, -0.00009914166, -21367.904, -21367.904, 0.0, 2.500474, 2.4989395 
1.8753561e+1, 4.8723286e+1, -21426.773, -484832.34, 261.44794, -0.0002636687, -0.00024481842, -21426.627, -21426.627, 0.0, 2.500474, 2.4989395 
1.8753561e+1, 5.12223e+1, 19740.605, -399587.22, 549.94244, -0.00040705805, 0.00024773667, 19741.326, 19741.326, 0.0, 2.5004742, 2.4990857 
1.8753563e+1, 5.372139e+1, 21318.625, -396458.97, 288.53275, -0.00018076207, 0.00014091292, 21318.824, 21318.824, 0.0, 2.5004745, 2.499091 
1.8753567e+1, 5.6220484e+1, 21358.057, -396433.44, 286.82544, 0.000028689277, 0.00003162086, 21358.254, 21358.254, 0.0, 2.5004745, 2.499091 
1.8753569e+1, 5.8719575e+1, 21337.836, -396436.66, 290.1717, 0.00021952209, -0.00007355824, 21338.037, 21338.037, 0.0, 2.5004745, 2.499091 
1.8753569e+1, 6.121874e+1, 62267.438, -311606.5, 475.64365, 0.0001841254, 0.0003781722, 62268.043, 62268.043, 0.0, 2.5004747, 2.4992363 
1.8753569e+1, 6.371798e+1, 63992.637, -308007.97, 280.5246, 0.0001487988, 0.0000624291, 63992.848, 63992.848, 0.0, 2.5004747, 2.4992425 
1.8753567e+1, 6.6217214e+1, 63904.996, -308038.25, 300.4825, 0.00009014648, -0.00026002925, 63905.24, 63905.24, 0.0, 2.5004745, 2.4992425 
1.8753567e+1, 6.871646e+1, 63739.047, -308106.22, 320.5287, 0.0000068109803, -0.00058121484, 63739.324, 63739.324, 0.0, 2.5004742, 2.4992428 
1.8753564e+1, 7.121577e+1, 104323.91, -224086.22, 573.81995, -0.0003085184, 0.00011676235, 104324.91, 104324.91, 0.0, 2.5004745, 2.4993868 
1.8753564e+1, 7.3715174e+1, 106584.99, -219732.14, 303.65735, -0.0002463818, 0.0000428754, 106585.28, 106585.28, 0.0, 2.500475, 2.499394 
1.8753564e+1, 7.6214564e+1, 106657.95, -219699.7, 266.04462, -0.00021903317, -0.000041822277, 106658.17, 106658.17, 0.0, 2.500475, 2.499394 
1.8753564e+1, 7.871396e+1, 106589.24, -219735.52, 231.64462, -0.00023072203, -0.00012534673, 106589.41, 106589.41, 0.0, 2.500475, 2.499394 
1.8753572e+1, 8.1213427e+1, 147156.95, -135884.9, 502.0555, 0.00017986754, 0.00030817135, 147157.84, 147157.84, 0.0, 2.5004754, 2.4995377 
1.8753572e+1, 8.3712965e+1, 149514.58, -130990.63, 181.0544, 0.00032398087, -0.000044008466, 149514.69, 149514.69, 0.0, 2.5004754, 2.4995463 
1.8753575e+1, 8.621251e+1, 149273.72, -131088.84, 194.48439, 0.0004036393, -0.00041189446, 149273.86, 149273.86, 0.0, 2.500475, 2.4995463 
1.8753575e+1, 8.871205e+1, 148783.36, -131307.23, 204.20148, 0.00042380905, -0.00078623055, 148783.52, 148783.52, 0.0, 2.500474, 2.4995463 
1.8753561e+1, 9.1211677e+1, 188690.42, -48918.355, 523.83435, -0.0011497565, 0.0006344451, 188691.58, 188691.58, 0.0, 2.5004747, 2.4996874 
1.8753569e+1, 9.371137e+1, 192016.05, -42528.742, 163.26833, -0.0005476045, 0.00023145223, 192016.16, 192016.16, 0.0, 2.5004752, 2.4996982 
1.8753575e+1, 9.621107e+1, 191837.08, -42597.64, 93.0596, -0.000043275708, -0.00020785019, 191837.13, 191837.13, 0.0, 2.500475, 2.4996982 
1.8753581e+1, 9.871075e+1, 191157.42, -42907.664, 13.247745, 0.000333768, -0.0006563403, 191157.42, 191157.42, 0.0, 2.5004737, 2.4996982 
2.1254037e+1, 1.2491681e+0, -190836.2, -837351.25, 121.73698, 0.00002588186, -0.000018846436, -190836.19, -190836.19, 0.0, 2.5004747, 2.4983346 
2.1254037e+1, 3.747504e+0, -191154.67, -837791.1, 46.087917, 0.000040678213, -0.000057614554, -191154.67, -191154.67, 0.0, 2.5004745, 2.498334 
2.125404e+1, 6.24584e+0, -191293.38, -837852.9, 44.070065, 0.00006665594, -0.00009781563, -191293.38, -191293.38, 0.0, 2.5004742, 2.498334 
2.125404e+1, 8.744176e+0, -191435.05, -837916.06, 42.431988, 0.00010381506, -0.00013944981, -191435.03, -191435.03, 0.0, 2.5004737, 2.498334 
2.125404e+1, 1.1242588e+1, -149152.13, -750115.25, 7.1256695, 0.00007184546, 0.000035017492, -149152.13, -149152.13, 0.0, 2.500474, 2.4984844 
2.125404e+1, 1.3741076e+1, -148689.1, -749382.56, -78.803955, 0.00010927046, -0.000033793614, -148689.1, -148689.1, 0.0, 2.5004742, 2.4984856 
2.125404e+1, 1.6239563e+1, -148539.97, -749300.25, -88.61277, 0.0001547616, -0.00010377127, -148539.95, -148539.95, 0.0, 2.5004745, 2.4984856 
2.125404e+1, 1.873805e+1, -148391.88, -749218.44, -98.047775, 0.0002081193, -0.00017435309, -148391.86, -148391.86, 0.0, 2.5004747, 2.4984856 
2.125404e+1, 2.1236612e+1, -106485.83, -662314.06, 114.2043, 0.00017052825, 0.00010452804, -106485.805, -106485.805, 0.0, 2.5004747, 2.4986346 
2.1254037e+1, 2.373525e+1, -105935.07, -661067.94, -14.199148, 0.00004207661, -0.0000038934954, -105935.07, -105935.07, 0.0, 2.5004747, 2.4986367 
2.1254037e+1, 2.6233888e+1, -105993.19, -661084.25, -12.735935, -0.00008163177, -0.00011356985, -105993.19, -105993.19, 0.0, 2.5004747, 2.4986367 
2.1254036e+1, 2.8732526e+1, -106052.195, -661101.0, -10.791515, -0.00020060601, -0.00022271332, -106052.195, -106052.195, 0.0, 2.5004745, 2.498637 
2.1254037e+1, 3.123124e+1, -64317.38, -574483.2, 145.53456, -0.00021026089, 0.00008013071, -64317.34, -64317.34, 0.0, 2.5004745, 2.4987855 
2.125404e+1, 3.3730027e+1, -63435.254, -572722.06, -77.08019, -0.000018288762, -0.00005151035, -63435.242, -63435.242, 0.0, 2.5004747, 2.4987884 
2.125404e+1, 3.6228818e+1, -63383.81, -572682.94, -96.05614, 0.00017749864, -0.00018513975, -63383.793, -63383.793, 0.0, 2.5004747, 2.4987884 
2.1254042e+1, 3.8727605e+1, -63334.137, -572644.7, -114.04341, 0.0003767509, -0.0003178068, -63334.11, -63334.11, 0.0, 2.5004747, 2.4987884 
2.1254043e+1, 4.1226467e+1, -21846.39, -486741.7, 131.09584, 0.00034774118, 0.000084105784, -21846.354, -21846.354, 0.0, 2.5004752, 2.4989357 
2.1254042e+1, 4.3725407e+1, -20673.967, -484375.78, -113.67042, 0.00017029267, -0.000051340132, -20673.94, -20673.94, 0.0, 2.5004752, 2.4989398 
2.1254037e+1, 4.6224347e+1, -20623.791, -484333.3, -129.89693, -0.000004070099, -0.00019040208, -20623.754, -20623.754, 0.0, 2.5004752, 2.4989398 
2.1254036e+1, 4.8723286e+1, -20578.27, -484293.1, -144.41249, -0.00017568874, -0.00032828766, -20578.225, -20578.225, 0.0, 2.5004754, 2.4989398 
2.1254036e+1, 5.12223e+1, 20506.21, -399032.5, 185.1357, -0.0003400433, 0.00015405717, 20506.293, 20506.293, 0.0, 2.5004754, 2.4990861 
2.1254037e+1, 5.372139e+1, 21873.727, -396102.56, -110.360405, -0.00014339846, 0.000053238502, 21873.756, 21873.756, 0.0, 2.5004754, 2.4990911 
2.125404e+1, 5.6220484e+1, 21825.383, -396110.1, -125.75679, 0.000059292062, -0.00005425221, 21825.42, 21825.42, 0.0, 2.5004752, 2.4990911 
2.1254042e+1, 5.8719575e+1, 21776.209, -396118.03, -140.7179, 0.0002660596, -0.00016202923, 21776.256, 21776.256, 0.0, 2.5004752, 2.4990911 
2.1254043e+1, 6.121874e+1, 62789.336, -311123.9, 80.28639, 0.00023809701, 0.000293642, 62789.35, 62789.35, 0.0, 2.5004754, 2.499237 
2.1254043e+1, 6.371798e+1, 64484.195, -307657.8, -181.20152, 0.00019649715, 0.000027444978, 64484.28, 64484.28, 0.0, 2.5004754, 2.4992428 
2.1254042e+1, 6.6217226e+1, 64524.76, -307619.0, -203.97844, 0.00016189116, -0.0002465729, 64524.875, 64524.875, 0.0, 2.5004754, 2.499243 
2.1254042e+1, 6.871646e+1, 64556.777, -307584.28, -224.018, 0.00013298751, -0.0005206441, 64556.914, 64556.914, 0.0, 2.5004754, 2.499243 
2.125404e+1, 7.1215785e+1, 105149.8, -223482.39, 126.28407, -0.00021297521, 0.00016229508, 105149.84, 105149.84, 0.0, 2.5004756, 2.4993873 
2.125404e+1, 7.3715174e+1, 106970.91, -219491.56, -142.76219, -0.00022184476, 0.00010219395, 106970.97, 106970.97, 0.0, 2.5004754, 2.4993942 
2.125404e+1, 7.621457e+1, 106835.23, -219551.25, -153.45499, -0.00021627071, 0.000031833722, 106835.3, 106835.3, 0.0, 2.5004752, 2.4993942 
2.125404e+1, 7.871396e+1, 106696.13, -219612.6, -162.91766, -0.00020075384, -0.0000374181, 106696.21, 106696.21, 0.0, 2.500475, 2.4993942 
2.1254048e+1, 8.1213427e+1, 147218.64, -135598.19, 211.73792, 0.00025040624, 0.00042139462, 147218.8, 147218.8, 0.0, 2.5004752, 2.4995384 
2.1254049e+1, 8.3712965e+1, 149409.17, -130959.98, -205.8407, 0.00038991866, 0.00012252048, 149409.33, 149409.33, 0.0, 2.5004752, 2.4995463 
2.1254049e+1, 8.6212516e+1, 149362.31, -130963.016, -252.41698, 0.00055158837, -0.00018663271, 149362.53, 149362.53, 0.0, 2.500475, 2.4995465 
2.125405e+1, 8.871206e+1, 149313.89, -130966.8, -296.86502, 0.000740942, -0.00049687905, 149314.2, 149314.2, 0.0, 2.500475, 2.4995465 
2.1254037e+1, 9.121168e+1, 189525.73, -48336.0, 293.35495, -0.0009080146, 0.0008404408, 189526.1, 189526.1, 0.0, 2.500476, 2.499688 
2.1254045e+1, 9.371137e+1, 192174.67, -42430.215, -128.65741, -0.00042621378, 0.00046471495, 192174.73, 192174.73, 0.0, 2.5004754, 2.4996982 
2.125405e+1, 9.621107e+1, 191853.8, -42584.34, -176.561, 0.00013184578, 0.000058336816, 191853.92, 191853.92, 0.0, 2.500475, 2.4996982 
2.1254058e+1, 9.8710763e+1, 191470.64, -42768.453, -224.00821, 0.00073565415, -0.00035358872, 191470.86, 191470.86, 0.0, 2.5004742, 2.4996982 
2.3754513e+1, 1.2491679e+0, -190787.86, -837314.2, 79.61351, -0.00001624474, -0.00001820017, -190787.86, -190787.86, 0.0, 2.5004747, 2.4983346 
2.3754513e+1, 3.747504e+0, -191103.77, -837744.2, -2.136394, 0.000007621084, -0.000054807748, -191103.77, -191103.77, 0.0, 2.5004745, 2.498334 
2.3754513e+1, 6.24584e+0, -191243.95, -837806.8, -7.0638638, 0.00003574067, -0.00009169097, -191243.94, -191243.94, 0.0, 2.5004742, 2.498334 
2.3754515e+1, 8.744176e+0, -191385.55, -837870.06, -11.61205, 0.00006811402, -0.00012884998, -191385.55, -191385.55, 0.0, 2.500474, 2.498334 
2.3754515e+1, 1.1242588e+1, -149100.05, -750072.06, 16.788076, 0.000027484733, 0.000044043063, -149100.05, -149100.05, 0.0, 2.500474, 2.4984846 
2.3754515e+1, 1.3741076e+1, -148645.92, -749362.4, -73.302635, 0.000038098387, -0.000004699215, -148645.9, -148645.9, 0.0, 2.5004742, 2.4984856 
2.3754515e+1, 1.6239563e+1, -148493.2, -749277.1, -84.79485, 0.000052629348, -0.00005307896, -148493.19, -148493.19, 0.0, 2.5004745, 2.4984856 
2.3754513e+1, 1.8738051e+1, -148341.53, -749192.4, -95.811584, 0.000070907234, -0.000100569465, -148341.52, -148341.52, 0.0, 2.5004747, 2.4984856 
2.3754515e+1, 2.1236612e+1, -106397.11, -662203.0, 58.527603, 0.000035682267, 0.0001693512, -106397.1, -106397.1, 0.0, 2.500475, 2.4986348 
2.3754513e+1, 2.373525e+1, -105868.81, -661009.06, -79.85038, -0.0000017120907, 0.000039017188, -105868.805, -105868.805, 0.0, 2.5004747, 2.498637 
2.3754513e+1, 2.6233888e+1, -105922.47, -661021.3, -80.673935, -0.00003885346, -0.000091058806, -105922.45, -105922.45, 0.0, 2.5004747, 2.498637 
2.3754513e+1, 2.8732526e+1, -105977.64, -661034.3, -80.76526, -0.00007587205, -0.00021912501, -105977.625, -105977.625, 0.0, 2.5004745, 2.498637 
2.3754513e+1, 3.1231236e+1, -64240.957, -574417.75, 100.60407, -0.000093292794, 0.00007784193, -64240.934, -64240.934, 0.0, 2.5004747, 2.4987855 
2.3754515e+1, 3.3730027e+1, -63401.617, -572739.4, -131.53789, -0.000013516217, -0.000028858422, -63401.582, -63401.582, 0.0, 2.5004747, 2.4987884 
2.3754515e+1, 3.6228812e+1, -63353.1, -572700.4, -151.6724, 0.00006586098, -0.00013591812, -63353.055, -63353.055, 0.0, 2.5004747, 2.4987884 
2.3754515e+1, 3.8727605e+1, -63306.355, -572662.2, -171.00337, 0.00014454701, -0.0002404416, -63306.297, -63306.297, 0.0, 2.500475, 2.4987884 
2.3754516e+1, 4.1226467e+1, -21766.47, -486638.72, 86.84305, 0.00011140532, 0.00015354273, -21766.453, -21766.453, 0.0, 2.5004752, 2.4989357 
2.3754515e+1, 4.3725407e+1, -20662.146, -484397.7, -182.82634, 0.000062527084, 0.000026518266, -20662.074, -20662.074, 0.0, 2.5004752, 2.4989398 
2.3754515e+1, 4.6224347e+1, -20620.773, -484359.06, -200.2468, 0.000011472427, -0.00010196498, -20620.688, -20620.688, 0.0, 2.5004752, 2.4989398 
2.3754513e+1, 4.8723286e+1, -20581.865, -484321.63, -216.83263, -0.000042176256, -0.00022733954, -20581.764, -20581.764, 0.0, 2.5004754, 2.4989398 
2.3754513e+1, 5.12223e+1, 20596.63, -398873.6, 85.81303, -0.00018518833, 0.00020596845, 20596.648, 20596.648, 0.0, 2.5004754, 2.4990864 
2.3754515e+1, 5.372139e+1, 21860.46, -396148.63, -217.94035, -0.00008437085, 0.000058617516, 21860.574, 21860.574, 0.0, 2.5004754, 2.499091 
2.3754515e+1, 5.6220484e+1, 21805.064, -396158.4, -234.17644, 0.000016169039, -0.00009354094, 21805.195, 21805.195, 0.0, 2.5004752, 2.4990911 
2.3754516e+1, 5.871957e+1, 21746.771, -396169.6, -249.51926, 0.00011456154, -0.00024446214, 21746.92, 21746.92, 0.0, 2.5004752, 2.4990911 
2.3754516e+1, 6.121874e+1, 62831.305, -311026.78, 4.6395354, 0.000074044874, 0.00020585861, 62831.305, 62831.305, 0.0, 2.5004754, 2.499237 
2.3754516e+1, 6.371798e+1, 64426.11, -307761.44, -276.05072, 0.00011067669, 0.00001892656, 64426.313, 64426.313, 0.0, 2.5004754, 2.4992428 
2.3754516e+1, 6.6217214e+1, 64461.766, -307726.38, -302.9888, 0.00014734994, -0.00017395087, 64462.01, 64462.01, 0.0, 2.5004754, 2.4992428 
2.3754516e+1, 6.871646e+1, 64493.793, -307693.06, -329.27643, 0.0001828001, -0.0003652621, 64494.086, 64494.086, 0.0, 2.5004754, 2.4992428 
2.3754516e+1, 7.1215785e+1, 105254.555, -223268.88, -5.345308, -0.00014794014, 0.00026005512, 105254.555, 105254.555, 0.0, 2.5004756, 2.4993875 
2.3754515e+1, 7.3715174e+1, 106941.59, -219547.5, -308.71774, -0.00020176699, 0.00013373901, 106941.89, 106941.89, 0.0, 2.5004754, 2.4993942 
2.3754515e+1, 7.6214564e+1, 106801.62, -219608.8, -323.91898, -0.00025211452, -0.0000013337715, 106801.945, 106801.945, 0.0, 2.5004752, 2.4993942 
2.3754515e+1, 7.871396e+1, 106656.64, -219672.5, -338.8387, -0.0003034223, -0.00013470314, 106656.99, 106656.99, 0.0, 2.500475, 2.4993942 
2.375452e+1, 8.1213427e+1, 147275.84, -135478.23, 61.780346, 0.00013582899, 0.0002860222, 147275.86, 147275.86, 0.0, 2.5004752, 2.4995387 
2.3754522e+1, 8.3712965e+1, 149322.16, -131120.23, -386.00082, 0.00032444496, -0.0000026917373, 149322.69, 149322.69, 0.0, 2.5004752, 2.499546 
2.3754524e+1, 8.621251e+1, 149254.66, -131137.0, -434.23587, 0.000518796, -0.00030114112, 149255.33, 149255.33, 0.0, 2.500475, 2.499546 
2.3754527e+1, 8.871205e+1, 149180.3, -131157.06, -482.11227, 0.00072429824, -0.000600264, 149181.13, 149181.13, 0.0, 2.5004747, 2.4995463 
2.3754513e+1, 9.1211677e+1, 189569.86, -48148.445, 171.9979, -0.0009254555, 0.00063266896, 189569.98, 189569.98, 0.0, 2.500476, 2.4996881 
2.3754519e+1, 9.371137e+1, 192066.34, -42524.89, -359.5172, -0.0004789462, 0.00033814445, 192066.89, 192066.89, 0.0, 2.5004754, 2.4996982 
2.3754527e+1, 9.621106e+1, 191768.34, -42660.363, -386.2951, 0.0000053247677, 0.000010843852, 191768.97, 191768.97, 0.0, 2.5004747, 2.4996982 
2.3754531e+1, 9.871075e+1, 191452.84, -42804.26, -413.21103, 0.00049706333, -0.00032641046, 191453.58, 191453.58, 0.0, 2.5004742, 2.4996982 
2.6254988e+1, 1.2491679e+0, -190780.55, -837297.75, 38.851368, -0.000058250116, -0.000018397444, -190780.55, -190780.55, 0.0, 2.5004747, 2.4983346 
2.6254988e+1, 3.747504e+0, -191093.44, -837719.0, -42.732777, -0.000025020128, -0.00005453166, -191093.44, -191093.44, 0.0, 2.5004745, 2.498334 
2.6254988e+1, 6.24584e+0, -191235.25, -837782.56, -45.328613, 0.000005535409, -0.00008978433, -191235.25, -191235.25, 0.0, 2.5004742, 2.498334 
2.6254988e+1, 8.744176e+0, -191378.5, -837846.75, -47.545166, 0.000033416494, -0.00012415557, -191378.48, -191378.48, 0.0, 2.500474, 2.498334 
2.6254988e+1, 1.1242588e+1, -149102.39, -750070.44, 50.24731, -0.00001656239, 0.00005308263, -149102.39, -149102.39, 0.0, 2.500474, 2.4984846 
2.6254988e+1, 1.3741076e+1, -148653.69, -749369.06, -41.269768, -0.00003371586, 0.000020557516, -148653.69, -148653.69, 0.0, 2.5004742, 2.4984856 
2.6254988e+1, 1.6239563e+1, -148502.08, -749283.1, -50.625946, -0.000051097813, -0.000010095697, -148502.08, -148502.08, 0.0, 2.5004745, 2.4984856 
2.6254988e+1, 1.8738051e+1, -148351.53, -749197.7, -59.506638, -0.000068852496, -0.00003836675, -148351.53, -148351.53, 0.0, 2.5004747, 2.4984856 
2.6254988e+1, 2.1236615e+1, -106388.46, -662155.75, 38.14074, -0.00009368427, 0.00023342927, -106388.46, -106388.46, 0.0, 2.500475, 2.4986348 
2.6254988e+1, 2.373525e+1, -105873.56, -660986.25, -103.01259, -0.000041473093, 0.00007766534, -105873.55, -105873.55, 0.0, 2.5004747, 2.498637 
2.6254988e+1, 2.6233888e+1, -105928.11, -660997.06, -101.70991, 0.0000064614405, -0.00007639228, -105928.09, -105928.09, 0.0, 2.5004747, 2.498637 
2.625499e+1, 2.8732523e+1, -105984.18, -661008.56, -99.675, 0.00004990718, -0.00022696314, -105984.16, -105984.16, 0.0, 2.5004745, 2.498637 
2.625499e+1, 3.1231236e+1, -64259.39, -574419.9, 110.00205, 0.000029547902, 0.00007156894, -64259.367, -64259.367, 0.0, 2.5004747, 2.4987855 
2.625499e+1, 3.3730027e+1, -63448.703, -572797.0, -129.04872, -0.0000031112452, -0.000012842628, -63448.67, -63448.67, 0.0, 2.5004747, 2.498788 
2.6254988e+1, 3.6228812e+1, -63401.87, -572757.5, -147.38516, -0.000040421008, -0.0000960541, -63401.83, -63401.83, 0.0, 2.5004747, 2.4987884 
2.6254988e+1, 3.8727605e+1, -63356.805, -572718.8, -164.91805, -0.00008257866, -0.00017515528, -63356.754, -63356.754, 0.0, 2.500475, 2.4987884 
2.6254988e+1, 4.1226467e+1, -21775.504, -486601.72, 108.198586, -0.00012071484, 0.00022165968, -21775.479, -21775.479, 0.0, 2.5004752, 2.498936 
2.625499e+1, 4.3725407e+1, -20718.773, -484453.97, -182.56918, -0.000039907958, 0.000099982346, -20718.701, -20718.701, 0.0, 2.5004752, 2.4989395 
2.625499e+1, 4.6224347e+1, -20680.62, -484416.5, -197.6708, 0.000033470205, -0.000021109658, -20680.535, -20680.535, 0.0, 2.5004752, 2.4989395 
2.625499e+1, 4.8723286e+1, -20644.932, -484380.22, -211.93782, 0.000098916105, -0.0001371608, -20644.834, -20644.834, 0.0, 2.5004752, 2.4989398 
2.625499e+1, 5.12223e+1, 20617.656, -398769.38, 69.40819, -0.000017942724, 0.00025495302, 20617.668, 20617.668, 0.0, 2.5004754, 2.4990866 
2.625499e+1, 5.372139e+1, 21793.68, -396221.78, -241.0105, -0.000012095875, 0.000057657046, 21793.818, 21793.818, 0.0, 2.5004752, 2.499091 
2.625499e+1, 5.6220484e+1, 21735.742, -396231.66, -254.73901, -0.000012897043, -0.00014268297, 21735.898, 21735.898, 0.0, 2.5004752, 2.499091 
2.625499e+1, 5.871957e+1, 21674.91, -396242.9, -267.57425, -0.000022070139, -0.0003402621, 21675.082, 21675.082, 0.0, 2.500475, 2.499091 
2.625499e+1, 6.121873e+1, 62816.17, -310988.66, 24.89941, -0.00008323723, 0.00011954432, 62816.17, 62816.17, 0.0, 2.5004752, 2.4992373 
2.625499e+1, 6.3717973e+1, 64331.414, -307884.16, -272.13925, 0.00003388109, 0.000007998416, 64331.613, 64331.613, 0.0, 2.5004754, 2.4992425 
2.625499e+1, 6.6217214e+1, 64363.34, -307852.3, -296.02603, 0.00014419992, -0.000107824366, 64363.574, 64363.574, 0.0, 2.5004754, 2.4992425 
2.6254994e+1, 6.871646e+1, 64391.633, -307822.2, -319.2623, 0.00024637, -0.00022046162, 64391.906, 64391.906, 0.0, 2.5004754, 2.4992425 
2.625499e+1, 7.1215785e+1, 105305.02, -223107.75, -9.674477, -0.00006528639, 0.00035808256, 105305.02, 105305.02, 0.0, 2.5004756, 2.499388 
2.625499e+1, 7.3715174e+1, 106877.53, -219621.16, -344.4621, -0.00016239789, 0.00016297944, 106877.89, 106877.89, 0.0, 2.5004754, 2.499394 
2.625499e+1, 7.6214564e+1, 106735.62, -219682.94, -355.83817, -0.00026703853, -0.0000395499, 106736.01, 106736.01, 0.0, 2.5004752, 2.499394 
2.6254988e+1, 7.8713953e+1, 106588.7, -219747.11, -366.93274, -0.00038354227, -0.00023978135, 106589.12, 106589.12, 0.0, 2.500475, 2.499394 
2.6254997e+1, 8.1213415e+1, 147295.6, -135402.73, 73.84857, 0.00003192118, 0.00015129609, 147295.61, 147295.61, 0.0, 2.5004752, 2.4995387 
2.6254997e+1, 8.371296e+1, 149224.27, -131286.95, -400.44965, 0.0002728231, -0.00012994114, 149224.84, 149224.84, 0.0, 2.500475, 2.4995458 
2.6255e+1, 8.621251e+1, 149152.73, -131309.45, -443.24628, 0.0005032257, -0.0004205158, 149153.44, 149153.44, 0.0, 2.500475, 2.4995458 
2.6255e+1, 8.871205e+1, 149074.33, -131335.25, -485.6843, 0.00072824745, -0.00071134523, 149075.17, 149075.17, 0.0, 2.5004747, 2.4995458 
2.625499e+1, 9.121167e+1, 189658.34, -47969.32, 242.26552, -0.00091138907, 0.00043615812, 189658.6, 189658.6, 0.0, 2.500476, 2.4996886 
2.6254994e+1, 9.3711364e+1, 192044.84, -42579.6, -415.61362, -0.0005046422, 0.00021715468, 192045.58, 192045.58, 0.0, 2.5004754, 2.4996982 
2.6255e+1, 9.621106e+1, 191754.5, -42703.76, -427.5293, -0.000098804245, -0.00003708578, 191755.28, 191755.28, 0.0, 2.5004747, 2.4996982 
2.6255006e+1, 9.871075e+1, 191446.67, -42836.344, -439.58298, 0.00027619503, -0.00030568623, 191447.5, 191447.5, 0.0, 2.5004742, 2.4996982 
2.8755462e+1, 1.2491679e+0, -191812.4, -837782.7, 7.536022, -0.00009942223, -0.000019458474, -191812.4, -191812.4, 0.0, 2.5004728, 2.4983346 
2.8755462e+1, 3.7475038e+0, -192057.83, -838165.6, -52.47269, -0.00005662252, -0.000056848654, -192057.83, -192057.83, 0.0, 2.5004728, 2.498334 
2.8755462e+1, 6.2458396e+0, -192181.36, -838220.5, -31.879272, -0.00002337426, -0.00009220248, -192181.36, -192181.36, 0.0, 2.5004725, 2.498334 
2.8755462e+1, 8.744176e+0, -192351.8, -838297.94, -10.772345, 0.00000032254263, -0.00012552009, -192351.8, -192351.8, 0.0, 2.5004723, 2.498334 
2.8755462e+1, 1.1242588e+1, -150100.5, -750563.9, 176.5409, -0.000059694514, 0.00006194563, -150100.45, -150100.45, 0.0, 2.5004723, 2.4984844 
2.8755462e+1, 1.3741076e+1, -149620.88, -749840.2, 98.53495, -0.00010560837, 0.0000417594, -149620.86, -149620.86, 0.0, 2.5004725, 2.4984856 
2.8755462e+1, 1.6239563e+1, -149466.03, -749751.44, 106.25224, -0.00015587478, 0.000024932926, -149466.0, -149466.0, 0.0, 2.5004728, 2.4984856 
2.8755462e+1, 1.8738051e+1, -149336.03, -749674.7, 113.280075, -0.00021061505, 0.0000119792185, -149336.0, -149336.0, 0.0, 2.500473, 2.4984856 
2.8755462e+1, 2.1236615e+1, -107361.6, -662606.7, 169.03548, -0.00021705839, 0.0002964634, -107361.55, -107361.55, 0.0, 2.5004733, 2.4986348 
2.8755462e+1, 2.373525e+1, -106814.77, -661416.4, 50.88138, -0.000076745106, 0.00011173727, -106814.766, -106814.766, 0.0, 2.500473, 2.498637 
2.8755465e+1, 2.6233888e+1, -106868.516, -661424.9, 78.09346, 0.000054757926, -0.0000698998, -106868.5, -106868.5, 0.0, 2.500473, 2.498637 
2.8755465e+1, 2.8732523e+1, -106953.484, -661448.44, 106.66487, 0.00017719563, -0.00024657414, -106953.47, -106953.47, 0.0, 2.5004728, 2.498637 
2.8755465e+1, 3.1231236e+1, -65250.66, -574912.25, 369.45407, 0.00015871013, 0.000060950515, -65250.395, -65250.395, 0.0, 2.500473, 2.4987855 
2.8755465e+1, 3.3730027e+1, -64417.586, -573300.06, 149.54704, 0.0000133167505, -0.000003837688, -64417.543, -64417.543, 0.0, 2.500473, 2.498788 
2.8755462e+1, 3.6228812e+1, -64356.65, -573252.4, 160.4794, -0.00014098913, -0.00006593885, -64356.598, -64356.598, 0.0, 2.5004733, 2.498788 
2.8755462e+1, 3.8727605e+1, -64320.805, -573216.8, 173.77028, -0.0003042744, -0.00012235859, -64320.742, -64320.742, 0.0, 2.5004733, 2.498788 
2.8755462e+1, 4.1226467e+1, -22697.258, -487027.3, 495.14413, -0.00034830268, 0.00028805961, -22696.729, -22696.729, 0.0, 2.5004735, 2.498936 
2.8755462e+1, 4.3725407e+1, -21640.756, -484928.3, 221.39122, -0.00013675191, 0.00016870028, -21640.65, -21640.65, 0.0, 2.5004735, 2.4989395 
2.8755465e+1, 4.6224347e+1, -21601.39, -484889.84, 243.5596, 0.00006216818, 0.000051849504, -21601.262, -21601.262, 0.0, 2.5004737, 2.4989395 
2.8755465e+1, 4.8723286e+1, -21593.434, -484866.53, 263.7539, 0.00024785782, -0.00005803577, -21593.283, -21593.283, 0.0, 2.5004737, 2.4989395 
2.8755465e+1, 5.12223e+1, 19773.09, -399103.1, 553.3943, 0.00016194131, 0.00030075214, 19773.822, 19773.822, 0.0, 2.5004737, 2.4990866 
2.8755465e+1, 5.372139e+1, 20959.398, -396665.7, 258.71252, 0.000073603835, 0.000050129165, 20959.559, 20959.559, 0.0, 2.500474, 2.499091 
2.8755465e+1, 5.622048e+1, 20944.73, -396653.56, 272.13803, -0.000027757615, -0.00020187045, 20944.908, 20944.908, 0.0, 2.5004737, 2.499091 
2.8755462e+1, 5.8719563e+1, 20885.912, -396662.7, 287.71536, -0.00014367385, -0.0004495803, 20886.111, 20886.111, 0.0, 2.5004737, 2.499091 
2.8755462e+1, 6.121873e+1, 62106.688, -311316.22, 637.36945, -0.00023359396, 0.000034599074, 62107.777, 62107.777, 0.0, 2.500474, 2.4992373 
2.8755465e+1, 6.3717973e+1, 63647.473, -308291.88, 329.66577, -0.000033769087, -0.0000053811186, 63647.76, 63647.76, 0.0, 2.5004742, 2.4992423 
2.8755465e+1, 6.6217214e+1, 63736.676, -308233.8, 311.95728, 0.00015255997, -0.00004817571, 63736.938, 63736.938, 0.0, 2.5004745, 2.4992423 
2.8755468e+1, 6.871646e+1, 63794.688, -308190.78, 291.306, 0.00032384758, -0.000086164146, 63794.918, 63794.918, 0.0, 2.5004745, 2.4992425 
2.8755468e+1, 7.121577e+1, 104931.16, -223176.94, 580.8271, 0.000035138335, 0.00045652484, 104932.18, 104932.18, 0.0, 2.500475, 2.4993882 
2.8755465e+1, 7.3715174e+1, 106536.43, -219828.88, 194.29799, -0.000103603794, 0.00019013693, 106536.55, 106536.55, 0.0, 2.500475, 2.499394 
2.8755465e+1, 7.6214564e+1, 106473.42, -219852.16, 174.76335, -0.00026087783, -0.00008251999, 106473.516, 106473.516, 0.0, 2.5004747, 2.499394 
2.8755462e+1, 7.8713953e+1, 106355.72, -219901.78, 160.58139, -0.0004408682, -0.00035228586, 106355.8, 106355.8, 0.0, 2.5004745, 2.499394 
2.8755468e+1, 8.1213415e+1, 147216.9, -135400.7, 642.72626, -0.00006103905, 0.000017668879, 147218.38, 147218.38, 0.0, 2.500475, 2.499539 
2.875547e+1, 8.371296e+1, 149174.83, -131431.17, 135.86385, 0.00023531924, -0.0002586716, 149174.89, 149174.89, 0.0, 2.5004752, 2.4995456 
2.8755474e+1, 8.6212504e+1, 149168.44, -131426.06, 101.92026, 0.00050519395, -0.0005440952, 149168.48, 149168.48, 0.0, 2.5004752, 2.4995456 
2.8755477e+1, 8.871204e+1, 149090.63, -131455.36, 70.3815, 0.0007532187, -0.00082935527, 149090.64, 149090.64, 0.0, 2.500475, 2.4995456 
2.8755465e+1, 9.121167e+1, 189883.05, -47753.934, 843.7572, -0.000865292, 0.0002517699, 189886.05, 189886.05, 0.0, 2.5004761, 2.4996889 
2.8755468e+1, 9.371136e+1, 192170.4, -42564.848, -32.605476, -0.000502626, 0.00010270207, 192170.4, 192170.4, 0.0, 2.5004756, 2.499698 
2.8755474e+1, 9.621105e+1, 191716.67, -42760.023, -117.01746, -0.00017953495, -0.00008438561, 191716.73, 191716.73, 0.0, 2.5004747, 2.499698 
2.8755477e+1, 9.8710746e+1, 191079.14, -43043.715, -206.39795, 0.000074573836, -0.0002902228, 191079.33, 191079.33, 0.0, 2.5004737, 2.4996982 
3.125594e+1, 1.2491681e+0, -191242.78, -837406.4, 4.309074, 0.0001639239, -0.000022035005, -191242.78, -191242.78, 0.0, 2.5004737, 2.498335 
3.1255937e+1, 3.747504e+0, -191270.72, -837677.56, -73.75585, 0.00015734903, -0.00006547277, -191270.72, -191270.72, 0.0, 2.500474, 2.4983342 
3.1255937e+1, 6.24584e+0, -191136.2, -837608.44, -72.41616, 0.00016093021, -0.000108066866, -191136.19, -191136.19, 0.0, 2.5004742, 2.4983342 
3.1255937e+1, 8.744176e+0, -191003.45, -837540.1, -71.06189, 0.0001746675, -0.00014981741, -191003.44, -191003.44, 0.0, 2.5004745, 2.4983344 
3.1255937e+1, 1.1242589e+1, -148756.83, -749821.56, 129.01138, 0.00011542346, 0.000021298834, -148756.8, -148756.8, 0.0, 2.5004745, 2.4984846 
3.1255937e+1, 1.3741076e+1, -148532.63, -749224.94, 45.953312, 0.000065088534, -0.000023454124, -148532.63, -148532.63, 0.0, 2.5004742, 2.4984858 
3.1255937e+1, 1.6239563e+1, -148607.77, -749249.1, 50.13044, 0.000017702941, -0.00006652888, -148607.75, -148607.75, 0.0, 2.5004742, 2.4984858 
3.1255937e+1, 1.8738051e+1, -148683.5, -749273.5, 54.403275, -0.000026844957, -0.00010741325, -148683.5, -148683.5, 0.0, 2.500474, 2.4984858 
3.1255937e+1, 2.1236615e+1, -106723.29, -662182.9, 109.16825, -0.000039133203, 0.00016204837, -106723.266, -106723.266, 0.0, 2.5004742, 2.498635 
3.1255937e+1, 2.373525e+1, -106054.64, -660958.8, -46.627018, 0.000083790204, -0.000011994118, -106054.63, -106054.63, 0.0, 2.5004742, 2.4986372 
3.125594e+1, 2.6233888e+1, -105939.2, -660883.06, -57.926464, 0.00021112927, -0.00018361735, -105939.2, -105939.2, 0.0, 2.5004745, 2.4986372 
3.125594e+1, 2.8732523e+1, -105824.09, -660807.44, -69.244606, 0.0003426233, -0.00035098012, -105824.086, -105824.086, 0.0, 2.5004747, 2.4986372 
3.125594e+1, 3.1231236e+1, -64073.063, -574208.75, 184.77528, 0.00032640967, -0.000040460098, -64072.992, -64072.992, 0.0, 2.500475, 2.4987857 
3.1255937e+1, 3.3730027e+1, -63315.25, -572658.5, -47.36574, 0.00014695361, -0.00011607182, -63315.242, -63315.242, 0.0, 2.500475, 2.4987884 
3.1255937e+1, 3.6228818e+1, -63285.47, -572618.5, -49.644627, -0.00003244276, -0.0001901344, -63285.465, -63285.465, 0.0, 2.500475, 2.4987884 
3.1255934e+1, 3.8727605e+1, -63256.355, -572578.8, -51.404194, -0.00021174658, -0.00025962296, -63256.35, -63256.35, 0.0, 2.500475, 2.4987886 
3.1255937e+1, 4.122647e+1, -21693.92, -486340.28, 268.79575, -0.00027017214, 0.00013634725, -21693.764, -21693.764, 0.0, 2.500475, 2.4989364 
3.1255937e+1, 4.3725407e+1, -20743.17, -484374.13, -56.945347, -0.000057536978, 0.000026679414, -20743.164, -20743.164, 0.0, 2.500475, 2.4989398 
3.125594e+1, 4.6224347e+1, -20726.604, -484340.84, -74.54955, 0.0001568146, -0.00008309277, -20726.592, -20726.592, 0.0, 2.500475, 2.4989398 
3.1255943e+1, 4.8723286e+1, -20715.55, -484310.22, -87.40379, 0.00037223435, -0.0001886372, -20715.533, -20715.533, 0.0, 2.500475, 2.49894 
3.1255943e+1, 5.12223e+1, 20737.922, -398376.28, 199.89124, 0.000294041, 0.00017053465, 20738.018, 20738.018, 0.0, 2.5004752, 2.4990873 
3.125594e+1, 5.372139e+1, 21877.594, -396083.75, -124.34631, 0.00015711134, -0.0000494579, 21877.63, 21877.63, 0.0, 2.5004754, 2.4990911 
3.1255937e+1, 5.6220484e+1, 21937.41, -396031.28, -136.41393, 0.000022082606, -0.0002677834, 21937.453, 21937.453, 0.0, 2.5004754, 2.4990911 
3.1255937e+1, 5.871957e+1, 21996.416, -395979.22, -148.743, -0.00011237626, -0.0004789348, 21996.47, 21996.47, 0.0, 2.5004754, 2.4990911 
3.1255937e+1, 6.121874e+1, 63240.984, -310553.78, 246.01924, -0.00021885466, 0.000017125923, 63241.15, 63241.15, 0.0, 2.5004756, 2.4992378 
3.125594e+1, 6.371798e+1, 64490.883, -307807.1, -90.22555, -0.000016312937, -0.000007905677, 64490.906, 64490.906, 0.0, 2.5004756, 2.4992425 
3.1255943e+1, 6.6217226e+1, 64400.367, -307829.2, -105.85866, 0.00018366167, -0.000036180983, 64400.4, 64400.4, 0.0, 2.5004754, 2.4992425 
3.1255943e+1, 6.871646e+1, 64305.145, -307853.53, -117.17653, 0.00037939544, -0.00006027485, 64305.18, 64305.18, 0.0, 2.5004752, 2.4992425 
3.1255943e+1, 7.1215785e+1, 105451.51, -222648.25, 244.34744, 0.00011856186, 0.00046456364, 105451.695, 105451.695, 0.0, 2.5004754, 2.4993887 
3.125594e+1, 7.3715174e+1, 106910.31, -219545.28, -159.31042, -0.000033431774, 0.0002423261, 106910.39, 106910.39, 0.0, 2.5004754, 2.4993942 
3.1255937e+1, 7.6214564e+1, 106873.44, -219544.58, -167.86015, -0.00018753747, 0.000012682298, 106873.52, 106873.52, 0.0, 2.5004754, 2.4993942 
3.1255937e+1, 7.8713953e+1, 106835.79, -219544.23, -177.61449, -0.00034755934, -0.00021583597, 106835.89, 106835.89, 0.0, 2.5004752, 2.4993942 
3.1255943e+1, 8.1213415e+1, 147731.61, -134929.34, 390.26956, -0.00000025559845, 0.00018142012, 147732.14, 147732.14, 0.0, 2.5004756, 2.4995394 
3.1255946e+1, 8.3712965e+1, 149390.25, -131284.67, -140.78485, 0.0002939892, -0.000046559944, 149390.33, 149390.33, 0.0, 2.5004754, 2.4995456 
3.125595e+1, 8.621251e+1, 149275.73, -131316.63, -169.05591, 0.0005811526, -0.0002829777, 149275.83, 149275.83, 0.0, 2.5004752, 2.4995458 
3.1255952e+1, 8.871205e+1, 149163.56, -131347.45, -196.09557, 0.0008652416, -0.0005188261, 149163.7, 149163.7, 0.0, 2.500475, 2.4995458 
3.1255943e+1, 9.121167e+1, 189992.92, -47391.438, 765.27405, -0.0006455535, 0.0004904415, 189995.39, 189995.39, 0.0, 2.500476, 2.4996896 
3.1255946e+1, 9.3711364e+1, 192108.39, -42509.117, -203.03705, -0.0002799783, 0.00040223793, 192108.56, 192108.56, 0.0, 2.5004754, 2.4996982 
3.1255952e+1, 9.621106e+1, 191786.45, -42637.766, -229.05975, 0.00008429207, 0.0002832995, 191786.67, 191786.67, 0.0, 2.5004747, 2.4996982 
3.1255955e+1, 9.8710746e+1, 191448.25, -42774.25, -249.08482, 0.00041948623, 0.00015100373, 191448.52, 191448.52, 0.0, 2.5004742, 2.4996982 
3.375641e+1, 1.24916814e+0, -191102.19, -837330.06, 26.306381, 0.000101239064, -0.000009943033, -191102.19, -191102.19, 0.0, 2.500474, 2.498335 
3.375641e+1, 3.7475044e+0, -191124.0, -837588.94, -56.641, 0.00007619005, -0.000028996597, -191123.98, -191123.98, 0.0, 2.5004742, 2.4983344 
3.375641e+1, 6.245841e+0, -190988.22, -837518.75, -63.066998, 0.000055866145, -0.000046939513, -190988.22, -190988.22, 0.0, 2.5004745, 2.4983344 
3.375641e+1, 8.7441766e+0, -190853.56, -837449.0, -69.30697, 0.00004026734, -0.0000637719, -190853.55, -190853.55, 0.0, 2.5004747, 2.4983344 
3.375641e+1, 1.1242589e+1, -148593.69, -749702.4, 56.283314, -0.0000075721055, 0.000093943745, -148593.69, -148593.69, 0.0, 2.5004747, 2.4984848 
3.375641e+1, 1.3741076e+1, -148374.39, -749119.5, -27.913744, -0.000004931357, 0.000007461281, -148374.39, -148374.39, 0.0, 2.5004745, 2.4984858 
3.375641e+1, 1.6239563e+1, -148446.72, -749141.3, -29.27946, -0.0000020160212, -0.00007674595, -148446.72, -148446.72, 0.0, 2.5004745, 2.4984858 
3.375641e+1, 1.873805e+1, -148519.8, -749163.44, -30.164797, 0.0000010637311, -0.00015817356, -148519.8, -148519.8, 0.0, 2.5004742, 2.4984858 
3.375641e+1, 2.1236612e+1, -106549.59, -662043.94, 61.602467, -0.000020896505, 0.000090579495, -106549.586, -106549.586, 0.0, 2.5004745, 2.4986353 
3.375641e+1, 2.373525e+1, -105921.41, -660901.7, -94.49527, 0.0000309962, -0.000015909112, -105921.39, -105921.39, 0.0, 2.5004745, 2.4986372 
3.375641e+1, 2.6233888e+1, -105807.39, -660825.3, -105.50739, 0.000083998966, -0.00011912593, -105807.37, -105807.37, 0.0, 2.5004747, 2.4986372 
3.375641e+1, 2.8732526e+1, -105694.67, -660749.5, -115.85136, 0.00013786026, -0.00021739813, -105694.65, -105694.65, 0.0, 2.500475, 2.4986372 
3.375641e+1, 3.123124e+1, -63914.26, -574075.2, 100.956116, 0.00013429935, 0.000105912615, -63914.242, -63914.242, 0.0, 2.500475, 2.498786 
3.375641e+1, 3.3730027e+1, -63189.957, -572586.9, -123.61027, 0.0000513983, 0.0000003259483, -63189.926, -63189.926, 0.0, 2.500475, 2.4987884 
3.375641e+1, 3.6228818e+1, -63163.984, -572547.1, -126.502, -0.000034225402, -0.00010272873, -63163.953, -63163.953, 0.0, 2.5004752, 2.4987884 
3.3756408e+1, 3.8727605e+1, -63139.336, -572507.94, -128.54475, -0.00012249268, -0.0002002639, -63139.3, -63139.3, 0.0, 2.5004752, 2.4987886 
3.375641e+1, 4.1226467e+1, -21543.252, -486178.25, 176.31154, -0.00017034063, 0.00014319406, -21543.186, -21543.186, 0.0, 2.5004752, 2.4989367 
3.375641e+1, 4.3725407e+1, -20683.79, -484383.44, -137.93704, -0.000036262816, 0.000016120934, -20683.748, -20683.748, 0.0, 2.5004752, 2.4989398 
3.375641e+1, 4.6224347e+1, -20675.115, -484352.0, -154.94968, 0.00009454498, -0.00011062877, -20675.063, -20675.063, 0.0, 2.5004752, 2.4989398 
3.375641e+1, 4.8723286e+1, -20668.574, -484321.6, -171.16273, 0.00022145586, -0.00023299051, -20668.512, -20668.512, 0.0, 2.5004752, 2.4989398 
3.3756417e+1, 5.12223e+1, 20859.748, -398215.47, 115.22002, 0.000145707, 0.00013873997, 20859.78, 20859.78, 0.0, 2.5004754, 2.4990876 
3.375641e+1, 5.372139e+1, 21908.05, -396101.2, -208.99323, 0.00007273307, 0.0000024212254, 21908.154, 21908.154, 0.0, 2.5004754, 2.4990911 
3.375641e+1, 5.6220484e+1, 21960.777, -396050.2, -221.6551, -0.0000037460002, -0.00013213248, 21960.895, 21960.895, 0.0, 2.5004754, 2.4990911 
3.375641e+1, 5.871957e+1, 22011.303, -396000.25, -233.55861, -0.000084880965, -0.00025959834, 22011.434, 22011.434, 0.0, 2.5004754, 2.4990911 
3.375641e+1, 6.121874e+1, 63347.953, -310373.88, 135.54742, -0.00017883316, 0.00018167245, 63348.0, 63348.0, 0.0, 2.500476, 2.499238 
3.375641e+1, 6.371798e+1, 64463.98, -307885.06, -221.16226, -0.000018686203, 0.000053727068, 64464.113, 64464.113, 0.0, 2.5004756, 2.4992423 
3.3756417e+1, 6.6217214e+1, 64367.77, -307906.63, -242.40822, 0.0001332717, -0.000077747914, 64367.926, 64367.926, 0.0, 2.5004754, 2.4992425 
3.3756417e+1, 6.871646e+1, 64268.906, -307929.47, -263.0726, 0.00027543193, -0.00020589192, 64269.09, 64269.09, 0.0, 2.5004752, 2.4992425 
3.3756417e+1, 7.121577e+1, 105546.73, -222449.06, 114.530945, 0.00005532076, 0.00025750353, 105546.766, 105546.766, 0.0, 2.5004754, 2.4993892 
3.375641e+1, 7.3715174e+1, 106870.97, -219615.38, -320.25534, -0.000057903373, 0.00011956367, 106871.28, 106871.28, 0.0, 2.5004754, 2.499394 
3.375641e+1, 7.6214564e+1, 106825.17, -219617.03, -335.04178, -0.00018179532, -0.000026071162, 106825.516, 106825.516, 0.0, 2.5004754, 2.499394 
3.375641e+1, 7.8713953e+1, 106776.05, -219620.3, -349.40335, -0.00031948838, -0.0001714958, 106776.42, 106776.42, 0.0, 2.5004752, 2.4993942 
3.3756417e+1, 8.1213415e+1, 147781.8, -134769.05, 209.15674, -0.000022298627, 0.00023035664, 147781.95, 147781.95, 0.0, 2.5004756, 2.4995396 
3.375642e+1, 8.371296e+1, 149275.64, -131421.2, -361.37454, 0.00022502245, 0.000008654979, 149276.11, 149276.11, 0.0, 2.5004754, 2.4995456 
3.375642e+1, 8.6212504e+1, 149131.11, -131463.08, -392.04788, 0.00045654466, -0.0002214767, 149131.66, 149131.66, 0.0, 2.500475, 2.4995456 
3.3756423e+1, 8.871204e+1, 148982.55, -131506.9, -422.55353, 0.0006756368, -0.00045162663, 148983.19, 148983.19, 0.0, 2.5004747, 2.4995456 
3.3756417e+1, 9.121167e+1, 189960.69, -47208.48, 597.78845, -0.0006874723, 0.00040606395, 189962.2, 189962.2, 0.0, 2.5004756, 2.49969 
3.375642e+1, 9.371136e+1, 191875.38, -42700.76, -474.74664, -0.00037282126, 0.00027814606, 191876.34, 191876.34, 0.0, 2.5004752, 2.499698 
3.375642e+1, 9.621105e+1, 191538.05, -42835.69, -493.0344, -0.00008473255, 0.00012114953, 191539.08, 191539.08, 0.0, 2.5004745, 2.499698 
3.3756423e+1, 9.8710746e+1, 191189.9, -42975.824, -511.12546, 0.00015229007, -0.00004955884, 191191.03, 191191.03, 0.0, 2.5004737, 2.4996982 
3.6256886e+1, 1.24916814e+0, -191097.81, -837320.44, 52.577576, 0.00003844291, 0.000001324826, -191097.8, -191097.8, 0.0, 2.500474, 2.498335 
3.6256886e+1, 3.7475047e+0, -191115.33, -837569.44, -25.010176, -0.0000052024957, 0.00000500673, -191115.33, -191115.33, 0.0, 2.5004742, 2.4983344 
3.6256886e+1, 6.245841e+0, -190979.89, -837498.94, -29.668423, -0.000049553986, 0.000010065611, -190979.89, -190979.89, 0.0, 2.5004745, 2.4983344 
3.6256886e+1, 8.744178e+0, -190845.55, -837428.9, -34.14064, -0.00009461156, 0.000016501346, -190845.55, -190845.55, 0.0, 2.5004747, 2.4983344 
3.6256886e+1, 1.124259e+1, -148581.98, -749668.9, 24.24132, -0.00012927686, 0.00016522917, -148581.98, -148581.98, 0.0, 2.5004747, 2.4984848 
3.6256886e+1, 1.3741076e+1, -148365.05, -749088.56, -52.61925, -0.00007390066, 0.00003359057, -148365.05, -148365.05, 0.0, 2.5004745, 2.4984858 
3.6256886e+1, 1.6239563e+1, -148438.17, -749109.7, -52.500698, -0.000020929003, -0.00009519142, -148438.17, -148438.17, 0.0, 2.5004745, 2.498486 
3.6256886e+1, 1.873805e+1, -148512.06, -749131.2, -51.901768, 0.000029533538, -0.00022060511, -148512.05, -148512.05, 0.0, 2.5004742, 2.498486 
3.6256886e+1, 2.1236612e+1, -106543.99, -662005.1, 79.24123, 0.00000035579947, 0.000014602371, -106543.98, -106543.98, 0.0, 2.5004745, 2.4986353 
3.6256886e+1, 2.373525e+1, -105946.11, -660923.0, -73.10987, -0.000018905732, -0.00002726913, -105946.1, -105946.1, 0.0, 2.5004745, 2.4986372 
3.6256886e+1, 2.6233888e+1, -105833.02, -660845.75, -82.638985, -0.00004037496, -0.00006506477, -105833.016, -105833.016, 0.0, 2.5004747, 2.4986372 
3.6256886e+1, 2.8732526e+1, -105721.24, -660769.06, -91.49995, -0.00006428272, -0.00009723231, -105721.234, -105721.234, 0.0, 2.500475, 2.4986372 
3.6256886e+1, 3.1231242e+1, -63919.418, -574038.0, 87.32087, -0.000053808268, 0.0002442002, -63919.402, -63919.402, 0.0, 2.500475, 2.498786 
3.6256886e+1, 3.3730027e+1, -63216.98, -572590.7, -125.293015, -0.00003993033, 0.00010612971, -63216.953, -63216.953, 0.0, 2.500475, 2.4987884 
3.6256886e+1, 3.6228818e+1, -63192.746, -572550.1, -126.911, -0.000031565458, -0.000028475946, -63192.715, -63192.715, 0.0, 2.500475, 2.4987886 
3.6256886e+1, 3.8727605e+1, -63169.832, -572510.2, -127.68002, -0.000028580494, -0.00015661669, -63169.8, -63169.8, 0.0, 2.500475, 2.4987886 
3.6256886e+1, 4.1226467e+1, -21542.45, -486107.34, 158.77834, -0.00006251845, 0.00014150488, -21542.395, -21542.395, 0.0, 2.5004752, 2.4989367 
3.6256886e+1, 4.3725407e+1, -20753.629, -484456.63, -143.66379, -0.0000070862916, -0.0000054402217, -20753.584, -20753.584, 0.0, 2.5004752, 2.4989395 
3.6256886e+1, 4.6224347e+1, -20745.367, -484423.44, -158.72462, 0.000040062525, -0.00015171364, -20745.313, -20745.313, 0.0, 2.5004752, 2.4989398 
3.6256886e+1, 4.8723286e+1, -20739.24, -484391.25, -172.98587, 0.00007834883, -0.0002934374, -20739.176, -20739.176, 0.0, 2.500475, 2.4989398 
3.6256889e+1, 5.12223e+1, 20855.734, -398138.1, 114.64991, 0.00000747981, 0.000097874225, 20855.766, 20855.766, 0.0, 2.5004752, 2.4990876 
3.6256889e+1, 5.372139e+1, 21831.814, -396171.4, -203.34488, -0.0000018516232, 0.000042515283, 21831.914, 21831.914, 0.0, 2.5004752, 2.499091 
3.6256886e+1, 5.6220484e+1, 21884.254, -396118.56, -213.90256, -0.000020117532, -0.000011071844, 21884.363, 21884.363, 0.0, 2.5004754, 2.4990911 
3.6256886e+1, 5.871957e+1, 21934.494, -396066.8, -223.70186, -0.000048265432, -0.000057656634, 21934.613, 21934.613, 0.0, 2.5004754, 2.4990911 
3.6256886e+1, 6.121874e+1, 63354.566, -310272.0, 120.896805, -0.00012404814, 0.000341326, 63354.605, 63354.605, 0.0, 2.5004756, 2.4992383 
3.6256889e+1, 6.371798e+1, 64366.99, -307998.16, -252.22389, -0.0000078354, 0.00010665246, 64367.16, 64367.16, 0.0, 2.5004754, 2.4992423 
3.6256889e+1, 6.6217214e+1, 64272.582, -308015.63, -270.68378, 0.000094495204, -0.00013201132, 64272.78, 64272.78, 0.0, 2.5004754, 2.4992423 
3.6256889e+1, 6.8716455e+1, 64175.527, -308034.34, -288.56207, 0.00018147123, -0.00036819495, 64175.75, 64175.75, 0.0, 2.5004752, 2.4992423 
3.6256889e+1, 7.121577e+1, 105568.016, -222324.6, 115.68255, 0.000012866124, 0.00005029915, 105568.055, 105568.055, 0.0, 2.5004754, 2.4993894 
3.6256889e+1, 7.371516e+1, 106789.125, -219706.94, -338.20428, -0.00006328762, -0.000006968775, 106789.48, 106789.48, 0.0, 2.5004754, 2.499394 
3.6256886e+1, 7.6214564e+1, 106745.54, -219705.61, -349.67712, -0.00015881108, -0.000072472416, 106745.914, 106745.914, 0.0, 2.5004752, 2.499394 
3.6256886e+1, 7.8713953e+1, 106698.64, -219705.89, -360.7251, -0.00027602108, -0.00013868345, 106699.04, 106699.04, 0.0, 2.5004752, 2.499394 
3.6256889e+1, 8.1213415e+1, 147810.03, -134660.86, 197.83313, -0.000029673396, 0.0002798635, 147810.17, 147810.17, 0.0, 2.5004754, 2.4995399 
3.6256894e+1, 8.371296e+1, 149193.7, -131543.56, -405.36243, 0.0001665718, 0.00005968316, 149194.3, 149194.3, 0.0, 2.5004752, 2.4995453 
3.6256894e+1, 8.6212504e+1, 149052.8, -131579.19, -431.91168, 0.00033830016, -0.00016912693, 149053.47, 149053.47, 0.0, 2.500475, 2.4995453 
3.6256894e+1, 8.871204e+1, 148907.86, -131616.73, -458.29324, 0.00048824117, -0.00039854128, 148908.61, 148908.61, 0.0, 2.5004747, 2.4995453 
3.6256889e+1, 9.1211665e+1, 190047.3, -47014.715, 619.7056, -0.0006706762, 0.00033961693, 190048.92, 190048.92, 0.0, 2.5004756, 2.4996903 
3.6256894e+1, 9.371136e+1, 191817.97, -42809.066, -558.40216, -0.0004082201, 0.0001687998, 191819.31, 191819.31, 0.0, 2.5004752, 2.4996977 
3.6256894e+1, 9.6211046e+1, 191482.88, -42941.816, -568.1507, -0.00019847171, -0.000029977298, 191484.25, 191484.25, 0.0, 2.5004745, 2.499698 
3.6256897e+1, 9.871074e+1, 191136.97, -43079.77, -577.7026, -0.000061795115, -0.00024282087, 191138.39, 191138.39, 0.0, 2.5004737, 2.499698 
3.875736e+1, 1.2491683e+0, -192564.67, -838020.7, 86.91221, -0.000023227472, 0.000011743034, -192564.66, -192564.66, 0.0, 2.5004714, 2.498335 
3.875736e+1, 3.747505e+0, -192520.45, -838233.56, 32.418633, -0.000085664404, 0.00003645968, -192520.45, -192520.45, 0.0, 2.5004718, 2.4983344 
3.875736e+1, 6.2458414e+0, -192367.42, -838154.1, 46.352234, -0.00015418831, 0.00006281772, -192367.42, -192367.42, 0.0, 2.500472, 2.4983344 
3.875736e+1, 8.744178e+0, -192255.81, -838094.6, 60.13541, -0.00022879918, 0.00009081701, -192255.81, -192255.81, 0.0, 2.5004723, 2.4983344 
3.875736e+1, 1.1242591e+1, -149999.84, -750336.6, 64.9584, -0.0002485375, 0.00023492977, -149999.84, -149999.84, 0.0, 2.5004723, 2.4984848 
3.875736e+1, 1.3741076e+1, -149750.06, -749732.0, 9.832734, -0.00014074243, 0.000054683016, -149750.06, -149750.06, 0.0, 2.500472, 2.498486 
3.875736e+1, 1.6239561e+1, -149813.94, -749747.7, 24.750326, -0.000038003454, -0.00012214351, -149813.94, -149813.94, 0.0, 2.500472, 2.498486 
3.8757363e+1, 1.8738046e+1, -149897.61, -749772.9, 40.118385, 0.00005958459, -0.0002950157, -149897.61, -149897.61, 0.0, 2.5004718, 2.498486 
3.8757363e+1, 2.123661e+1, -107936.69, -662659.06, 220.14885, 0.000025598027, -0.00006621668, -107936.59, -107936.59, 0.0, 2.5004718, 2.4986353 
3.875736e+1, 2.3735249e+1, -107338.47, -661605.5, 83.30639, -0.000065022075, -0.000046430952, -107338.45, -107338.45, 0.0, 2.500472, 2.4986372 
3.875736e+1, 2.6233888e+1, -107228.54, -661528.44, 85.26718, -0.00016114772, -0.000021816943, -107228.52, -107228.52, 0.0, 2.5004723, 2.4986372 
3.875736e+1, 2.8732526e+1, -107140.836, -661462.1, 87.948395, -0.00026297773, 0.000009104506, -107140.82, -107140.82, 0.0, 2.5004723, 2.4986372 
3.875736e+1, 3.1231242e+1, -65330.867, -574695.6, 245.88, -0.0002371332, 0.0003739914, -65330.746, -65330.746, 0.0, 2.5004725, 2.498786 
3.875736e+1, 3.373003e+1, -64618.168, -573258.44, 75.10896, -0.00012633155, 0.00020096544, -64618.156, -64618.156, 0.0, 2.5004725, 2.4987884 
3.8757363e+1, 3.6228818e+1, -64590.023, -573214.4, 102.37164, -0.000023806399, 0.000032286152, -64590.004, -64590.004, 0.0, 2.5004725, 2.4987886 
3.8757363e+1, 3.8727605e+1, -64579.516, -573178.75, 130.12796, 0.00007063682, -0.00012898343, -64579.48, -64579.48, 0.0, 2.5004725, 2.4987886 
3.8757363e+1, 4.1226467e+1, -22900.951, -486710.03, 418.91556, 0.00005387415, 0.00013099384, -22900.572, -22900.572, 0.0, 2.5004728, 2.498937 
3.8757363e+1, 4.3725407e+1, -22111.44, -485151.78, 147.68803, 0.00003046323, -0.000038284532, -22111.393, -22111.393, 0.0, 2.5004728, 2.4989395 
3.8757363e+1, 4.6224347e+1, -22079.016, -485104.97, 149.34898, -0.0000062112804, -0.00020660879, -22078.969, -22078.969, 0.0, 2.5004728, 2.4989395 
3.875736e+1, 4.872328e+1, -22084.645, -485076.5, 151.99245, -0.000056654688, -0.00037020657, -22084.596, -22084.596, 0.0, 2.5004728, 2.4989398 
3.8757363e+1, 5.12223e+1, 19610.615, -398681.16, 461.40173, -0.00012024553, 0.00004774343, 19611.125, 19611.125, 0.0, 2.500473, 2.4990878 
3.8757363e+1, 5.372139e+1, 20635.615, -396782.25, 178.85379, -0.00006633608, 0.00007066373, 20635.693, 20635.693, 0.0, 2.5004733, 2.499091 
3.8757363e+1, 5.6220484e+1, 20756.549, -396694.47, 193.93219, -0.000026754016, 0.00009527838, 20756.639, 20756.639, 0.0, 2.5004735, 2.499091 
3.8757363e+1, 5.8719575e+1, 20837.719, -396625.84, 204.96358, -0.0000022210206, 0.00012681796, 20837.818, 20837.818, 0.0, 2.5004735, 2.4990911 
3.8757363e+1, 6.121874e+1, 62413.656, -310655.9, 533.0852, -0.000054215165, 0.0004960604, 62414.418, 62414.418, 0.0, 2.500474, 2.4992385 
3.8757363e+1, 6.3717973e+1, 63472.887, -308496.3, 143.507, 0.000016468126, 0.00015089787, 63472.94, 63472.94, 0.0, 2.500474, 2.499242 
3.8757363e+1, 6.6217214e+1, 63444.504, -308478.72, 120.58405, 0.00006760512, -0.00019886896, 63444.543, 63444.543, 0.0, 2.500474, 2.499242 
3.8757363e+1, 6.8716455e+1, 63346.176, -308494.8, 91.25932, 0.0000979297, -0.00054698414, 63346.2, 63346.2, 0.0, 2.5004737, 2.4992423 
3.8757363e+1, 7.1215767e+1, 104949.625, -222546.88, 516.17566, -0.000008400283, -0.0001567982, 104950.445, 104950.445, 0.0, 2.5004742, 2.4993894 
3.8757363e+1, 7.371516e+1, 106310.8, -219990.05, 44.75434, -0.00004932128, -0.00013700743, 106310.805, 106310.805, 0.0, 2.5004745, 2.4993937 
3.8757363e+1, 7.621455e+1, 106368.805, -219937.9, 26.29125, -0.00011829903, -0.0001262074, 106368.805, 106368.805, 0.0, 2.5004747, 2.499394 
3.875736e+1, 7.8713953e+1, 106301.38, -219946.17, -2.4358118, -0.00021668826, -0.00011699866, 106301.38, 106301.38, 0.0, 2.5004745, 2.499394 
3.8757366e+1, 8.1213415e+1, 147597.83, -134709.52, 554.626, -0.000021832664, 0.00033043776, 147598.92, 147598.92, 0.0, 2.5004752, 2.4995399 
3.8757366e+1, 8.371296e+1, 149102.75, -131671.39, -64.605194, 0.00011915648, 0.00010710479, 149102.77, 149102.77, 0.0, 2.5004752, 2.499545 
3.8757366e+1, 8.6212504e+1, 149005.72, -131681.39, -74.565186, 0.00022709691, -0.00012526204, 149005.73, 149005.73, 0.0, 2.500475, 2.499545 
3.8757366e+1, 8.871204e+1, 148739.84, -131772.7, -94.140724, 0.00030408174, -0.00035881603, 148739.88, 148739.88, 0.0, 2.5004745, 2.4995453 
3.8757363e+1, 9.1211665e+1, 190146.38, -46860.832, 1015.7716, -0.0005939931, 0.0002919251, 190150.73, 190150.73, 0.0, 2.5004756, 2.4996905 
3.8757366e+1, 9.371135e+1, 192029.38, -42788.58, -306.05432, -0.00038487266, 0.000075073665, 192029.78, 192029.78, 0.0, 2.5004754, 2.4996977 
3.8757366e+1, 9.6211046e+1, 191485.8, -43020.61, -349.92465, -0.00025502066, -0.0001691609, 191486.31, 191486.31, 0.0, 2.5004745, 2.4996977 
3.8757366e+1, 9.8710734e+1, 190480.55, -43474.96, -395.11804, -0.00021978826, -0.00042781924, 190481.22, 190481.22, 0.0, 2.5004728, 2.4996977 
4.1257834e+1, 1.2491683e+0, -191031.4, -837185.9, 97.236084, 0.0002477696, 0.000004392728, -191031.4, -191031.4, 0.0, 2.500474, 2.4983351 
4.1257834e+1, 3.747505e+0, -191214.7, -837503.06, 41.51223, 0.00018184257, 0.000013847569, -191214.7, -191214.7, 0.0, 2.500474, 2.4983346 
4.1257834e+1, 6.2458414e+0, -191253.83, -837517.75, 48.22724, 0.0001241679, 0.000024195537, -191253.83, -191253.83, 0.0, 2.5004737, 2.4983346 
4.125783e+1, 8.744178e+0, -191294.86, -837533.3, 54.937782, 0.000074745636, 0.00003543651, -191294.86, -191294.86, 0.0, 2.5004737, 2.4983346 
4.1257834e+1, 1.1242591e+1, -149028.47, -749783.0, 43.38204, 0.00005829999, 0.00017131749, -149028.47, -149028.47, 0.0, 2.5004737, 2.498485 
4.1257834e+1, 1.3741076e+1, -148636.39, -749118.4, -22.561453, 0.00014041318, -0.0000071266163, -148636.39, -148636.39, 0.0, 2.500474, 2.498486 
4.1257834e+1, 1.6239563e+1, -148534.89, -749054.6, -26.111635, 0.0002262324, -0.00018242627, -148534.89, -148534.89, 0.0, 2.5004742, 2.498486 
4.1257834e+1, 1.873805e+1, -148434.53, -748991.44, -29.764147, 0.00031566544, -0.0003540492, -148434.53, -148434.53, 0.0, 2.5004742, 2.4984863 
4.1257834e+1, 2.1236612e+1, -106465.87, -661846.4, 141.54395, 0.00027410238, -0.0001397301, -106465.83, -106465.83, 0.0, 2.5004745, 2.4986355 
4.1257834e+1, 2.373525e+1, -106000.53, -660883.06, 28.143536, 0.00015105733, -0.0001296496, -106000.53, -106000.53, 0.0, 2.5004745, 2.4986372 
4.125783e+1, 2.6233888e+1, -105982.15, -660849.0, 39.062695, 0.000030822543, -0.00011532038, -105982.15, -105982.15, 0.0, 2.5004745, 2.4986374 
4.125783e+1, 2.8732526e+1, -105965.67, -660815.94, 50.339466, -0.0000867359, -0.00009531407, -105965.67, -105965.67, 0.0, 2.5004745, 2.4986374 
4.125783e+1, 3.1231242e+1, -64163.777, -573984.7, 195.9765, -0.000067928384, 0.0002486885, -64163.703, -64163.703, 0.0, 2.5004745, 2.4987864 
4.1257834e+1, 3.373003e+1, -63418.34, -572588.56, 6.645039, 0.000046109675, 0.00008380306, -63418.34, -63418.34, 0.0, 2.5004745, 2.4987886 
4.1257834e+1, 3.6228818e+1, -63304.83, -572499.8, -7.788372, 0.00016086634, -0.00007636599, -63304.83, -63304.83, 0.0, 2.5004747, 2.4987888 
4.1257834e+1, 3.8727605e+1, -63195.547, -572413.1, -21.24484, 0.00027652868, -0.00022889688, -63195.543, -63195.543, 0.0, 2.500475, 2.4987888 
4.1257834e+1, 4.122647e+1, -21474.682, -485828.88, 218.15598, 0.00026198063, 0.000033838263, -21474.58, -21474.58, 0.0, 2.500475, 2.4989374 
4.1257834e+1, 4.3725407e+1, -20762.941, -484391.34, -32.2714, 0.00017120618, -0.00012300604, -20762.938, -20762.938, 0.0, 2.500475, 2.4989398 
4.1257834e+1, 4.6224347e+1, -20715.205, -484331.53, -26.348755, 0.000084126616, -0.0002730619, -20715.203, -20715.203, 0.0, 2.500475, 2.4989398 
4.125783e+1, 4.8723286e+1, -20668.688, -484272.3, -20.11778, 0.0000004981365, -0.00041260163, -20668.688, -20668.688, 0.0, 2.5004752, 2.49894 
4.1257834e+1, 5.12223e+1, 21058.123, -397777.4, 300.3915, -0.00007196953, -0.0000011723499, 21058.338, 21058.338, 0.0, 2.5004752, 2.4990883 
4.1257834e+1, 5.372139e+1, 21851.227, -396105.13, -12.332628, -0.000012019348, 0.000021881315, 21851.229, 21851.229, 0.0, 2.5004752, 2.4990911 
4.1257834e+1, 5.6220484e+1, 21847.563, -396080.22, -29.592958, 0.00005010509, 0.00004919217, 21847.564, 21847.564, 0.0, 2.5004752, 2.4990911 
4.1257834e+1, 5.8719575e+1, 21838.525, -396057.88, -44.981045, 0.00011373376, 0.000085778316, 21838.531, 21838.531, 0.0, 2.5004752, 2.4990911 
4.1257834e+1, 6.1218745e+1, 63429.207, -309924.7, 312.71988, 0.00007605561, 0.00045360604, 63429.47, 63429.47, 0.0, 2.5004754, 2.499239 
4.1257834e+1, 6.371798e+1, 64342.355, -307983.6, -67.79751, 0.00009196582, 0.00014335314, 64342.367, 64342.367, 0.0, 2.5004754, 2.4992423 
4.1257834e+1, 6.6217214e+1, 64328.24, -307959.66, -58.233547, 0.00011752137, -0.00016507995, 64328.246, 64328.246, 0.0, 2.5004754, 2.4992423 
4.1257834e+1, 6.8716455e+1, 64309.66, -307937.88, -43.681404, 0.00015178604, -0.0004656912, 64309.664, 64309.664, 0.0, 2.5004754, 2.4992425 
4.1257834e+1, 7.121577e+1, 105937.27, -221860.66, 483.91687, 0.00007143277, -0.0000748172, 105937.99, 105937.99, 0.0, 2.5004756, 2.49939 
4.1257834e+1, 7.371516e+1, 106928.08, -219639.05, -32.80453, 0.000017320463, -0.000053534328, 106928.08, 106928.08, 0.0, 2.5004756, 2.499394 
4.1257834e+1, 7.6214564e+1, 106827.66, -219673.67, -56.722958, -0.00001948403, -0.000032144017, 106827.664, 106827.664, 0.0, 2.5004754, 2.499394 
4.1257834e+1, 7.8713953e+1, 106728.05, -219707.9, -81.76939, -0.000039833838, -0.0000035436583, 106728.07, 106728.07, 0.0, 2.5004752, 2.499394 
4.125784e+1, 8.1213415e+1, 148148.63, -134197.08, 595.0765, 0.00011328845, 0.00047181814, 148149.88, 148149.88, 0.0, 2.500476, 2.4995406 
4.125784e+1, 8.371296e+1, 149364.2, -131466.16, -90.79844, 0.00020239157, 0.0002807978, 149364.23, 149364.23, 0.0, 2.5004756, 2.4995453 
4.125784e+1, 8.6212504e+1, 149235.75, -131499.67, -108.92345, 0.00030830898, 0.00007943082, 149235.8, 149235.8, 0.0, 2.5004754, 2.4995453 
4.125784e+1, 8.871204e+1, 149093.89, -131539.64, -125.02824, 0.00043233746, -0.00012446742, 149093.94, 149093.94, 0.0, 2.500475, 2.4995453 
4.1257843e+1, 9.1211665e+1, 190245.4, -46541.28, 1189.2672, -0.00016671635, 0.00045729373, 190251.38, 190251.38, 0.0, 2.5004756, 2.499691 
4.1257843e+1, 9.371136e+1, 191857.83, -42837.43, -213.77441, 0.0000035235064, 0.0002877383, 191858.02, 191858.02, 0.0, 2.5004752, 2.4996977 
4.1257843e+1, 9.6211046e+1, 191645.66, -42905.63, -269.78528, 0.00022844637, 0.000086825414, 191645.95, 191645.95, 0.0, 2.5004747, 2.4996977 
4.1257846e+1, 9.871074e+1, 191437.48, -42971.9, -322.38068, 0.0004977763, -0.00013406407, 191437.92, 191437.92, 0.0, 2.5004745, 2.499698 
4.375831e+1, 1.24916814e+0, -190725.05, -837021.5, 68.416176, 0.00005089387, -0.0000066238586, -190725.03, -190725.03, 0.0, 2.5004745, 2.4983351 
4.375831e+1, 3.7475044e+0, -190910.25, -837331.8, 12.64205, 0.00005058559, -0.000018824401, -190910.25, -190910.25, 0.0, 2.5004745, 2.4983346 
4.375831e+1, 6.245841e+0, -190955.45, -837349.25, 11.36415, 0.000052736283, -0.000029628114, -190955.45, -190955.45, 0.0, 2.5004742, 2.4983346 
4.375831e+1, 8.744178e+0, -191001.88, -837367.3, 10.303427, 0.000057345977, -0.000039035116, -191001.88, -191001.88, 0.0, 2.5004742, 2.4983346 
4.375831e+1, 1.124259e+1, -148750.63, -749632.06, 11.459115, 0.00003805779, 0.00011247911, -148750.63, -148750.63, 0.0, 2.5004742, 2.498485 
4.375831e+1, 1.3741076e+1, -148381.5, -749001.44, -52.34383, 0.00006763124, 0.0000067214137, -148381.5, -148381.5, 0.0, 2.5004745, 2.498486 
4.375831e+1, 1.6239563e+1, -148286.83, -748939.7, -60.520355, 0.000098029195, -0.00009494042, -148286.83, -148286.83, 0.0, 2.5004745, 2.498486 
4.375831e+1, 1.873805e+1, -148192.94, -748878.4, -68.10053, 0.0001291526, -0.00019199972, -148192.94, -148192.94, 0.0, 2.5004747, 2.4984863 
4.375831e+1, 2.1236612e+1, -106193.69, -661647.8, 49.570328, 0.00010505215, 0.00001958091, -106193.68, -106193.68, 0.0, 2.5004747, 2.4986358 
4.375831e+1, 2.373525e+1, -105751.04, -660717.9, -42.393387, 0.000040202962, -0.00003456426, -105751.03, -105751.03, 0.0, 2.5004747, 2.4986374 
4.375831e+1, 2.6233888e+1, -105741.5, -660686.4, -31.07223, -0.000024830206, -0.000083677594, -105741.5, -105741.5, 0.0, 2.5004747, 2.4986374 
4.3758306e+1, 2.8732526e+1, -105732.97, -660655.3, -18.94365, -0.00009008547, -0.00012636569, -105732.97, -105732.97, 0.0, 2.5004747, 2.4986374 
4.375831e+1, 3.1231242e+1, -63925.492, -573793.7, 115.97342, -0.000069887596, 0.00015987943, -63925.465, -63925.465, 0.0, 2.5004747, 2.4987864 
4.375831e+1, 3.373003e+1, -63256.473, -572535.1, -37.342, 0.0000050777594, 0.00003044606, -63256.473, -63256.473, 0.0, 2.500475, 2.4987886 
4.375831e+1, 3.6228818e+1, -63152.47, -572448.94, -47.598907, 0.000077972436, -0.00009394259, -63152.465, -63152.465, 0.0, 2.500475, 2.4987886 
4.375831e+1, 3.8727605e+1, -63049.605, -572363.3, -57.10586, 0.00014892513, -0.0002106812, -63049.598, -63049.598, 0.0, 2.5004752, 2.4987888 
4.375831e+1, 4.122647e+1, -21282.457, -485650.72, 128.68477, 0.00016292263, 0.00009037774, -21282.422, -21282.422, 0.0, 2.5004752, 2.4989376 
4.375831e+1, 4.3725407e+1, -20621.072, -484310.72, -87.31182, 0.000092322814, -0.000023497838, -20621.057, -20621.057, 0.0, 2.5004752, 2.4989398 
4.375831e+1, 4.6224347e+1, -20576.662, -484250.22, -82.29199, 0.000020350406, -0.0001312735, -20576.648, -20576.648, 0.0, 2.5004752, 2.49894 
4.375831e+1, 4.8723286e+1, -20533.8, -484190.5, -76.5143, -0.000052844174, -0.0002292126, -20533.79, -20533.79, 0.0, 2.5004752, 2.49894 
4.375831e+1, 5.12223e+1, 21224.326, -397622.28, 222.85495, -0.00011473863, 0.000120039665, 21224.445, 21224.445, 0.0, 2.5004754, 2.4990885 
4.375831e+1, 5.372139e+1, 21929.994, -396115.3, -87.392235, -0.000038833885, 0.000043103715, 21930.014, 21930.014, 0.0, 2.5004754, 2.499091 
4.375831e+1, 5.6220484e+1, 21920.357, -396089.34, -102.80292, 0.000033476183, -0.000030185065, 21920.383, 21920.383, 0.0, 2.5004754, 2.4990911 
4.375831e+1, 5.871957e+1, 21908.832, -396064.28, -117.51749, 0.000101493606, -0.000095174284, 21908.863, 21908.863, 0.0, 2.5004754, 2.4990911 
4.3758312e+1, 6.121874e+1, 63615.496, -309671.06, 235.72026, 0.000077296034, 0.00025841192, 63615.645, 63615.645, 0.0, 2.5004756, 2.4992392 
4.375831e+1, 6.371798e+1, 64423.64, -307933.2, -154.87004, 0.00007182144, 0.00008119487, 64423.703, 64423.703, 0.0, 2.5004756, 2.4992423 
4.375831e+1, 6.6217214e+1, 64401.484, -307912.5, -149.4358, 0.00006740294, -0.000094272975, 64401.543, 64401.543, 0.0, 2.5004754, 2.4992423 
4.375831e+1, 6.871646e+1, 64376.785, -307893.06, -143.29318, 0.00006340968, -0.00026231413, 64376.84, 64376.84, 0.0, 2.5004754, 2.4992425 
4.3758312e+1, 7.121577e+1, 106032.25, -221742.64, 377.30347, -0.000009049488, 0.00011590195, 106032.69, 106032.69, 0.0, 2.500476, 2.4993901 
4.375831e+1, 7.371516e+1, 106896.96, -219737.98, -187.30948, -0.000027707301, 0.00005019524, 106897.06, 106897.06, 0.0, 2.5004756, 2.4993937 
4.375831e+1, 7.6214564e+1, 106771.85, -219776.25, -214.22604, -0.000044133973, -0.00001652627, 106771.99, 106771.99, 0.0, 2.5004754, 2.4993937 
4.375831e+1, 7.8713953e+1, 106642.76, -219816.44, -240.98244, -0.00005905463, -0.00007763478, 106642.94, 106642.94, 0.0, 2.5004752, 2.4993937 
4.3758312e+1, 8.1213415e+1, 148168.1, -134020.61, 463.40973, 0.000033751363, 0.00036520453, 148168.86, 148168.86, 0.0, 2.5004756, 2.4995408 
4.3758312e+1, 8.371296e+1, 149228.47, -131533.84, -283.75327, 0.00009938193, 0.00019034882, 149228.77, 149228.77, 0.0, 2.5004754, 2.4995453 
4.3758312e+1, 8.6212504e+1, 149056.9, -131585.61, -292.0464, 0.00015838748, 0.0000052072874, 149057.22, 149057.22, 0.0, 2.500475, 2.4995453 
4.3758312e+1, 8.871204e+1, 148878.78, -131640.55, -299.67435, 0.00021141853, -0.0001822742, 148879.11, 148879.11, 0.0, 2.5004747, 2.4995453 
4.3758315e+1, 9.1211665e+1, 190148.25, -46388.79, 1004.0998, -0.00015933234, 0.00029913674, 190152.52, 190152.52, 0.0, 2.5004752, 2.4996915 
4.3758315e+1, 9.371136e+1, 191554.44, -43073.117, -413.66138, -0.0000680947, 0.00021518074, 191555.16, 191555.16, 0.0, 2.5004747, 2.4996974 
4.3758312e+1, 9.6211046e+1, 191313.11, -43152.227, -452.04526, 0.000037905724, 0.00010109436, 191313.97, 191313.97, 0.0, 2.5004742, 2.4996974 
4.3758312e+1, 9.8710734e+1, 191061.95, -43236.066, -490.49088, 0.00015297624, -0.000033911398, 191062.98, 191062.98, 0.0, 2.5004737, 2.4996977 
4.625878e+1, 1.2491681e+0, -190715.98, -837002.1, 43.711807, -0.0001461127, -0.000018730709, -190715.98, -190715.98, 0.0, 2.5004745, 2.4983351 
4.625878e+1, 3.7475044e+0, -190898.27, -837305.2, -1.0283498, -0.00008080391, -0.00005476755, -190898.27, -190898.27, 0.0, 2.5004745, 2.4983346 
4.625878e+1, 6.245841e+0, -190944.13, -837322.9, -0.39647073, -0.000018830106, -0.00008890438, -190944.13, -190944.13, 0.0, 2.5004742, 2.4983346 
4.625878e+1, 8.7441766e+0, -190991.2, -837341.1, 0.4525861, 0.00003980874, -0.000121141304, -190991.2, -190991.2, 0.0, 2.5004742, 2.4983346 
4.625878e+1, 1.1242589e+1, -148754.98, -749629.94, 21.39405, 0.000018711416, 0.000049686958, -148754.98, -148754.98, 0.0, 2.5004742, 2.498485 
4.625878e+1, 1.3741076e+1, -148396.34, -749018.1, -32.45846, -0.0000045326583, 0.000013097865, -148396.34, -148396.34, 0.0, 2.5004745, 2.498486 
4.625878e+1, 1.6239563e+1, -148302.73, -748955.6, -39.14125, -0.000029836236, -0.000018459968, -148302.73, -148302.73, 0.0, 2.5004745, 2.498486 
4.625878e+1, 1.8738051e+1, -148209.92, -748893.5, -45.227684, -0.00005730389, -0.00004449058, -148209.92, -148209.92, 0.0, 2.5004747, 2.4984863 
4.625878e+1, 2.1236615e+1, -106184.53, -661596.1, 20.242872, -0.0000614622, 0.00017029926, -106184.53, -106184.53, 0.0, 2.5004747, 2.4986358 
4.625878e+1, 2.373525e+1, -105747.83, -660674.44, -46.21208, -0.00006818565, 0.000048688922, -105747.83, -105747.83, 0.0, 2.5004747, 2.4986374 
4.625878e+1, 2.6233888e+1, -105739.734, -660641.9, -33.481495, -0.000078098485, -0.00006714766, -105739.734, -105739.734, 0.0, 2.5004747, 2.4986374 
4.625878e+1, 2.8732526e+1, -105732.65, -660609.8, -19.943487, -0.000091132584, -0.00017581158, -105732.65, -105732.65, 0.0, 2.5004747, 2.4986377 
4.625878e+1, 3.123124e+1, -63918.953, -573733.7, 102.256516, -0.00006505306, 0.00006118762, -63918.934, -63918.934, 0.0, 2.5004747, 2.4987867 
4.625878e+1, 3.3730027e+1, -63304.176, -572585.06, -17.261343, -0.000029348375, -0.0000356975, -63304.176, -63304.176, 0.0, 2.5004747, 2.4987886 
4.625878e+1, 3.6228818e+1, -63200.625, -572497.1, -26.127018, 0.0000014621719, -0.00012728828, -63200.62, -63200.62, 0.0, 2.500475, 2.4987886 
4.625878e+1, 3.8727605e+1, -63098.22, -572409.75, -34.242737, 0.000027482409, -0.00021121642, -63098.215, -63098.215, 0.0, 2.5004752, 2.4987886 
4.625878e+1, 4.122647e+1, -21297.39, -485601.9, 92.54881, 0.00006620009, 0.0001345571, -21297.371, -21297.371, 0.0, 2.5004752, 2.4989376 
4.625878e+1, 4.372541e+1, -20666.125, -484322.16, -84.75307, 0.000015333459, 0.000060872353, -20666.11, -20666.11, 0.0, 2.5004752, 2.4989398 
4.625878e+1, 4.622435e+1, -20621.617, -484259.34, -77.844925, -0.000041937266, -0.000007473484, -20621.604, -20621.604, 0.0, 2.5004752, 2.49894 
4.625878e+1, 4.872329e+1, -20578.658, -484197.28, -70.17892, -0.00010510375, -0.000066661734, -20578.648, -20578.648, 0.0, 2.5004752, 2.49894 
4.625878e+1, 5.1222306e+1, 21202.273, -397585.8, 207.59218, -0.00014181987, 0.00023370315, 21202.375, 21202.375, 0.0, 2.5004754, 2.4990885 
4.625878e+1, 5.372139e+1, 21845.96, -396205.8, -97.14335, -0.000051085637, 0.000053777294, 21845.984, 21845.984, 0.0, 2.5004754, 2.499091 
4.625878e+1, 5.6220484e+1, 21837.59, -396175.3, -110.07249, 0.00003012472, -0.00012327784, 21837.62, 21837.62, 0.0, 2.5004754, 2.499091 
4.625878e+1, 5.871957e+1, 21827.328, -396145.72, -122.30552, 0.00010124532, -0.00029300898, 21827.363, 21827.363, 0.0, 2.5004752, 2.4990911 
4.6258786e+1, 6.121873e+1, 63637.8, -309528.47, 227.628, 0.00008168815, 0.000054166718, 63637.94, 63637.94, 0.0, 2.5004754, 2.4992397 
4.6258786e+1, 6.3717973e+1, 64369.52, -307949.53, -168.08894, 0.000053717096, 0.0000073224364, 64369.594, 64369.594, 0.0, 2.5004754, 2.4992423 
4.625878e+1, 6.6217214e+1, 64347.883, -307928.03, -159.50385, 0.000018324898, -0.00003796386, 64347.95, 64347.95, 0.0, 2.5004754, 2.4992423 
4.625878e+1, 6.871646e+1, 64323.703, -307907.75, -150.21034, -0.000024926596, -0.000076219934, 64323.76, 64323.76, 0.0, 2.5004754, 2.4992425 
4.6258786e+1, 7.121577e+1, 106003.664, -221721.45, 373.80405, -0.00006783774, 0.00030581202, 106004.09, 106004.09, 0.0, 2.5004756, 2.4993901 
4.625878e+1, 7.371516e+1, 106795.414, -219872.8, -227.68088, -0.000058598027, 0.00014882268, 106795.58, 106795.58, 0.0, 2.5004754, 2.4993935 
4.625878e+1, 7.6214564e+1, 106678.09, -219899.06, -248.65396, -0.00006249669, -0.000010559257, 106678.28, 106678.28, 0.0, 2.5004752, 2.4993935 
4.625878e+1, 7.8713953e+1, 106556.79, -219927.23, -269.4669, -0.00007983941, -0.00016592619, 106557.016, 106557.016, 0.0, 2.500475, 2.4993937 
4.6258786e+1, 8.1213415e+1, 148202.39, -133885.48, 460.96735, -0.000019729483, 0.00025864167, 148203.14, 148203.14, 0.0, 2.5004756, 2.499541 
4.6258786e+1, 8.371296e+1, 149189.05, -131556.38, -340.31793, 0.000016617487, 0.00009638383, 149189.45, 149189.45, 0.0, 2.5004752, 2.4995453 
4.625878e+1, 8.6212504e+1, 149021.84, -131603.55, -339.8115, 0.000022466209, -0.000076338176, 149022.25, 149022.25, 0.0, 2.500475, 2.4995453 
4.625878e+1, 8.871204e+1, 148848.08, -131653.88, -338.6399, -0.0000017578157, -0.00025120773, 148848.48, 148848.48, 0.0, 2.5004747, 2.4995453 
4.625879e+1, 9.1211665e+1, 190241.97, -46195.9, 957.38403, -0.00013098927, 0.00016526344, 190245.84, 190245.84, 0.0, 2.5004752, 2.499692 
4.6258786e+1, 9.371135e+1, 191503.28, -43188.883, -489.43137, -0.00012447739, 0.00016166792, 191504.3, 191504.3, 0.0, 2.5004747, 2.4996972 
4.6258786e+1, 9.6211046e+1, 191268.19, -43261.867, -514.79987, -0.00014330726, 0.00012859043, 191269.33, 191269.33, 0.0, 2.5004742, 2.4996974 
4.625878e+1, 9.8710734e+1, 191023.3, -43339.586, -540.2301, -0.00018838597, 0.00007364434, 191024.53, 191024.53, 0.0, 2.5004737, 2.4996974 
4.8759255e+1, 1.2491679e+0, -192531.72, -837863.8, 21.148544, -0.00034128656, -0.000031936528, -192531.72, -192531.72, 0.0, 2.5004714, 2.4983351 
4.8759255e+1, 3.7475038e+0, -192638.22, -838126.56, -5.778258, -0.0002105417, -0.00009401074, -192638.22, -192638.22, 0.0, 2.5004714, 2.4983346 
4.8759255e+1, 6.2458396e+0, -192658.83, -838131.94, 2.405639, -0.0000888388, -0.00015368592, -192658.83, -192658.83, 0.0, 2.5004714, 2.4983346 
4.8759255e+1, 8.744176e+0, -192729.11, -838161.3, 10.6271305, 0.000023822122, -0.00021096217, -192729.11, -192729.11, 0.0, 2.500471, 2.4983346 
4.8759255e+1, 1.1242589e+1, -150513.98, -750486.2, 55.676056, 0.0000019155639, -0.000017157483, -150513.98, -150513.98, 0.0, 2.5004714, 2.498485 
4.8759255e+1, 1.3741076e+1, -150127.22, -749865.3, 18.119818, -0.000074514355, 0.00001188873, -150127.22, -150127.22, 0.0, 2.5004714, 2.498486 
4.8759255e+1, 1.6239566e+1, -150033.95, -749801.7, 17.583965, -0.00015583824, 0.000046872367, -150033.95, -150033.95, 0.0, 2.5004716, 2.498486 
4.8759255e+1, 1.8738052e+1, -149972.89, -749753.6, 17.042595, -0.00024216498, 0.00008829347, -149972.89, -149972.89, 0.0, 2.5004716, 2.498486 
4.8759255e+1, 2.1236616e+1, -107928.86, -662409.44, 32.53895, -0.00022396847, 0.0003122292, -107928.85, -107928.85, 0.0, 2.5004716, 2.498636 
4.8759255e+1, 2.3735252e+1, -107447.555, -661454.6, -1.216365, -0.0001727889, 0.000119942146, -107447.555, -107447.555, 0.0, 2.5004718, 2.4986377 
4.8759255e+1, 2.6233888e+1, -107425.45, -661413.56, 18.174284, -0.00012776806, -0.00006587592, -107425.45, -107425.45, 0.0, 2.5004718, 2.4986377 
4.8759255e+1, 2.8732526e+1, -107427.39, -661384.06, 38.280205, -0.000088721565, -0.00024378, -107427.38, -107427.38, 0.0, 2.5004716, 2.4986377 
4.8759255e+1, 3.123124e+1, -65613.99, -574512.94, 150.11066, -0.000052347143, -0.000047506965, -65613.95, -65613.95, 0.0, 2.5004716, 2.4987867 
4.8759255e+1, 3.3730027e+1, -65027.645, -573445.0, 65.50493, -0.00005619303, -0.00011474218, -65027.637, -65027.637, 0.0, 2.5004718, 2.4987884 
4.8759255e+1, 3.6228818e+1, -64931.54, -573358.7, 58.188805, -0.00006774436, -0.00017650831, -64931.53, -64931.53, 0.0, 2.500472, 2.4987886 
4.8759255e+1, 3.8727605e+1, -64856.14, -573282.3, 50.535313, -0.00008688921, -0.00023059455, -64856.133, -64856.133, 0.0, 2.500472, 2.4987886 
4.8759258e+1, 4.122647e+1, -23011.209, -486401.06, 117.07034, -0.000027355887, 0.00016628663, -23011.178, -23011.178, 0.0, 2.500472, 2.4989376 
4.8759255e+1, 4.372541e+1, -22319.426, -485110.44, -12.183046, -0.000059060483, 0.0001300184, -22319.426, -22319.426, 0.0, 2.5004723, 2.4989398 
4.8759255e+1, 4.622435e+1, -22235.934, -485026.6, -1.5012149, -0.00010208917, 0.00009827292, -22235.934, -22235.934, 0.0, 2.5004723, 2.49894 
4.8759255e+1, 4.872329e+1, -22187.84, -484959.8, 6.3067555, -0.00015561197, 0.00007502436, -22187.84, -22187.84, 0.0, 2.5004723, 2.49894 
4.8759255e+1, 5.1222306e+1, 19655.47, -398311.88, 258.62515, -0.00015259393, 0.00033981077, 19655.63, 19655.63, 0.0, 2.5004728, 2.4990885 
4.8759255e+1, 5.372139e+1, 20359.574, -396973.78, -39.352924, -0.000048272163, 0.000053891137, 20359.578, 20359.578, 0.0, 2.5004728, 2.499091 
4.8759258e+1, 5.622048e+1, 20420.572, -396905.94, -50.490788, 0.00004052313, -0.00023008494, 20420.578, 20420.578, 0.0, 2.500473, 2.499091 
4.8759258e+1, 5.8719563e+1, 20443.82, -396856.28, -61.51887, 0.00011351832, -0.0005076962, 20443.83, 20443.83, 0.0, 2.500473, 2.499091 
4.8759258e+1, 6.121873e+1, 62440.043, -310005.53, 283.10706, 0.00008972899, -0.00015908449, 62440.258, 62440.258, 0.0, 2.5004733, 2.49924 
4.8759258e+1, 6.3717973e+1, 63279.74, -308466.25, -120.09677, 0.000038021248, -0.00007822555, 63279.777, 63279.777, 0.0, 2.5004735, 2.4992423 
4.8759255e+1, 6.6217214e+1, 63370.637, -308389.94, -114.05969, -0.000029379113, 0.0000038874095, 63370.67, 63370.67, 0.0, 2.5004737, 2.4992425 
4.8759255e+1, 6.871646e+1, 63398.32, -308344.1, -108.9694, -0.00011282992, 0.00009264117, 63398.35, 63398.35, 0.0, 2.5004737, 2.4992425 
4.8759258e+1, 7.1215785e+1, 105206.59, -222107.56, 412.02475, -0.00010451724, 0.000494996, 105207.12, 105207.12, 0.0, 2.5004745, 2.4993901 
4.8759255e+1, 7.371516e+1, 106115.51, -220287.95, -231.68488, -0.0000749036, 0.00024248424, 106115.67, 106115.67, 0.0, 2.5004745, 2.4993932 
4.8759255e+1, 7.621455e+1, 106067.305, -220272.67, -256.86417, -0.0000739216, -0.0000140521115, 106067.51, 106067.51, 0.0, 2.5004742, 2.4993935 
4.8759255e+1, 7.871394e+1, 105901.586, -220314.0, -286.37985, -0.000101163685, -0.00026817157, 105901.836, 105901.836, 0.0, 2.500474, 2.4993935 
4.8759258e+1, 8.1213415e+1, 147796.16, -134010.69, 462.52365, -0.00004608927, 0.00015239384, 147796.92, 147796.92, 0.0, 2.5004747, 2.4995413 
4.8759258e+1, 8.371296e+1, 149053.19, -131626.34, -382.44708, -0.00004501343, -0.0000008264063, 149053.7, 149053.7, 0.0, 2.500475, 2.4995453 
4.8759255e+1, 8.6212504e+1, 149027.7, -131602.78, -376.31143, -0.000098367964, -0.00016489186, 149028.2, 149028.2, 0.0, 2.500475, 2.4995453 
4.8759252e+1, 8.871204e+1, 148810.28, -131671.66, -376.64777, -0.00020552705, -0.00033087484, 148810.8, 148810.8, 0.0, 2.5004745, 2.4995453 
4.875926e+1, 9.121165e+1, 190419.6, -46013.645, 919.0384, -0.000079649864, 0.00005609669, 190423.17, 190423.17, 0.0, 2.5004754, 2.4996922 
4.8759258e+1, 9.371135e+1, 191763.75, -43155.617, -545.17224, -0.00016345717, 0.00012757888, 191765.02, 191765.02, 0.0, 2.5004754, 2.499697 
4.8759255e+1, 9.6211046e+1, 191411.45, -43281.96, -531.08624, -0.00031251225, 0.0001696621, 191412.66, 191412.66, 0.0, 2.5004747, 2.4996972 
4.8759252e+1, 9.8710734e+1, 190694.48, -43583.92, -515.08856, -0.0005227344, 0.00018893517, 190695.63, 190695.63, 0.0, 2.5004733, 2.4996972 
5.1259726e+1, 1.2491679e+0, -191122.55, -837153.4, 9.639695, 0.000057692905, -0.000033745157, -191122.55, -191122.55, 0.0, 2.5004737, 2.4983354 
5.1259726e+1, 3.7475038e+0, -191244.8, -837420.75, -17.173271, 0.0001470598, -0.00010039756, -191244.8, -191244.8, 0.0, 2.5004737, 2.498335 
5.1259726e+1, 6.2458396e+0, -191235.36, -837411.6, -19.068918, 0.00024713133, -0.0001659322, -191235.36, -191235.36, 0.0, 2.5004737, 2.498335 
5.125973e+1, 8.744176e+0, -191227.77, -837403.4, -20.844046, 0.00035790753, -0.00023034918, -191227.77, -191227.77, 0.0, 2.5004737, 2.498335 
5.125973e+1, 1.1242589e+1, -148999.14, -749696.94, 49.297356, 0.00032836173, -0.00004457126, -148999.14, -148999.14, 0.0, 2.5004737, 2.4984853 
5.1259726e+1, 1.3741076e+1, -148696.38, -749131.4, 42.08827, 0.00022520452, -0.0000111114605, -148696.38, -148696.38, 0.0, 2.500474, 2.498486 
5.1259726e+1, 1.6239566e+1, -148647.11, -749090.1, 60.208755, 0.00012837238, 0.000025025462, -148647.1, -148647.1, 0.0, 2.500474, 2.4984863 
5.1259726e+1, 1.8738052e+1, -148599.67, -749049.75, 78.68603, 0.00003776677, 0.00006431962, -148599.66, -148599.66, 0.0, 2.500474, 2.4984863 
5.1259726e+1, 2.1236616e+1, -106547.414, -661695.7, 83.367935, 0.00005632131, 0.00028004195, -106547.41, -106547.41, 0.0, 2.500474, 2.498636 
5.1259726e+1, 2.3735252e+1, -106013.58, -660736.4, 50.20852, 0.000096559284, 0.00008643512, -106013.58, -106013.58, 0.0, 2.5004742, 2.4986377 
5.1259726e+1, 2.6233888e+1, -105902.6, -660650.25, 37.647243, 0.00014049823, -0.00010144755, -105902.6, -105902.6, 0.0, 2.5004742, 2.4986377 
5.1259726e+1, 2.8732526e+1, -105796.4, -660566.44, 25.454943, 0.00018836188, -0.00028218835, -105796.4, -105796.4, 0.0, 2.5004745, 2.4986377 
5.125973e+1, 3.123124e+1, -63966.066, -573641.06, 89.56217, 0.00022288413, -0.00009177455, -63966.05, -63966.05, 0.0, 2.5004745, 2.498787 
5.1259726e+1, 3.3730027e+1, -63478.973, -572668.4, 68.67728, 0.0001622537, -0.00014690972, -63478.965, -63478.965, 0.0, 2.5004745, 2.4987886 
5.1259726e+1, 3.6228818e+1, -63428.69, -572601.75, 87.35306, 0.00010380178, -0.00019474956, -63428.676, -63428.676, 0.0, 2.5004745, 2.4987886 
5.1259726e+1, 3.8727605e+1, -63382.336, -572537.0, 106.97982, 0.000047797923, -0.0002331441, -63382.313, -63382.313, 0.0, 2.5004745, 2.4987888 
5.1259726e+1, 4.122647e+1, -21490.25, -485582.5, 182.17319, 0.00008677036, 0.00015021472, -21490.178, -21490.178, 0.0, 2.5004747, 2.4989378 
5.1259726e+1, 4.372541e+1, -20843.07, -484366.28, 74.84453, 0.000056191286, 0.000108965076, -20843.057, -20843.057, 0.0, 2.5004747, 2.49894 
5.1259726e+1, 4.622435e+1, -20738.797, -484275.44, 73.8152, 0.000030369385, 0.00007661023, -20738.785, -20738.785, 0.0, 2.500475, 2.49894 
5.1259726e+1, 4.872329e+1, -20637.367, -484186.0, 73.81295, 0.000010133941, 0.000056962348, -20637.355, -20637.355, 0.0, 2.500475, 2.49894 
5.1259726e+1, 5.1222306e+1, 21177.35, -397485.72, 327.44507, 0.00004481312, 0.00032855998, 21177.605, 21177.605, 0.0, 2.5004752, 2.4990888 
5.1259726e+1, 5.372139e+1, 21738.664, -396279.8, 72.297745, 0.00008921358, 0.00004606145, 21738.678, 21738.678, 0.0, 2.5004752, 2.499091 
5.1259726e+1, 5.6220484e+1, 21739.361, -396236.88, 93.067154, 0.00013856158, -0.00023065813, 21739.383, 21739.383, 0.0, 2.5004752, 2.499091 
5.1259726e+1, 5.8719563e+1, 21737.828, -396195.0, 114.416214, 0.00019308584, -0.000497146, 21737.86, 21737.86, 0.0, 2.5004752, 2.4990911 
5.125973e+1, 6.121873e+1, 63712.555, -309293.84, 503.1816, 0.00014832844, -0.00015199608, 63713.234, 63713.234, 0.0, 2.5004754, 2.4992402 
5.1259726e+1, 6.371798e+1, 64314.242, -307959.06, 70.7224, 0.0000680653, -0.000061016824, 64314.258, 64314.258, 0.0, 2.5004754, 2.4992423 
5.1259726e+1, 6.6217214e+1, 64279.293, -307943.25, 63.20333, -0.0000054304196, 0.00003285994, 64279.305, 64279.305, 0.0, 2.5004752, 2.4992425 
5.1259726e+1, 6.871646e+1, 64252.754, -307923.44, 56.54592, -0.00007250347, 0.00013485069, 64252.76, 64252.76, 0.0, 2.5004752, 2.4992425 
5.125973e+1, 7.1215785e+1, 106016.234, -221607.66, 664.7013, 0.000012941607, 0.00054428354, 106017.58, 106017.58, 0.0, 2.5004756, 2.4993904 
5.125973e+1, 7.3715174e+1, 106786.84, -219948.75, 28.14409, 0.000055924385, 0.00028568803, 106786.84, 106786.84, 0.0, 2.5004756, 2.4993935 
5.1259726e+1, 7.6214564e+1, 106764.4, -219926.8, 49.92763, 0.000109645545, 0.0000216437, 106764.41, 106764.41, 0.0, 2.5004754, 2.4993935 
5.1259726e+1, 7.871394e+1, 106746.08, -219902.84, 71.51813, 0.00017539364, -0.00024137115, 106746.09, 106746.09, 0.0, 2.5004754, 2.4993935 
5.125973e+1, 8.1213415e+1, 148564.45, -133548.78, 953.91266, 0.00016629844, 0.00019866985, 148567.69, 148567.69, 0.0, 2.5004761, 2.4995415 
5.125973e+1, 8.371296e+1, 149435.98, -131452.97, 5.7932405, 0.000068058, 0.00006523455, 149435.98, 149435.98, 0.0, 2.5004756, 2.4995453 
5.1259726e+1, 8.6212504e+1, 149258.0, -131516.92, -28.894894, 0.0000026702903, -0.00007214417, 149258.0, 149258.0, 0.0, 2.5004754, 2.4995453 
5.1259726e+1, 8.871204e+1, 149078.61, -131581.55, -65.42907, -0.000029899642, -0.00020428526, 149078.63, 149078.63, 0.0, 2.500475, 2.4995453 
5.125974e+1, 9.1211665e+1, 190598.4, -45727.117, 1363.335, 0.00050260685, 0.00016832587, 190606.27, 190606.27, 0.0, 2.5004754, 2.4996927 
5.125973e+1, 9.371135e+1, 191662.11, -43173.39, -177.39696, 0.00035171426, 0.0002178328, 191662.25, 191662.25, 0.0, 2.5004752, 2.4996972 
5.125973e+1, 9.6211046e+1, 191441.5, -43236.94, -216.46938, 0.00022572966, 0.00024116118, 191441.7, 191441.7, 0.0, 2.5004747, 2.4996972 
5.1259726e+1, 9.8710734e+1, 191229.94, -43296.133, -260.2488, 0.00013474595, 0.00024465437, 191230.23, 191230.23, 0.0, 2.5004742, 2.4996972 
5.37602e+1, 1.2491681e+0, -190767.1, -836994.75, -6.405872, 0.000030944513, -0.000020017624, -190767.1, -190767.1, 0.0, 2.5004745, 2.4983354 
5.37602e+1, 3.7475044e+0, -190891.55, -837259.7, -24.172829, 0.0000684597, -0.00005902284, -190891.55, -190891.55, 0.0, 2.5004745, 2.498335 
5.3760207e+1, 6.245841e+0, -190885.14, -837250.56, -27.905209, 0.000109863744, -0.00009665414, -190885.14, -190885.14, 0.0, 2.5004745, 2.498335 
5.3760207e+1, 8.7441766e+0, -190880.1, -837242.1, -31.417921, 0.00015515668, -0.00013291163, -190880.1, -190880.1, 0.0, 2.5004745, 2.498335 
5.3760207e+1, 1.1242589e+1, -148618.06, -749445.3, 20.038235, 0.0001268381, 0.000024098741, -148618.06, -148618.06, 0.0, 2.5004745, 2.4984853 
5.37602e+1, 1.3741076e+1, -148342.34, -748911.0, 27.628073, 0.00007164393, 0.000004298259, -148342.33, -148342.33, 0.0, 2.5004745, 2.4984863 
5.37602e+1, 1.6239566e+1, -148307.42, -748875.44, 45.4502, 0.000018410858, -0.000011917451, -148307.42, -148307.42, 0.0, 2.5004745, 2.4984863 
5.37602e+1, 1.8738052e+1, -148273.56, -748840.3, 63.880238, -0.000032925203, -0.000024109584, -148273.56, -148273.56, 0.0, 2.5004745, 2.4984863 
5.37602e+1, 2.1236615e+1, -106265.63, -661554.2, 37.47979, -0.0000065687373, 0.00017858797, -106265.625, -106265.625, 0.0, 2.5004745, 2.498636 
5.37602e+1, 2.3735252e+1, -105777.78, -660665.06, 40.88548, 0.00003065975, 0.000043794604, -105777.78, -105777.78, 0.0, 2.5004747, 2.4986374 
5.37602e+1, 2.6233888e+1, -105678.875, -660582.75, 29.62399, 0.00006775241, -0.00008454076, -105678.875, -105678.875, 0.0, 2.5004747, 2.4986377 
5.3760207e+1, 2.8732526e+1, -105580.984, -660500.94, 18.969425, 0.000104882216, -0.00020507701, -105580.984, -105580.984, 0.0, 2.500475, 2.4986377 
5.3760207e+1, 3.1231242e+1, -63700.914, -573441.8, 15.640367, 0.00016779681, 0.000014784731, -63700.914, -63700.914, 0.0, 2.500475, 2.4987872 
5.37602e+1, 3.373003e+1, -63235.09, -572499.3, 42.81455, 0.00009057026, -0.000049224225, -63235.086, -63235.086, 0.0, 2.500475, 2.4987886 
5.37602e+1, 3.6228818e+1, -63191.7, -572433.6, 64.965126, 0.000011232871, -0.0001058518, -63191.69, -63191.69, 0.0, 2.500475, 2.4987888 
5.37602e+1, 3.8727608e+1, -63149.4, -572368.5, 87.82099, -0.000069628295, -0.00015291052, -63149.383, -63149.383, 0.0, 2.500475, 2.4987888 
5.37602e+1, 4.122647e+1, -21248.688, -485402.03, 142.67319, -0.000042438798, 0.00015330948, -21248.643, -21248.643, 0.0, 2.500475, 2.498938 
5.37602e+1, 4.372541e+1, -20655.385, -484289.88, 66.93818, -0.000016012047, 0.00006401948, -20655.375, -20655.375, 0.0, 2.5004752, 2.4989398 
5.37602e+1, 4.622435e+1, -20553.879, -484196.9, 68.020645, 0.000009816108, -0.000017281633, -20553.87, -20553.87, 0.0, 2.5004752, 2.49894 
5.37602e+1, 4.872329e+1, -20453.885, -484104.66, 69.8195, 0.00003560531, -0.000087224704, -20453.875, -20453.875, 0.0, 2.5004754, 2.49894 
5.3760207e+1, 5.1222306e+1, 21396.316, -397293.56, 263.1787, 0.00011467985, 0.00022297571, 21396.48, 21396.48, 0.0, 2.5004754, 2.499089 
5.3760207e+1, 5.372139e+1, 21921.814, -396149.66, 30.248825, 0.000095985575, 0.0000483597, 21921.816, 21921.816, 0.0, 2.5004754, 2.499091 
5.37602e+1, 5.6220484e+1, 21914.627, -396108.97, 53.468304, 0.00007655748, -0.0001220753, 21914.635, 21914.635, 0.0, 2.5004754, 2.4990911 
5.37602e+1, 5.871957e+1, 21905.965, -396069.03, 77.07772, 0.000057215708, -0.00028375367, 21905.979, 21905.979, 0.0, 2.5004754, 2.4990911 
5.3760207e+1, 6.121874e+1, 63873.18, -309180.9, 470.36188, 0.000005797578, 0.000042319214, 63873.773, 63873.773, 0.0, 2.5004756, 2.4992402 
5.37602e+1, 6.371798e+1, 64415.887, -307956.38, 16.785393, -0.000030586103, 0.000026179754, 64415.89, 64415.89, 0.0, 2.5004756, 2.4992423 
5.37602e+1, 6.6217226e+1, 64372.883, -307941.9, 8.395319, -0.00006548795, 0.00001285424, 64372.883, 64372.883, 0.0, 2.5004754, 2.4992423 
5.37602e+1, 6.871646e+1, 64328.5, -307928.06, 0.5082997, -0.000099167, 0.0000073525916, 64328.5, 64328.5, 0.0, 2.5004754, 2.4992425 
5.3760207e+1, 7.1215785e+1, 106181.86, -221391.61, 626.64557, 0.000058559137, 0.00038758203, 106183.055, 106183.055, 0.0, 2.500476, 2.4993908 
5.3760207e+1, 7.3715174e+1, 106855.53, -219863.25, -44.646275, 0.00010358253, 0.00017967382, 106855.54, 106855.54, 0.0, 2.5004756, 2.4993935 
5.3760207e+1, 7.6214564e+1, 106788.31, -219863.97, -21.753866, 0.0001503709, -0.000033102624, 106788.32, 106788.32, 0.0, 2.5004754, 2.4993935 
5.37602e+1, 7.8713953e+1, 106719.09, -219865.66, 1.3459681, 0.00020098063, -0.0002442401, 106719.09, 106719.09, 0.0, 2.5004754, 2.4993937 
5.3760207e+1, 8.1213415e+1, 148488.4, -133564.31, 891.076, 0.000031676354, 0.00022416434, 148491.22, 148491.22, 0.0, 2.500476, 2.4995415 
5.37602e+1, 8.371296e+1, 149236.89, -131632.13, -118.70333, -0.000116768984, 0.00011462658, 149236.94, 149236.94, 0.0, 2.5004754, 2.499545 
5.3760195e+1, 8.6212504e+1, 149005.17, -131719.5, -148.8057, -0.0002454416, -0.00000011820552, 149005.25, 149005.25, 0.0, 2.500475, 2.499545 
5.3760195e+1, 8.871204e+1, 148769.38, -131808.83, -178.9969, -0.00035619282, -0.00011101685, 148769.48, 148769.48, 0.0, 2.5004747, 2.499545 
5.376021e+1, 9.1211665e+1, 190404.72, -45678.25, 1268.2218, 0.00055828795, 0.0002596267, 190411.53, 190411.53, 0.0, 2.500475, 2.499693 
5.3760207e+1, 9.371135e+1, 191366.5, -43313.11, -290.02744, 0.00033038252, 0.00021809377, 191366.86, 191366.86, 0.0, 2.5004747, 2.4996972 
5.37602e+1, 9.6211046e+1, 191151.58, -43370.81, -299.90506, 0.00009761567, 0.00014609566, 191151.97, 191151.97, 0.0, 2.5004742, 2.4996972 
5.3760195e+1, 9.8710734e+1, 190929.72, -43431.848, -310.29938, -0.00012301192, 0.000050566396, 190930.13, 190930.13, 0.0, 2.5004737, 2.4996974 
5.6260675e+1, 1.24916814e+0, -190776.45, -837013.6, -20.249405, 0.0000036085119, -0.0000075366515, -190776.45, -190776.45, 0.0, 2.5004745, 2.4983351 
5.6260675e+1, 3.7475044e+0, -190900.86, -837277.44, -25.09928, -0.0000115861085, -0.00002138769, -190900.86, -190900.86, 0.0, 2.5004745, 2.498335 
5.6260675e+1, 6.245841e+0, -190894.23, -837266.75, -26.527195, -0.000029708208, -0.00003360852, -190894.23, -190894.23, 0.0, 2.5004745, 2.498335 
5.6260675e+1, 8.744178e+0, -190888.97, -837256.8, -27.735441, -0.000050757742, -0.00004419925, -190888.97, -190888.97, 0.0, 2.5004745, 2.498335 
5.6260675e+1, 1.124259e+1, -148593.5, -749381.25, 6.313357, -0.00007183531, 0.00008882054, -148593.5, -148593.5, 0.0, 2.5004745, 2.4984856 
5.6260675e+1, 1.3741076e+1, -148323.75, -748856.4, 33.40411, -0.00007975685, 0.000011054682, -148323.75, -148323.75, 0.0, 2.5004745, 2.4984863 
5.6260675e+1, 1.6239563e+1, -148289.92, -748820.06, 53.47386, -0.00009009707, -0.00006223765, -148289.92, -148289.92, 0.0, 2.5004745, 2.4984865 
5.6260675e+1, 1.8738051e+1, -148257.14, -748784.2, 74.15153, -0.00010287055, -0.00013064076, -148257.13, -148257.13, 0.0, 2.5004745, 2.4984865 
5.6260675e+1, 2.1236615e+1, -106295.664, -661590.5, 18.530943, -0.00006942207, 0.00006973272, -106295.66, -106295.66, 0.0, 2.5004745, 2.498636 
5.6260675e+1, 2.3735252e+1, -105824.586, -660733.3, 59.52179, -0.00003613313, -0.000010607376, -105824.58, -105824.58, 0.0, 2.5004747, 2.4986374 
5.6260675e+1, 2.6233888e+1, -105726.195, -660649.25, 50.26621, -0.000006814696, -0.00008382304, -105726.195, -105726.195, 0.0, 2.5004747, 2.4986374 
5.6260675e+1, 2.8732526e+1, -105628.84, -660565.7, 41.617558, 0.000018650968, -0.00014858149, -105628.836, -105628.836, 0.0, 2.500475, 2.4986377 
5.6260675e+1, 3.1231242e+1, -63710.754, -573405.25, -33.293964, 0.000117130076, 0.00011033332, -63710.75, -63710.75, 0.0, 2.5004747, 2.4987872 
5.6260675e+1, 3.373003e+1, -63241.957, -572453.8, 44.89221, 0.000022350854, 0.000033967044, -63241.953, -63241.953, 0.0, 2.5004747, 2.4987888 
5.6260675e+1, 3.6228818e+1, -63198.754, -572385.9, 68.98189, -0.00007888292, -0.00003501558, -63198.742, -63198.742, 0.0, 2.5004747, 2.4987888 
5.6260675e+1, 3.8727608e+1, -63156.633, -572318.44, 93.776855, -0.00018561434, -0.000094304705, -63156.617, -63156.617, 0.0, 2.500475, 2.498789 
5.6260675e+1, 4.122647e+1, -21258.475, -485368.8, 129.97765, -0.00016663832, 0.00014477463, -21258.438, -21258.438, 0.0, 2.500475, 2.498938 
5.6260675e+1, 4.372541e+1, -20699.834, -484327.66, 84.19059, -0.00008468885, 0.0000036957265, -20699.818, -20699.818, 0.0, 2.5004752, 2.4989398 
5.6260675e+1, 4.622435e+1, -20596.871, -484230.5, 87.81424, -0.000008729058, -0.00013041701, -20596.855, -20596.855, 0.0, 2.5004752, 2.49894 
5.6260675e+1, 4.872329e+1, -20495.422, -484134.03, 92.154274, 0.000061565515, -0.00025452228, -20495.404, -20495.404, 0.0, 2.5004754, 2.49894 
5.6260675e+1, 5.1222306e+1, 21366.076, -397268.28, 220.42513, 0.00018532042, 0.00011048416, 21366.191, 21366.191, 0.0, 2.5004754, 2.499089 
5.6260675e+1, 5.372139e+1, 21891.059, -396124.7, 15.818233, 0.00010364044, 0.0000395194, 21891.059, 21891.059, 0.0, 2.5004754, 2.4990911 
5.6260675e+1, 5.6220484e+1, 21884.543, -396082.16, 41.67254, 0.000015535008, -0.000029063533, 21884.547, 21884.547, 0.0, 2.5004754, 2.4990911 
5.6260675e+1, 5.8719575e+1, 21876.553, -396040.38, 67.91679, -0.00007757453, -0.000090364505, 21876.563, 21876.563, 0.0, 2.5004752, 2.4990911 
5.6260675e+1, 6.1218745e+1, 63823.297, -309205.06, 466.85187, -0.00012935216, 0.00022939676, 63823.883, 63823.883, 0.0, 2.5004756, 2.4992402 
5.6260675e+1, 6.3717985e+1, 64334.6, -308043.5, -6.4215198, -0.00012227852, 0.00010289035, 64334.6, 64334.6, 0.0, 2.5004754, 2.499242 
5.6260675e+1, 6.6217226e+1, 64291.67, -308026.38, -12.444275, -0.00011909129, -0.000021072306, 64291.67, 64291.67, 0.0, 2.5004754, 2.4992423 
5.6260675e+1, 6.871646e+1, 64247.37, -308009.9, -17.963976, -0.000119880846, -0.0001375022, 64247.37, 64247.37, 0.0, 2.5004752, 2.4992423 
5.6260675e+1, 7.1215785e+1, 106199.17, -221284.1, 633.396, 0.00010453266, 0.00022802464, 106200.4, 106200.4, 0.0, 2.5004756, 2.499391 
5.6260675e+1, 7.3715174e+1, 106842.945, -219818.19, -73.79476, 0.0001513673, 0.000068164525, 106842.96, 106842.96, 0.0, 2.5004756, 2.4993937 
5.6260675e+1, 7.6214564e+1, 106775.08, -219820.34, -47.746532, 0.00019107555, -0.000096204734, 106775.08, 106775.08, 0.0, 2.5004754, 2.4993937 
5.6260675e+1, 7.8713953e+1, 106705.2, -219823.45, -21.490877, 0.000226396, -0.00025832647, 106705.2, 106705.2, 0.0, 2.5004752, 2.4993937 
5.6260675e+1, 8.1213415e+1, 148449.33, -133601.88, 880.9563, -0.00009798505, 0.0002490058, 148452.08, 148452.08, 0.0, 2.500476, 2.4995415 
5.6260675e+1, 8.371296e+1, 149159.75, -131753.72, -193.24364, -0.00029981261, 0.00015961721, 149159.89, 149159.89, 0.0, 2.5004754, 2.4995449 
5.626067e+1, 8.6212504e+1, 148932.4, -131836.53, -217.36913, -0.00049502135, 0.00006357591, 148932.58, 148932.58, 0.0, 2.500475, 2.4995449 
5.6260663e+1, 8.871204e+1, 148700.98, -131921.3, -241.58345, -0.00068721146, -0.000030013625, 148701.19, 148701.19, 0.0, 2.5004745, 2.499545 
5.626069e+1, 9.1211665e+1, 190456.89, -45569.36, 1225.0884, 0.0006157186, 0.00038001066, 190463.25, 190463.25, 0.0, 2.500475, 2.4996932 
5.6260675e+1, 9.371136e+1, 191371.67, -43310.09, -364.01517, 0.00030750025, 0.00024012696, 191372.23, 191372.23, 0.0, 2.5004747, 2.4996972 
5.6260675e+1, 9.6211046e+1, 191163.52, -43361.4, -364.1094, -0.0000354609, 0.00006482059, 191164.1, 191164.1, 0.0, 2.5004742, 2.4996972 
5.6260663e+1, 9.8710734e+1, 190948.44, -43416.047, -364.7204, -0.00038914013, -0.00013770815, 190949.0, 190949.0, 0.0, 2.5004737, 2.4996974 
5.876115e+1, 1.2491683e+0, -192662.1, -837938.9, -39.11433, -0.00002219414, 0.0000037106954, -192662.1, -192662.1, 0.0, 2.500471, 2.4983351 
5.876115e+1, 3.747505e+0, -192727.42, -838175.4, -41.156925, -0.00009107814, 0.000012547032, -192727.42, -192727.42, 0.0, 2.5004714, 2.4983346 
5.876115e+1, 6.2458414e+0, -192714.94, -838160.5, -51.775635, -0.0001695944, 0.000023270479, -192714.94, -192714.94, 0.0, 2.5004714, 2.4983346 
5.8761144e+1, 8.744178e+0, -192758.64, -838172.7, -63.399014, -0.00025774285, 0.000035880923, -192758.64, -192758.64, 0.0, 2.500471, 2.498335 
5.8761144e+1, 1.1242591e+1, -150439.0, -750234.5, -57.39997, -0.0002655986, 0.0001497069, -150438.98, -150438.98, 0.0, 2.500471, 2.4984856 
5.8761144e+1, 1.3741077e+1, -150109.28, -749675.56, -12.647266, -0.00022713347, 0.00000928574, -150109.28, -150109.28, 0.0, 2.5004714, 2.4984865 
5.8761144e+1, 1.6239563e+1, -150056.48, -749628.8, 5.599602, -0.00019540403, -0.00012578846, -150056.48, -150056.48, 0.0, 2.5004714, 2.4984865 
5.876115e+1, 1.8738051e+1, -150043.69, -749601.4, 24.247541, -0.00017036038, -0.00025510462, -150043.69, -150043.69, 0.0, 2.5004714, 2.4984865 
5.876115e+1, 2.1236615e+1, -108149.5, -662533.44, -68.290276, -0.00013060802, -0.000046336805, -108149.49, -108149.49, 0.0, 2.5004714, 2.498636 
5.876115e+1, 2.3735252e+1, -107666.29, -661670.2, -1.6133089, -0.00010231242, -0.00007658084, -107666.29, -107666.29, 0.0, 2.5004714, 2.4986372 
5.876115e+1, 2.623389e+1, -107587.57, -661593.6, -21.953815, -0.0000817434, -0.000099112185, -107587.57, -107587.57, 0.0, 2.5004716, 2.4986374 
5.876115e+1, 2.873253e+1, -107542.945, -661533.5, -43.749313, -0.00006884379, -0.000112537935, -107542.94, -107542.94, 0.0, 2.5004716, 2.4986374 
5.876115e+1, 3.1231242e+1, -65595.73, -574302.8, -208.42212, 0.00007228015, 0.00019501915, -65595.64, -65595.64, 0.0, 2.5004716, 2.4987872 
5.876115e+1, 3.373003e+1, -65048.313, -573278.4, -89.79604, -0.000041206255, 0.00010280625, -65048.297, -65048.297, 0.0, 2.5004716, 2.4987888 
5.8761144e+1, 3.622882e+1, -64989.85, -573200.75, -80.86042, -0.00016544599, 0.000017893059, -64989.84, -64989.84, 0.0, 2.5004716, 2.498789 
5.8761144e+1, 3.8727608e+1, -64978.316, -573145.7, -74.39895, -0.00029906034, -0.00005720349, -64978.305, -64978.305, 0.0, 2.5004716, 2.498789 
5.8761144e+1, 4.1226473e+1, -23073.998, -486232.13, -79.03811, -0.00028481171, 0.00012471927, -23073.984, -23073.984, 0.0, 2.5004718, 2.498938 
5.8761144e+1, 4.372541e+1, -22458.186, -485193.94, -125.72997, -0.00014899099, -0.000071902236, -22458.15, -22458.15, 0.0, 2.500472, 2.4989398 
5.876115e+1, 4.622435e+1, -22328.037, -485080.22, -153.65019, -0.000024480954, -0.00026268128, -22327.986, -22327.986, 0.0, 2.5004723, 2.49894 
5.876115e+1, 4.8723286e+1, -22247.258, -484990.28, -184.15308, 0.00008884171, -0.00044478924, -22247.186, -22247.186, 0.0, 2.5004723, 2.49894 
5.8761156e+1, 5.1222306e+1, 19649.293, -398102.7, -155.73372, 0.00025749754, -0.000008801744, 19649.352, 19649.352, 0.0, 2.5004725, 2.499089 
5.876115e+1, 5.37214e+1, 20324.973, -396841.94, -348.41486, 0.000112779075, 0.000019589115, 20325.264, 20325.264, 0.0, 2.5004725, 2.4990911 
5.876115e+1, 5.6220484e+1, 20386.563, -396765.16, -345.44608, -0.00004393873, 0.000048404847, 20386.85, 20386.85, 0.0, 2.5004728, 2.4990911 
5.8761144e+1, 5.8719575e+1, 20387.354, -396717.66, -345.91733, -0.00021062448, 0.00008307095, 20387.64, 20387.64, 0.0, 2.5004725, 2.4990914 
5.8761144e+1, 6.1218745e+1, 62367.676, -309942.44, 37.433514, -0.00025644604, 0.00040927128, 62367.68, 62367.68, 0.0, 2.500473, 2.4992402 
5.8761144e+1, 6.3717985e+1, 63026.684, -308723.5, -469.37955, -0.0002064355, 0.00016907729, 63027.277, 63027.277, 0.0, 2.5004733, 2.499242 
5.8761144e+1, 6.6217226e+1, 63101.273, -308647.22, -486.7816, -0.00016566608, -0.00006901262, 63101.91, 63101.91, 0.0, 2.5004733, 2.499242 
5.8761144e+1, 6.871646e+1, 63126.664, -308594.63, -502.87067, -0.00013397723, -0.0002998454, 63127.344, 63127.344, 0.0, 2.5004733, 2.4992423 
5.8761156e+1, 7.1215785e+1, 105282.8, -221663.73, 170.58382, 0.00015155185, 0.00006543949, 105282.88, 105282.88, 0.0, 2.500474, 2.499391 
5.876115e+1, 7.3715174e+1, 106101.89, -220125.6, -577.4411, 0.00019993095, -0.00004906259, 106102.914, 106102.914, 0.0, 2.5004742, 2.4993937 
5.876115e+1, 7.6214564e+1, 106169.62, -220063.55, -550.9753, 0.00023250152, -0.00016793383, 106170.55, 106170.55, 0.0, 2.5004742, 2.4993937 
5.876115e+1, 7.8713953e+1, 106180.56, -220028.84, -527.65125, 0.0002526, -0.00028394515, 106181.414, 106181.414, 0.0, 2.5004742, 2.499394 
5.876115e+1, 8.1213415e+1, 148025.28, -133864.78, 389.98978, -0.00022157085, 0.00027281753, 148025.81, 148025.81, 0.0, 2.5004752, 2.4995413 
5.8761144e+1, 8.371296e+1, 148928.19, -131950.94, -753.83453, -0.00047987298, 0.00019975644, 148930.22, 148930.22, 0.0, 2.5004752, 2.4995446 
5.876114e+1, 8.621251e+1, 148850.61, -131959.16, -773.29694, -0.0007446499, 0.00011843227, 148852.73, 148852.73, 0.0, 2.500475, 2.4995446 
5.876113e+1, 8.871205e+1, 148703.72, -132000.75, -795.4945, -0.0010211809, 0.000038183214, 148705.98, 148705.98, 0.0, 2.5004747, 2.4995449 
5.8761156e+1, 9.121167e+1, 190691.63, -45430.6, 716.88477, 0.0006770471, 0.00052886055, 190693.81, 190693.81, 0.0, 2.5004754, 2.4996932 
5.876115e+1, 9.371136e+1, 191703.31, -43151.67, -862.757, 0.0002857861, 0.00028326103, 191706.48, 191706.48, 0.0, 2.5004752, 2.4996972 
5.8761144e+1, 9.6211046e+1, 191411.1, -43240.367, -814.7895, -0.0001698103, -0.000003281354, 191413.92, 191413.92, 0.0, 2.5004747, 2.4996972 
5.876114e+1, 9.8710734e+1, 190922.7, -43423.535, -770.1025, -0.00065858255, -0.00032062604, 190925.23, 190925.23, 0.0, 2.5004737, 2.4996974 
6.1261624e+1, 1.2491683e+0, -191287.78, -837297.4, -19.213465, 0.00034552856, 0.000009010523, -191287.78, -191287.78, 0.0, 2.5004735, 2.4983351 
6.1261624e+1, 3.747505e+0, -191334.11, -837531.3, 10.207085, 0.00023997144, 0.000028338523, -191334.11, -191334.11, 0.0, 2.5004737, 2.4983346 
6.1261624e+1, 6.2458414e+0, -191245.3, -837481.5, 21.186686, 0.00014639522, 0.000049409653, -191245.3, -191245.3, 0.0, 2.5004737, 2.4983346 
6.1261624e+1, 8.744179e+0, -191158.42, -837432.6, 32.186367, 0.000064799926, 0.000072223804, -191158.42, -191158.42, 0.0, 2.500474, 2.4983346 
6.1261624e+1, 1.1242591e+1, -148843.63, -749502.3, 24.727829, 0.000071190116, 0.00018396517, -148843.63, -148843.63, 0.0, 2.500474, 2.4984856 
6.1261624e+1, 1.3741077e+1, -148601.9, -748988.56, 57.66669, 0.00009125437, 0.000031452444, -148601.9, -148601.9, 0.0, 2.500474, 2.4984863 
6.1261624e+1, 1.6239563e+1, -148595.98, -748963.25, 41.797817, 0.00011959012, -0.00011563027, -148595.98, -148595.98, 0.0, 2.500474, 2.4984865 
6.1261624e+1, 1.8738051e+1, -148590.88, -748938.4, 26.3895, 0.00015629374, -0.0002568764, -148590.88, -148590.88, 0.0, 2.500474, 2.4984865 
6.1261624e+1, 2.1236615e+1, -106676.54, -661834.25, -64.60293, 0.00018419405, -0.000044193617, -106676.53, -106676.53, 0.0, 2.500474, 2.4986358 
6.1261624e+1, 2.3735252e+1, -106220.86, -660998.94, 85.1037, 0.00016062726, -0.00005487846, -106220.84, -106220.84, 0.0, 2.500474, 2.4986372 
6.1261624e+1, 2.623389e+1, -106130.92, -660919.5, 115.251015, 0.00014370825, -0.000060097056, -106130.9, -106130.9, 0.0, 2.5004742, 2.4986374 
6.1261624e+1, 2.873253e+1, -106043.03, -660841.0, 146.73128, 0.00013353163, -0.00005846152, -106042.99, -106042.99, 0.0, 2.5004742, 2.4986374 
6.1261624e+1, 3.1231242e+1, -64024.258, -573600.56, -10.680685, 0.0002705547, 0.0002544536, -64024.258, -64024.258, 0.0, 2.5004742, 2.498787 
6.1261624e+1, 3.373003e+1, -63457.883, -572565.75, 145.61697, 0.00014882462, 0.00014972306, -63457.84, -63457.84, 0.0, 2.5004745, 2.4987888 
6.126162e+1, 3.622882e+1, -63344.66, -572467.06, 146.4683, 0.00003440696, 0.000051951727, -63344.617, -63344.617, 0.0, 2.5004745, 2.4987888 
6.126162e+1, 3.8727608e+1, -63231.844, -572368.5, 148.3077, -0.000071223636, -0.00003631421, -63231.8, -63231.8, 0.0, 2.5004747, 2.4987888 
6.126162e+1, 4.1226473e+1, -21415.482, -485489.34, 137.80566, -0.000048816688, 0.00014445512, -21415.441, -21415.441, 0.0, 2.5004747, 2.498938 
6.126162e+1, 4.372541e+1, -20972.08, -484547.72, 173.63824, 0.000021211094, -0.00005016441, -20972.016, -20972.016, 0.0, 2.5004747, 2.4989395 
6.126162e+1, 4.622435e+1, -20957.375, -484494.9, 201.40945, 0.00010003479, -0.00023636808, -20957.287, -20957.287, 0.0, 2.5004747, 2.4989398 
6.1261624e+1, 4.8723286e+1, -20947.244, -484444.3, 228.99283, 0.00018801718, -0.0004112724, -20947.13, -20947.13, 0.0, 2.5004747, 2.4989398 
6.1261624e+1, 5.1222306e+1, 21030.313, -397500.25, 335.03043, 0.00033567194, 0.000024843113, 21030.582, 21030.582, 0.0, 2.500475, 2.499089 
6.1261624e+1, 5.372139e+1, 21667.61, -396264.75, 170.73419, 0.00018385699, 0.000049968035, 21667.68, 21667.68, 0.0, 2.500475, 2.499091 
6.126162e+1, 5.6220484e+1, 21742.564, -396187.22, 188.12619, 0.00004400899, 0.000083653606, 21742.648, 21742.648, 0.0, 2.5004752, 2.4990911 
6.126162e+1, 5.8719575e+1, 21815.914, -396110.5, 204.74965, -0.00008187559, 0.00013133214, 21816.016, 21816.016, 0.0, 2.5004752, 2.4990911 
6.126162e+1, 6.1218745e+1, 63699.63, -309368.3, 647.8378, -0.000094474424, 0.00046757635, 63700.754, 63700.754, 0.0, 2.5004754, 2.49924 
6.126162e+1, 6.3717985e+1, 64234.69, -308212.8, 171.60342, -0.00010074973, 0.0001847934, 64234.77, 64234.77, 0.0, 2.5004754, 2.4992418 
6.126162e+1, 6.6217226e+1, 64224.844, -308178.63, 200.77618, -0.00009790855, -0.00009338518, 64224.953, 64224.953, 0.0, 2.5004754, 2.499242 
6.126162e+1, 6.871646e+1, 64217.86, -308143.03, 227.2008, -0.00008533028, -0.00036152455, 64217.996, 64217.996, 0.0, 2.5004754, 2.499242 
6.126163e+1, 7.121577e+1, 106234.26, -221240.86, 969.26697, 0.00024528205, 0.000014326192, 106237.125, 106237.125, 0.0, 2.5004756, 2.499391 
6.1261624e+1, 7.371516e+1, 106823.64, -219831.19, 146.99933, 0.00032374778, -0.00008375886, 106823.71, 106823.71, 0.0, 2.5004756, 2.4993935 
6.1261624e+1, 7.6214564e+1, 106714.65, -219855.66, 142.33658, 0.00040877878, -0.00018632002, 106714.71, 106714.71, 0.0, 2.5004754, 2.4993937 
6.1261624e+1, 7.8713953e+1, 106607.42, -219879.27, 139.71353, 0.0005042549, -0.00028583925, 106607.484, 106607.484, 0.0, 2.5004752, 2.4993937 
6.1261624e+1, 8.1213415e+1, 148340.48, -133731.88, 1170.9775, -0.000054243472, 0.00026661818, 148345.34, 148345.34, 0.0, 2.5004756, 2.4995413 
6.126162e+1, 8.371296e+1, 149252.36, -131841.97, 9.660032, -0.00035207748, 0.00014233362, 149252.36, 149252.36, 0.0, 2.5004756, 2.4995446 
6.126161e+1, 8.6212504e+1, 149265.13, -131808.64, 42.867104, -0.00063303445, 0.000011935642, 149265.13, 149265.13, 0.0, 2.5004756, 2.4995446 
6.1261606e+1, 8.871204e+1, 149280.94, -131773.84, 77.00148, -0.0009039241, -0.000115034105, 149280.97, 149280.97, 0.0, 2.5004756, 2.4995446 
6.1261636e+1, 9.1211665e+1, 191194.28, -45192.82, 1646.6324, 0.0012123124, 0.00043637646, 191205.75, 191205.75, 0.0, 2.5004761, 2.4996932 
6.126163e+1, 9.371135e+1, 191934.14, -43067.094, -78.32909, 0.0008284307, 0.0001748175, 191934.17, 191934.17, 0.0, 2.5004756, 2.499697 
6.126162e+1, 9.6211046e+1, 191547.16, -43209.957, -121.892334, 0.0004481892, -0.00010601842, 191547.22, 191547.22, 0.0, 2.500475, 2.4996972 
6.126161e+1, 9.8710734e+1, 191111.44, -43376.297, -169.83629, 0.00010913205, -0.00039441712, 191111.55, 191111.55, 0.0, 2.500474, 2.4996972 
6.37621e+1, 1.2491683e+0, -190957.03, -837114.7, -12.578371, 0.00015430288, 0.0000026871066, -190957.03, -190957.03, 0.0, 2.500474, 2.4983351 
6.37621e+1, 3.747505e+0, -191013.3, -837359.3, 28.63609, 0.00009632979, 0.000009206311, -191013.3, -191013.3, 0.0, 2.5004742, 2.4983346 
6.37621e+1, 6.2458414e+0, -190929.9, -837311.5, 41.71871, 0.000042816904, 0.000017252705, -190929.9, -190929.9, 0.0, 2.5004742, 2.4983346 
6.37621e+1, 8.744179e+0, -190847.98, -837264.44, 54.920918, -0.000006235744, 0.000026826174, -190847.98, -190847.98, 0.0, 2.5004745, 2.4983346 
6.37621e+1, 1.1242591e+1, -148582.14, -749421.8, -6.602227, 0.00002278379, 0.00014455413, -148582.14, -148582.14, 0.0, 2.5004745, 2.4984853 
6.37621e+1, 1.3741077e+1, -148348.94, -748922.44, 56.622337, 0.000043216904, 0.000024238387, -148348.92, -148348.92, 0.0, 2.5004745, 2.4984863 
6.37621e+1, 1.6239563e+1, -148344.36, -748896.5, 45.306007, 0.000067243804, -0.0000908407, -148344.34, -148344.34, 0.0, 2.5004745, 2.4984863 
6.37621e+1, 1.8738051e+1, -148340.84, -748871.1, 34.229103, 0.00009498107, -0.00020028089, -148340.84, -148340.84, 0.0, 2.5004745, 2.4984863 
6.37621e+1, 2.1236615e+1, -106344.56, -661573.56, -76.97159, 0.00012665468, 0.00000008889284, -106344.55, -106344.55, 0.0, 2.5004742, 2.498636 
6.37621e+1, 2.3735252e+1, -105919.37, -660778.4, 109.047264, 0.0000664586, -0.000029106803, -105919.35, -105919.35, 0.0, 2.5004745, 2.4986374 
6.37621e+1, 2.623389e+1, -105841.78, -660703.94, 142.7172, 0.0000084041985, -0.00005180492, -105841.74, -105841.74, 0.0, 2.5004745, 2.4986374 
6.37621e+1, 2.873253e+1, -105765.305, -660630.06, 176.88701, -0.000047271373, -0.00006670342, -105765.24, -105765.24, 0.0, 2.5004747, 2.4986377 
6.37621e+1, 3.1231245e+1, -63793.234, -573482.94, -17.20233, 0.000074301075, 0.00021111006, -63793.234, -63793.234, 0.0, 2.5004747, 2.4987872 
6.37621e+1, 3.3730033e+1, -63239.516, -572476.0, 180.59898, 0.000044240736, 0.00009632988, -63239.45, -63239.45, 0.0, 2.500475, 2.4987886 
6.37621e+1, 3.622882e+1, -63122.336, -572373.6, 185.02884, 0.000015421698, -0.000011114596, -63122.27, -63122.27, 0.0, 2.500475, 2.4987888 
6.37621e+1, 3.8727608e+1, -63006.87, -572272.1, 189.9441, -0.000010956848, -0.00010882849, -63006.8, -63006.8, 0.0, 2.5004752, 2.4987888 
6.37621e+1, 4.1226473e+1, -21170.598, -485336.0, 100.595825, 0.00007455189, 0.00012821291, -21170.576, -21170.576, 0.0, 2.5004752, 2.498938 
6.37621e+1, 4.3725413e+1, -20714.205, -484365.5, 183.71106, 0.000044402037, -0.000010935174, -20714.133, -20714.133, 0.0, 2.5004752, 2.4989398 
6.37621e+1, 4.622435e+1, -20699.234, -484309.88, 214.89598, 0.00001430276, -0.00014330455, -20699.135, -20699.135, 0.0, 2.500475, 2.4989398 
6.376209e+1, 4.872329e+1, -20686.072, -484255.16, 246.37512, -0.000014710726, -0.0002656963, -20685.941, -20685.941, 0.0, 2.500475, 2.49894 
6.37621e+1, 5.1222306e+1, 21289.75, -397298.8, 359.21896, 0.000081546736, 0.000109665685, 21290.059, 21290.059, 0.0, 2.5004752, 2.499089 
6.37621e+1, 5.37214e+1, 21890.773, -396127.7, 194.09161, 0.000059151975, 0.000060380124, 21890.865, 21890.865, 0.0, 2.5004754, 2.4990911 
6.37621e+1, 5.6220484e+1, 21963.314, -396047.75, 216.45496, 0.000038956932, 0.000017355356, 21963.428, 21963.428, 0.0, 2.5004754, 2.4990911 
6.376209e+1, 5.8719575e+1, 22033.115, -395969.13, 239.10202, 0.00002231982, -0.000014495526, 22033.252, 22033.252, 0.0, 2.5004754, 2.4990911 
6.37621e+1, 6.1218745e+1, 63899.203, -309226.9, 648.95703, 0.0000670669, 0.00034396767, 63900.332, 63900.332, 0.0, 2.500476, 2.49924 
6.37621e+1, 6.3717985e+1, 64430.113, -308052.78, 172.02849, -0.000042933658, 0.00012211247, 64430.19, 64430.19, 0.0, 2.5004756, 2.499242 
6.376209e+1, 6.6217226e+1, 64407.535, -308022.66, 208.68892, -0.00015233952, -0.00009760942, 64407.652, 64407.652, 0.0, 2.5004756, 2.499242 
6.3762087e+1, 6.871646e+1, 64383.113, -307993.44, 245.30287, -0.00025987704, -0.0003093419, 64383.277, 64383.277, 0.0, 2.5004754, 2.4992423 
6.37621e+1, 7.1215785e+1, 106336.04, -221182.31, 994.9318, 0.00009111354, 0.000106770945, 106339.06, 106339.06, 0.0, 2.500476, 2.499391 
6.37621e+1, 7.3715174e+1, 106871.836, -219817.52, 145.38116, 0.00024844348, 0.000017363227, 106871.91, 106871.91, 0.0, 2.5004756, 2.4993935 
6.37621e+1, 7.6214564e+1, 106726.484, -219858.14, 152.34627, 0.00040463998, -0.00007777007, 106726.555, 106726.555, 0.0, 2.5004754, 2.4993937 
6.37621e+1, 7.8713953e+1, 106579.26, -219899.67, 159.21822, 0.0005641231, -0.00017096807, 106579.336, 106579.336, 0.0, 2.5004752, 2.4993937 
6.37621e+1, 8.1213427e+1, 148344.05, -133620.03, 1267.0499, -0.0000823061, 0.00035070215, 148349.73, 148349.73, 0.0, 2.5004756, 2.4995415 
6.3762087e+1, 8.3712965e+1, 149164.22, -131797.1, 45.387245, -0.000434205, 0.00013650196, 149164.22, 149164.22, 0.0, 2.5004754, 2.4995449 
6.3762087e+1, 8.621251e+1, 149097.5, -131802.39, 83.70464, -0.0007759794, -0.00008586156, 149097.53, 149097.53, 0.0, 2.5004754, 2.4995449 
6.3762075e+1, 8.871204e+1, 149027.9, -131809.08, 121.68265, -0.0011158219, -0.00030666633, 149027.97, 149027.97, 0.0, 2.5004752, 2.4995449 
6.376211e+1, 9.121167e+1, 190815.1, -45443.16, 1665.8186, 0.001268847, 0.00032334228, 190826.84, 190826.84, 0.0, 2.5004756, 2.499693 
6.37621e+1, 9.371136e+1, 191562.77, -43319.105, -111.35238, 0.0007773508, 0.00017483943, 191562.83, 191562.83, 0.0, 2.500475, 2.499697 
6.3762087e+1, 9.6211046e+1, 191218.4, -43443.004, -150.73605, 0.00027098853, 0.0000019346362, 191218.5, 191218.5, 0.0, 2.5004745, 2.499697 
6.376208e+1, 9.871074e+1, 190868.3, -43569.66, -190.70747, -0.00020748167, -0.00018252338, 190868.45, 190868.45, 0.0, 2.5004737, 2.4996972 
6.6262573e+1, 1.2491683e+0, -190943.2, -837085.9, -5.508498, -0.000037262194, -0.0000046761143, -190943.2, -190943.2, 0.0, 2.500474, 2.4983351 
6.6262573e+1, 3.747505e+0, -191004.58, -837340.94, 47.65224, -0.000048095142, -0.0000130450635, -191004.58, -191004.58, 0.0, 2.5004742, 2.4983346 
6.6262573e+1, 6.2458414e+0, -190920.94, -837292.44, 63.203, -0.00006198878, -0.000020102423, -190920.92, -190920.92, 0.0, 2.5004742, 2.4983346 
6.6262573e+1, 8.744178e+0, -190838.75, -837244.56, 78.87334, -0.000078943056, -0.000025848309, -190838.73, -190838.73, 0.0, 2.5004745, 2.498335 
6.6262573e+1, 1.1242591e+1, -148625.75, -749503.1, -39.95397, -0.000025489435, 0.00010235593, -148625.75, -148625.75, 0.0, 2.5004745, 2.4984853 
6.6262573e+1, 1.3741077e+1, -148392.3, -749002.3, 52.559006, -0.000005335777, 0.000010536017, -148392.28, -148392.28, 0.0, 2.5004745, 2.498486 
6.6262573e+1, 1.6239566e+1, -148387.47, -748975.06, 43.372158, 0.000013728665, -0.00007625442, -148387.47, -148387.47, 0.0, 2.5004745, 2.4984863 
6.6262573e+1, 1.8738051e+1, -148383.72, -748948.3, 34.424736, 0.00003184534, -0.00015760123, -148383.72, -148383.72, 0.0, 2.5004745, 2.4984863 
6.6262573e+1, 2.1236615e+1, -106308.32, -661476.25, -100.3631, 0.00006940029, 0.000036944875, -106308.305, -106308.305, 0.0, 2.5004742, 2.4986362 
6.626257e+1, 2.3735252e+1, -105890.06, -660691.9, 122.1143, -0.000027394035, -0.000014240947, -105890.04, -105890.04, 0.0, 2.5004745, 2.4986377 
6.626257e+1, 2.6233894e+1, -105814.11, -660617.3, 157.77885, -0.00012656406, -0.000057941466, -105814.07, -105814.07, 0.0, 2.5004745, 2.4986377 
6.626257e+1, 2.873253e+1, -105739.27, -660543.25, 193.94328, -0.00022772008, -0.00009289662, -105739.2, -105739.2, 0.0, 2.5004745, 2.4986377 
6.626257e+1, 3.1231245e+1, -63824.86, -573515.25, -36.538063, -0.0001226775, 0.00015761283, -63824.855, -63824.855, 0.0, 2.5004747, 2.498787 
6.626257e+1, 3.3730033e+1, -63273.09, -572510.06, 200.95804, -0.00006175918, 0.000029573524, -63273.01, -63273.01, 0.0, 2.5004747, 2.4987886 
6.626257e+1, 3.622882e+1, -63156.313, -572406.25, 208.03377, -0.0000056590575, -0.00009082729, -63156.227, -63156.227, 0.0, 2.500475, 2.4987888 
6.6262573e+1, 3.8727608e+1, -63041.25, -572303.25, 215.59492, 0.000046534744, -0.00020127432, -63041.156, -63041.156, 0.0, 2.5004752, 2.4987888 
6.6262573e+1, 4.1226473e+1, -21202.854, -485345.53, 43.59908, 0.00019999771, 0.00010190878, -21202.85, -21202.85, 0.0, 2.500475, 2.498938 
6.626257e+1, 4.3725413e+1, -20715.342, -484310.25, 175.61519, 0.000068150686, 0.000014238491, -20715.275, -20715.275, 0.0, 2.500475, 2.49894 
6.626257e+1, 4.6224353e+1, -20698.695, -484251.2, 210.17618, -0.00007244003, -0.00006839817, -20698.6, -20698.6, 0.0, 2.500475, 2.49894 
6.626257e+1, 4.8723292e+1, -20683.855, -484192.97, 245.03139, -0.00022001841, -0.00014237817, -20683.727, -20683.727, 0.0, 2.500475, 2.4989402 
6.626257e+1, 5.1222306e+1, 21271.559, -397268.7, 362.2989, -0.00016978446, 0.00018686203, 21271.873, 21271.873, 0.0, 2.5004752, 2.4990892 
6.626257e+1, 5.37214e+1, 21867.428, -396111.22, 200.25012, -0.00006519661, 0.000058611306, 21867.523, 21867.523, 0.0, 2.5004754, 2.4990911 
6.626257e+1, 5.622049e+1, 21944.113, -396025.7, 227.10103, 0.000031757612, -0.00006586385, 21944.238, 21944.238, 0.0, 2.5004754, 2.4990911 
6.626257e+1, 5.8719575e+1, 22018.06, -395941.5, 254.23566, 0.00012186437, -0.0001819861, 22018.215, 22018.215, 0.0, 2.5004754, 2.4990914 
6.6262573e+1, 6.1218745e+1, 63851.105, -309250.4, 624.3201, 0.00023025477, 0.00021433807, 63852.15, 63852.15, 0.0, 2.5004756, 2.49924 
6.626257e+1, 6.3717985e+1, 64424.258, -307991.1, 148.11433, 0.000014814707, 0.000049341623, 64424.316, 64424.316, 0.0, 2.5004756, 2.4992423 
6.626257e+1, 6.6217226e+1, 64404.703, -307957.47, 188.382, -0.0002086462, -0.00011621454, 64404.797, 64404.797, 0.0, 2.5004756, 2.4992423 
6.626257e+1, 6.8716466e+1, 64383.31, -307924.75, 228.6032, -0.00043810657, -0.0002758277, 64383.45, 64383.45, 0.0, 2.5004754, 2.4992423 
6.6262573e+1, 7.1215785e+1, 106279.3, -221238.47, 979.62006, -0.000067397785, 0.0001975028, 106282.23, 106282.23, 0.0, 2.500476, 2.499391 
6.6262573e+1, 7.3715174e+1, 106827.67, -219849.14, 92.09566, 0.00016789095, 0.00011392626, 106827.695, 106827.695, 0.0, 2.5004756, 2.4993935 
6.6262573e+1, 7.621457e+1, 106684.11, -219887.56, 102.04321, 0.00039433833, 0.00002312085, 106684.14, 106684.14, 0.0, 2.5004752, 2.4993937 
6.6262573e+1, 7.871396e+1, 106538.68, -219926.89, 111.89763, 0.00061690836, -0.000066854715, 106538.72, 106538.72, 0.0, 2.500475, 2.4993937 
6.626257e+1, 8.1213427e+1, 148363.56, -133541.45, 1296.1118, -0.0001127085, 0.00043499705, 148369.52, 148369.52, 0.0, 2.5004756, 2.4995418 
6.6262555e+1, 8.3712965e+1, 149196.44, -131695.2, 8.867879, -0.0005178577, 0.00012717872, 149196.44, 149196.44, 0.0, 2.5004754, 2.4995449 
6.6262555e+1, 8.621251e+1, 149131.25, -131700.13, 50.730972, -0.0009197201, -0.00019103481, 149131.25, 149131.25, 0.0, 2.5004752, 2.499545 
6.626255e+1, 8.871205e+1, 149063.17, -131706.45, 92.25466, -0.001327785, -0.0005095629, 149063.2, 149063.2, 0.0, 2.5004752, 2.499545 
6.626258e+1, 9.121167e+1, 190740.83, -45597.938, 1618.7059, 0.0012970945, 0.00023372463, 190751.92, 190751.92, 0.0, 2.5004756, 2.4996927 
6.6262573e+1, 9.371136e+1, 191521.19, -43413.836, -215.12712, 0.0006993392, 0.0001925506, 191521.39, 191521.39, 0.0, 2.500475, 2.4996967 
6.6262555e+1, 9.621105e+1, 191180.42, -43537.54, -248.47685, 0.00006860711, 0.00012128056, 191180.69, 191180.69, 0.0, 2.5004745, 2.4996967 
6.626255e+1, 9.871074e+1, 190833.94, -43664.004, -282.41434, -0.0005475501, 0.000034459114, 190834.28, 190834.28, 0.0, 2.5004737, 2.499697 
6.876304e+1, 1.2491683e+0, -192627.78, -837877.5, -6.82123, -0.00022694208, -0.000013056691, -192627.78, -192627.78, 0.0, 2.500471, 2.4983354 
6.876305e+1, 3.747505e+0, -192620.58, -838109.5, 39.08992, -0.00019130492, -0.00003834237, -192620.56, -192620.56, 0.0, 2.5004714, 2.4983346 
6.876305e+1, 6.2458414e+0, -192522.03, -838053.2, 38.282047, -0.0001661066, -0.00006252384, -192522.03, -192522.03, 0.0, 2.5004716, 2.498335 
6.876305e+1, 8.744178e+0, -192484.77, -838026.44, 37.2553, -0.00015134709, -0.00008560121, -192484.77, -192484.77, 0.0, 2.5004716, 2.498335 
6.876305e+1, 1.1242591e+1, -150347.61, -750408.7, -161.30234, -0.00007167146, 0.00005761681, -150347.56, -150347.56, 0.0, 2.5004716, 2.498485 
6.876305e+1, 1.3741077e+1, -150073.06, -749875.25, -60.419968, -0.00005258955, -0.000009386793, -150073.05, -150073.05, 0.0, 2.5004716, 2.498486 
6.876305e+1, 1.6239566e+1, -150069.86, -749847.5, -91.06325, -0.000039207884, -0.000071584764, -150069.84, -150069.84, 0.0, 2.5004716, 2.498486 
6.876305e+1, 1.8738052e+1, -150100.98, -749836.4, -122.563484, -0.00003135558, -0.00012853468, -150100.97, -150100.97, 0.0, 2.5004716, 2.498486 
6.876305e+1, 2.1236616e+1, -107967.86, -662217.7, -308.58157, 0.000014118654, 0.00006669659, -107967.69, -107967.69, 0.0, 2.5004714, 2.4986365 
6.876304e+1, 2.3735255e+1, -107526.86, -661411.9, -74.67759, -0.00011939579, -0.000009948408, -107526.85, -107526.85, 0.0, 2.5004716, 2.4986377 
6.876304e+1, 2.6233894e+1, -107463.19, -661342.25, -63.433254, -0.00025973754, -0.00007818434, -107463.18, -107463.18, 0.0, 2.5004716, 2.498638 
6.876304e+1, 2.873253e+1, -107427.78, -661286.3, -50.9053, -0.00040635484, -0.00013674909, -107427.78, -107427.78, 0.0, 2.5004716, 2.498638 
6.876304e+1, 3.1231245e+1, -65574.734, -574399.75, -351.84604, -0.00031901227, 0.00009424703, -65574.49, -65574.49, 0.0, 2.5004716, 2.498787 
6.876304e+1, 3.3730033e+1, -64970.742, -573349.3, -125.419685, -0.00016797312, -0.000050241004, -64970.71, -64970.71, 0.0, 2.5004718, 2.4987886 
6.876305e+1, 3.622882e+1, -64858.02, -573245.8, -167.64456, -0.0000276935, -0.00018687858, -64857.965, -64857.965, 0.0, 2.500472, 2.4987888 
6.876305e+1, 3.8727608e+1, -64791.242, -573164.44, -211.30162, 0.00010243925, -0.0003133584, -64791.152, -64791.152, 0.0, 2.500472, 2.4987888 
6.876305e+1, 4.1226473e+1, -22944.5, -486209.0, -519.3806, 0.00032860614, 0.000065794964, -22943.918, -22943.918, 0.0, 2.500472, 2.498938 
6.876305e+1, 4.3725413e+1, -22331.771, -485036.5, -383.92993, 0.00009333991, 0.000025565463, -22331.453, -22331.453, 0.0, 2.500472, 2.49894 
6.876304e+1, 4.622436e+1, -22308.207, -484971.47, -396.74127, -0.00015933481, -0.000011471922, -22307.867, -22307.867, 0.0, 2.500472, 2.4989402 
6.876304e+1, 4.8723298e+1, -22363.88, -484944.63, -414.8092, -0.0004268923, -0.000041161322, -22363.508, -22363.508, 0.0, 2.500472, 2.4989402 
6.876304e+1, 5.122231e+1, 19580.457, -398083.03, -353.68027, -0.00041735888, 0.00025653423, 19580.758, 19580.758, 0.0, 2.5004723, 2.4990892 
6.876304e+1, 5.3721404e+1, 20322.744, -396830.56, -569.13556, -0.00018847204, 0.000044688706, 20323.521, 20323.521, 0.0, 2.5004725, 2.4990911 
6.876305e+1, 5.622049e+1, 20432.682, -396725.53, -601.7828, 0.000023104683, -0.00016601803, 20433.55, 20433.55, 0.0, 2.5004728, 2.4990914 
6.876305e+1, 5.8719575e+1, 20442.383, -396668.78, -638.9555, 0.00021765093, -0.00037116226, 20443.361, 20443.361, 0.0, 2.5004728, 2.4990914 
6.876305e+1, 6.1218745e+1, 62264.54, -310061.66, -357.2846, 0.00039598419, 0.00007858524, 62264.88, 62264.88, 0.0, 2.500473, 2.49924 
6.876305e+1, 6.3717985e+1, 63098.094, -308567.97, -848.4631, 0.000073181174, -0.000033771863, 63100.03, 63100.03, 0.0, 2.5004733, 2.4992423 
6.876304e+1, 6.6217226e+1, 63175.773, -308485.53, -832.06635, -0.00026613026, -0.0001495714, 63177.633, 63177.633, 0.0, 2.5004733, 2.4992425 
6.876303e+1, 6.8716466e+1, 63157.836, -308449.2, -818.80664, -0.00061908696, -0.00026143822, 63159.64, 63159.64, 0.0, 2.5004733, 2.4992425 
6.876304e+1, 7.121579e+1, 105096.336, -221876.31, -78.420586, -0.00022925092, 0.0002859379, 105096.35, 105096.35, 0.0, 2.500474, 2.4993908 
6.876305e+1, 7.371518e+1, 105924.27, -220296.42, -1001.8767, 0.00008300321, 0.00020517336, 105927.35, 105927.35, 0.0, 2.500474, 2.4993935 
6.876305e+1, 7.621457e+1, 105915.54, -220268.61, -991.6932, 0.0003789614, 0.00011545398, 105918.555, 105918.555, 0.0, 2.500474, 2.4993935 
6.876305e+1, 7.871396e+1, 105787.28, -220298.38, -987.0831, 0.00066413474, 0.000025491325, 105790.266, 105790.266, 0.0, 2.5004737, 2.4993937 
6.876304e+1, 8.121343e+1, 147801.7, -133784.34, 278.44882, -0.00014375968, 0.0005183137, 147801.98, 147801.98, 0.0, 2.5004745, 2.4995418 
6.876303e+1, 8.3712965e+1, 148975.31, -131716.78, -1073.4475, -0.00060145627, 0.00011293161, 148979.4, 148979.4, 0.0, 2.500475, 2.499545 
6.8763024e+1, 8.621251e+1, 149089.56, -131635.69, -1032.915, -0.0010624909, -0.00030521047, 149093.36, 149093.36, 0.0, 2.5004752, 2.499545 
6.876302e+1, 8.871205e+1, 149077.42, -131615.48, -1003.46857, -0.0015375628, -0.00072549336, 149081.0, 149081.0, 0.0, 2.5004752, 2.4995453 
6.8763053e+1, 9.121167e+1, 190724.25, -45776.273, 547.241, 0.0012997297, 0.0001655906, 190725.52, 190725.52, 0.0, 2.500476, 2.4996922 
6.876304e+1, 9.3711364e+1, 191688.17, -43409.684, -1249.7117, 0.0005975102, 0.00022582125, 191694.81, 191694.81, 0.0, 2.5004754, 2.4996965 
6.876303e+1, 9.621106e+1, 191248.19, -43582.715, -1170.9686, -0.00015496687, 0.0002497176, 191254.03, 191254.03, 0.0, 2.5004747, 2.4996967 
6.876302e+1, 9.8710746e+1, 190589.52, -43861.066, -1089.8759, -0.0009057695, 0.0002540786, 190594.58, 190594.58, 0.0, 2.5004735, 2.4996967 
7.126352e+1, 1.2491683e+0, -190976.48, -837148.4, -6.9083104, 0.00008352934, -0.000013823244, -190976.48, -190976.48, 0.0, 2.500474, 2.4983351 
7.126352e+1, 3.7475047e+0, -191220.16, -837511.75, 39.12501, 0.000094478215, -0.000039732913, -191220.16, -191220.16, 0.0, 2.500474, 2.4983346 
7.126352e+1, 6.245841e+0, -191306.11, -837544.7, 31.638628, 0.00011956682, -0.00006332624, -191306.11, -191306.11, 0.0, 2.5004737, 2.4983346 
7.126352e+1, 8.744178e+0, -191393.78, -837578.5, 24.130064, 0.00015879521, -0.00008460337, -191393.78, -191393.78, 0.0, 2.5004735, 2.4983346 
7.126352e+1, 1.1242591e+1, -149211.42, -749931.25, -136.714, 0.0002346496, 0.00007379942, -149211.39, -149211.39, 0.0, 2.5004735, 2.4984848 
7.126352e+1, 1.3741077e+1, -148857.5, -749363.4, 46.89918, 0.00021119034, 0.000030759715, -148857.5, -148857.5, 0.0, 2.5004737, 2.4984858 
7.126352e+1, 1.6239566e+1, -148738.89, -749284.25, 77.91428, 0.00019508475, -0.0000078506355, -148738.88, -148738.88, 0.0, 2.500474, 2.4984858 
7.126352e+1, 1.8738052e+1, -148621.72, -749205.8, 108.8552, 0.00018650465, -0.000041584517, -148621.69, -148621.69, 0.0, 2.5004742, 2.4984858 
7.126352e+1, 2.1236616e+1, -106465.91, -661600.4, -85.93251, 0.00024637207, 0.00015857386, -106465.9, -106465.9, 0.0, 2.500474, 2.4986362 
7.126352e+1, 2.3735255e+1, -106074.09, -660814.6, 167.4479, 0.000104096944, 0.00006472491, -106074.05, -106074.05, 0.0, 2.5004742, 2.4986374 
7.126351e+1, 2.6233894e+1, -106035.375, -660760.3, 158.74263, -0.000032529017, -0.000024409163, -106035.33, -106035.33, 0.0, 2.5004742, 2.4986377 
7.126351e+1, 2.873253e+1, -106000.21, -660707.75, 149.64975, -0.00016281856, -0.000107562264, -106000.17, -106000.17, 0.0, 2.5004742, 2.4986377 
7.126351e+1, 3.1231245e+1, -64214.605, -573876.06, -136.87848, -0.00009220894, 0.00011910769, -64214.57, -64214.57, 0.0, 2.5004742, 2.4987867 
7.126351e+1, 3.3730033e+1, -63706.938, -572871.5, 200.74364, 0.000013513961, -0.000008425606, -63706.86, -63706.86, 0.0, 2.5004742, 2.4987884 
7.126352e+1, 3.622882e+1, -63650.574, -572803.25, 235.1482, 0.00012670828, -0.00013190089, -63650.465, -63650.465, 0.0, 2.5004742, 2.4987884 
7.126352e+1, 3.8727608e+1, -63595.895, -572735.75, 269.73184, 0.0002479784, -0.00024901435, -63595.75, -63595.75, 0.0, 2.5004742, 2.4987886 
7.126352e+1, 4.1226473e+1, -21676.322, -485790.1, 27.03306, 0.0004712272, 0.00014984257, -21676.322, -21676.322, 0.0, 2.5004745, 2.4989376 
7.126352e+1, 4.3725413e+1, -21003.496, -484555.56, 237.8052, 0.00020892177, 0.00010454345, -21003.373, -21003.373, 0.0, 2.5004747, 2.4989398 
7.126351e+1, 4.6224353e+1, -20876.395, -484450.72, 264.2042, -0.000041382365, 0.00006396848, -20876.244, -20876.244, 0.0, 2.5004747, 2.4989398 
7.126351e+1, 4.8723292e+1, -20745.852, -484344.22, 291.9652, -0.0002769955, 0.00003244827, -20745.668, -20745.668, 0.0, 2.500475, 2.4989398 
7.126351e+1, 5.1222306e+1, 21067.48, -397572.4, 420.78497, -0.0002542514, 0.00032872456, 21067.902, 21067.902, 0.0, 2.5004752, 2.4990888 
7.126351e+1, 5.37214e+1, 21614.0, -396385.16, 274.0924, -0.0000733985, 0.00008324147, 21614.18, 21614.18, 0.0, 2.500475, 2.4990907 
7.126351e+1, 5.6220484e+1, 21606.549, -396349.9, 300.42627, 0.00012740034, -0.00015721237, 21606.764, 21606.764, 0.0, 2.500475, 2.499091 
7.126352e+1, 5.8719575e+1, 21597.4, -396315.44, 325.62054, 0.00034866543, -0.00038801873, 21597.654, 21597.654, 0.0, 2.500475, 2.499091 
7.126352e+1, 6.1218745e+1, 63440.05, -309673.6, 733.7101, 0.000511165, 0.00006769788, 63441.492, 63441.492, 0.0, 2.5004752, 2.4992394 
7.126352e+1, 6.3717985e+1, 64185.984, -308176.97, 239.22832, 0.00015477998, -0.000055651402, 64186.137, 64186.137, 0.0, 2.5004752, 2.499242 
7.126351e+1, 6.6217226e+1, 64228.863, -308127.78, 265.6023, -0.0001812994, -0.00017762996, 64229.055, 64229.055, 0.0, 2.5004754, 2.499242 
7.1263504e+1, 6.871646e+1, 64262.055, -308083.25, 284.178, -0.00049437466, -0.00029056336, 64262.273, 64262.273, 0.0, 2.5004754, 2.499242 
7.126351e+1, 7.1215785e+1, 106070.64, -221600.6, 1097.3843, -0.00007553891, 0.0002738145, 106074.31, 106074.31, 0.0, 2.5004756, 2.4993904 
7.126352e+1, 7.3715174e+1, 106797.2, -220017.0, 129.70692, 0.00022186502, 0.0001407223, 106797.25, 106797.25, 0.0, 2.5004756, 2.4993932 
7.126352e+1, 7.6214564e+1, 106757.96, -220011.75, 147.26277, 0.000545187, 0.0000036507104, 106758.02, 106758.02, 0.0, 2.5004756, 2.4993932 
7.126352e+1, 7.871396e+1, 106721.73, -220005.05, 166.18774, 0.00090013875, -0.00012808747, 106721.805, 106721.805, 0.0, 2.5004754, 2.4993932 
7.126352e+1, 8.1213427e+1, 148578.2, -133529.1, 1545.1477, 0.00007749166, 0.00035070156, 148586.67, 148586.67, 0.0, 2.5004761, 2.4995415 
7.126351e+1, 8.3712965e+1, 149403.94, -131571.48, 66.61056, -0.00039747072, -0.00010352974, 149403.95, 149403.95, 0.0, 2.5004756, 2.499545 
7.1263504e+1, 8.6212504e+1, 149254.36, -131625.9, 67.23574, -0.00082839216, -0.00056258705, 149254.38, 149254.38, 0.0, 2.5004754, 2.499545 
7.12635e+1, 8.871204e+1, 149100.3, -131682.48, 70.13383, -0.0012264955, -0.0010153799, 149100.31, 149100.31, 0.0, 2.5004752, 2.499545 
7.1263534e+1, 9.121167e+1, 190684.23, -45890.3, 1726.4554, 0.0017660568, -0.000015044417, 190696.84, 190696.84, 0.0, 2.500476, 2.4996922 
7.126352e+1, 9.371136e+1, 191860.02, -43329.324, -195.50322, 0.0010623881, -0.000023841982, 191860.17, 191860.17, 0.0, 2.5004756, 2.4996965 
7.1263504e+1, 9.621105e+1, 191788.0, -43323.133, -172.75063, 0.00036346517, -0.00006891471, 191788.13, 191788.13, 0.0, 2.5004756, 2.4996967 
7.12635e+1, 9.871074e+1, 191690.13, -43329.395, -149.559, -0.00027717472, -0.0001310526, 191690.22, 191690.22, 0.0, 2.5004754, 2.4996967 
7.376399e+1, 1.24916814e+0, -190755.4, -837064.25, -37.238483, 0.0000235511, -0.000015951862, -190755.4, -190755.4, 0.0, 2.5004745, 2.4983351 
7.376399e+1, 3.7475047e+0, -191005.4, -837440.25, 22.081451, 0.00003534549, -0.00004650519, -191005.4, -191005.4, 0.0, 2.5004742, 2.4983344 
7.376399e+1, 6.245841e+0, -191091.44, -837472.9, 22.166466, 0.00005295388, -0.000075257376, -191091.44, -191091.44, 0.0, 2.5004742, 2.4983346 
7.376399e+1, 8.744178e+0, -191179.16, -837506.3, 22.141083, 0.000076376346, -0.000102208556, -191179.16, -191179.16, 0.0, 2.500474, 2.4983346 
7.376399e+1, 1.1242591e+1, -148934.78, -749720.06, -109.001656, 0.00012193722, 0.000052949552, -148934.77, -148934.77, 0.0, 2.500474, 2.498485 
7.376399e+1, 1.3741079e+1, -148587.16, -749163.3, 93.284935, 0.000078857876, 0.000022516275, -148587.14, -148587.14, 0.0, 2.5004742, 2.498486 
7.376399e+1, 1.6239566e+1, -148470.4, -749084.6, 128.55591, 0.00003863669, -0.0000035186679, -148470.39, -148470.39, 0.0, 2.5004742, 2.498486 
7.376399e+1, 1.8738052e+1, -148354.69, -749006.5, 163.9676, 0.0000014166095, -0.000024724364, -148354.64, -148354.64, 0.0, 2.5004745, 2.498486 
7.376399e+1, 2.1236618e+1, -106277.75, -661560.4, -97.28073, 0.000105903695, 0.00017303726, -106277.73, -106277.73, 0.0, 2.5004745, 2.498636 
7.376399e+1, 2.3735255e+1, -105887.32, -660770.0, 201.75183, 0.000043756212, 0.000059914866, -105887.25, -105887.25, 0.0, 2.5004745, 2.4986374 
7.376399e+1, 2.6233894e+1, -105852.64, -660717.8, 198.78905, -0.00001647354, -0.000047729984, -105852.57, -105852.57, 0.0, 2.5004745, 2.4986374 
7.376399e+1, 2.873253e+1, -105818.95, -660666.0, 196.01147, -0.000074001, -0.00014861763, -105818.88, -105818.88, 0.0, 2.5004745, 2.4986377 
7.3763984e+1, 3.1231245e+1, -63956.125, -573675.44, -125.19256, 0.000014691624, 0.00008351873, -63956.094, -63956.094, 0.0, 2.5004745, 2.4987867 
7.3763984e+1, 3.3730033e+1, -63444.953, -572667.56, 256.1045, 0.0000134607835, -0.0000146138245, -63444.824, -63444.824, 0.0, 2.5004745, 2.4987886 
7.376399e+1, 3.622882e+1, -63385.89, -572597.6, 295.4869, 0.000014947902, -0.000107467866, -63385.72, -63385.72, 0.0, 2.5004747, 2.4987886 
7.376399e+1, 3.872761e+1, -63327.902, -572528.2, 335.2163, 0.000020007077, -0.0001927317, -63327.68, -63327.68, 0.0, 2.5004747, 2.4987886 
7.376399e+1, 4.122648e+1, -21432.367, -485627.16, 79.901276, 0.00020914676, 0.00018057357, -21432.354, -21432.354, 0.0, 2.500475, 2.4989376 
7.376399e+1, 4.372542e+1, -20750.598, -484373.6, 319.21945, 0.000082947525, 0.00009039905, -20750.377, -20750.377, 0.0, 2.500475, 2.4989398 
7.3763984e+1, 4.622436e+1, -20622.953, -484267.2, 353.37332, -0.000039797735, 0.0000050107833, -20622.686, -20622.686, 0.0, 2.5004752, 2.49894 
7.3763984e+1, 4.8723298e+1, -20497.668, -484161.94, 387.70618, -0.00015682, -0.00007143409, -20497.344, -20497.344, 0.0, 2.5004754, 2.49894 
7.3763984e+1, 5.122231e+1, 21264.535, -397478.66, 446.66623, -0.000054589065, 0.0002678854, 21265.012, 21265.012, 0.0, 2.5004754, 2.4990888 
7.3763984e+1, 5.3721404e+1, 21841.139, -396218.75, 327.24826, 0.000011913558, 0.00006889885, 21841.395, 21841.395, 0.0, 2.5004754, 2.499091 
7.3763984e+1, 5.622049e+1, 21825.09, -396186.0, 361.23077, 0.000086635635, -0.00012641103, 21825.402, 21825.402, 0.0, 2.5004752, 2.499091 
7.376399e+1, 5.8719575e+1, 21806.676, -396154.38, 395.29993, 0.00017093575, -0.00031293868, 21807.049, 21807.049, 0.0, 2.5004752, 2.4990911 
7.376399e+1, 6.1218745e+1, 63623.06, -309518.3, 826.84265, 0.0002442821, 0.00014320995, 63624.89, 63624.89, 0.0, 2.5004754, 2.4992397 
7.3763984e+1, 6.3717985e+1, 64368.363, -307997.25, 325.97742, 0.00001637775, 0.000011064149, 64368.652, 64368.652, 0.0, 2.5004754, 2.4992423 
7.3763984e+1, 6.6217226e+1, 64401.414, -307947.2, 369.78818, -0.00020407855, -0.00012149386, 64401.78, 64401.78, 0.0, 2.5004754, 2.4992423 
7.3763984e+1, 6.8716466e+1, 64430.848, -307898.88, 413.40018, -0.00041540503, -0.00024699426, 64431.31, 64431.31, 0.0, 2.5004756, 2.4992423 
7.376399e+1, 7.121579e+1, 106166.914, -221537.48, 1243.6078, 0.00002043128, 0.00032588287, 106171.63, 106171.63, 0.0, 2.500476, 2.4993904 
7.376399e+1, 7.371518e+1, 106917.805, -219878.14, 259.06393, 0.00025275775, 0.0001523055, 106918.016, 106918.016, 0.0, 2.500476, 2.4993935 
7.376399e+1, 7.621457e+1, 106862.984, -219879.97, 299.1821, 0.00049447786, -0.000026986685, 106863.26, 106863.26, 0.0, 2.5004756, 2.4993935 
7.376399e+1, 7.871396e+1, 106803.42, -219884.06, 339.32358, 0.0007512158, -0.0002021792, 106803.77, 106803.77, 0.0, 2.5004756, 2.4993935 
7.376399e+1, 8.121343e+1, 148531.83, -133612.83, 1755.9402, -0.00008258827, 0.0003241449, 148542.77, 148542.77, 0.0, 2.500476, 2.4995413 
7.3763984e+1, 8.3712965e+1, 149356.22, -131582.66, 216.14803, -0.00049090834, -0.00004216223, 149356.39, 149356.39, 0.0, 2.5004756, 2.499545 
7.376398e+1, 8.621251e+1, 149160.06, -131654.61, 230.71622, -0.0008748238, -0.00041656822, 149160.25, 149160.25, 0.0, 2.5004754, 2.499545 
7.3763967e+1, 8.871205e+1, 148958.1, -131729.36, 244.76659, -0.0012453935, -0.0007875686, 148958.31, 148958.31, 0.0, 2.500475, 2.499545 
7.376401e+1, 9.1211677e+1, 190493.39, -45937.26, 1968.4478, 0.0017043408, 0.00034531424, 190509.78, 190509.78, 0.0, 2.5004754, 2.4996922 
7.376399e+1, 9.3711364e+1, 191652.55, -43306.645, -31.359959, 0.000950067, 0.00018846728, 191652.55, 191652.55, 0.0, 2.5004752, 2.4996967 
7.376398e+1, 9.621106e+1, 191517.55, -43333.734, -2.9486718, 0.00017052263, -0.000007677777, 191517.55, 191517.55, 0.0, 2.500475, 2.499697 
7.376396e+1, 9.8710746e+1, 191370.72, -43366.52, 25.194866, -0.00058155623, -0.0002213937, 191370.72, 191370.72, 0.0, 2.5004747, 2.499697 
7.6264465e+1, 1.24916814e+0, -190769.69, -837094.44, -69.51447, -0.00003663471, -0.000019077466, -190769.69, -190769.69, 0.0, 2.5004745, 2.4983351 
7.6264465e+1, 3.7475047e+0, -191026.19, -837484.94, -2.2902455, -0.000024268156, -0.000056267898, -191026.19, -191026.19, 0.0, 2.5004742, 2.4983344 
7.6264465e+1, 6.245841e+0, -191111.38, -837516.8, 0.5643292, -0.000014413509, -0.0000921717, -191111.38, -191111.38, 0.0, 2.5004742, 2.4983344 
7.6264465e+1, 8.744178e+0, -191198.25, -837549.56, 3.3085072, -0.000007070701, -0.000126789, -191198.25, -191198.25, 0.0, 2.500474, 2.4983344 
7.6264465e+1, 1.1242591e+1, -148899.55, -749641.94, -103.23059, 0.000009537084, 0.00003086981, -148899.53, -148899.53, 0.0, 2.500474, 2.4984853 
7.6264465e+1, 1.3741079e+1, -148548.8, -749077.9, 117.765816, -0.00005309994, 0.000009158418, -148548.78, -148548.78, 0.0, 2.5004742, 2.498486 
7.6264465e+1, 1.6239567e+1, -148432.3, -748998.9, 155.26256, -0.00011737861, -0.000008204393, -148432.25, -148432.25, 0.0, 2.5004742, 2.4984863 
7.6264465e+1, 1.8738054e+1, -148316.8, -748920.44, 192.90002, -0.00018318089, -0.00002078475, -148316.73, -148316.73, 0.0, 2.5004745, 2.4984863 
7.6264465e+1, 2.1236618e+1, -106328.336, -661656.94, -137.62614, -0.000034667464, 0.00018266773, -106328.305, -106328.305, 0.0, 2.5004745, 2.498636 
7.6264465e+1, 2.3735256e+1, -105924.12, -660835.6, 203.11339, -0.000016322387, 0.000046567246, -105924.04, -105924.04, 0.0, 2.5004745, 2.4986372 
7.6264465e+1, 2.6233894e+1, -105890.945, -660784.3, 202.06387, 0.00000021130197, -0.000083345214, -105890.875, -105890.875, 0.0, 2.5004745, 2.4986374 
7.6264465e+1, 2.873253e+1, -105858.766, -660733.4, 201.19958, 0.000015812118, -0.0002057235, -105858.69, -105858.69, 0.0, 2.5004745, 2.4986374 
7.6264465e+1, 3.1231245e+1, -63938.313, -573615.8, -159.4416, 0.00011740422, 0.000040489012, -63938.266, -63938.266, 0.0, 2.5004745, 2.498787 
7.6264465e+1, 3.3730033e+1, -63414.15, -572577.0, 261.4467, 0.000009468214, -0.000031076263, -63414.016, -63414.016, 0.0, 2.5004745, 2.4987886 
7.6264465e+1, 3.6228824e+1, -63357.3, -572507.75, 302.77637, -0.00010046095, -0.00009622167, -63357.12, -63357.12, 0.0, 2.5004747, 2.4987888 
7.626446e+1, 3.872761e+1, -63301.53, -572439.06, 344.453, -0.00021132163, -0.00015254818, -63301.297, -63301.297, 0.0, 2.5004747, 2.4987888 
7.6264465e+1, 4.122648e+1, -21450.031, -485619.03, 73.212746, -0.00004923181, 0.00020541665, -21450.02, -21450.02, 0.0, 2.5004747, 2.4989378 
7.6264465e+1, 4.372542e+1, -20742.688, -484311.38, 340.0875, -0.000040126382, 0.00006701822, -20742.44, -20742.44, 0.0, 2.500475, 2.49894 
7.6264465e+1, 4.622436e+1, -20614.799, -484203.6, 377.8889, -0.00003617906, -0.00006664487, -20614.49, -20614.49, 0.0, 2.5004752, 2.49894 
7.6264465e+1, 4.8723298e+1, -20489.264, -484096.9, 415.8693, -0.000035477256, -0.00019147793, -20488.89, -20488.89, 0.0, 2.5004752, 2.4989402 
7.6264465e+1, 5.122231e+1, 21213.49, -397533.16, 404.84494, 0.00013790038, 0.00020041292, 21213.883, 21213.883, 0.0, 2.5004754, 2.4990885 
7.6264465e+1, 5.3721404e+1, 21844.533, -396161.72, 309.15338, 0.000087520595, 0.000043642376, 21844.762, 21844.762, 0.0, 2.5004754, 2.499091 
7.6264465e+1, 5.6220496e+1, 21830.514, -396126.34, 347.53903, 0.000033727694, -0.00011093004, 21830.803, 21830.803, 0.0, 2.5004752, 2.4990911 
7.626446e+1, 5.871958e+1, 21814.127, -396092.13, 386.01132, -0.000021375494, -0.00025758494, 21814.482, 21814.482, 0.0, 2.5004752, 2.4990911 
7.6264465e+1, 6.121875e+1, 63596.836, -309513.25, 831.8243, -0.000013944769, 0.00022037995, 63598.69, 63598.69, 0.0, 2.5004754, 2.4992397 
7.626446e+1, 6.371799e+1, 64390.9, -307896.13, 319.81644, -0.00011940946, 0.00007469198, 64391.17, 64391.17, 0.0, 2.5004754, 2.4992425 
7.626446e+1, 6.621723e+1, 64430.813, -307837.16, 369.4433, -0.00023058793, -0.000073488074, 64431.18, 64431.18, 0.0, 2.5004754, 2.4992425 
7.626446e+1, 6.871648e+1, 64467.117, -307779.9, 418.8714, -0.00034651306, -0.00021659808, 64467.586, 64467.586, 0.0, 2.5004754, 2.4992425 
7.6264465e+1, 7.121579e+1, 106120.58, -221580.3, 1242.8817, 0.00011152651, 0.00037717554, 106125.3, 106125.3, 0.0, 2.500476, 2.4993904 
7.6264465e+1, 7.371518e+1, 106937.9, -219788.67, 225.14095, 0.00027532075, 0.00016013518, 106938.055, 106938.055, 0.0, 2.5004756, 2.4993935 
7.6264465e+1, 7.6214576e+1, 106887.01, -219788.14, 271.3743, 0.00043188522, -0.00006455305, 106887.234, 106887.234, 0.0, 2.5004756, 2.4993937 
7.6264465e+1, 7.8713965e+1, 106831.375, -219789.89, 317.63095, 0.0005868551, -0.00028637133, 106831.69, 106831.69, 0.0, 2.5004754, 2.4993937 
7.626446e+1, 8.121343e+1, 148450.72, -133749.2, 1760.6991, -0.0002493387, 0.00029872594, 148461.7, 148461.7, 0.0, 2.500476, 2.4995413 
7.626445e+1, 8.371298e+1, 149347.3, -131576.25, 149.62096, -0.00059540424, 0.000016489244, 149347.38, 149347.38, 0.0, 2.5004756, 2.499545 
7.626445e+1, 8.6212516e+1, 149158.66, -131639.7, 171.21971, -0.00093685667, -0.00027730718, 149158.77, 149158.77, 0.0, 2.5004752, 2.499545 
7.626444e+1, 8.871206e+1, 148964.2, -131705.95, 192.30063, -0.0012844405, -0.000570556, 148964.34, 148964.34, 0.0, 2.500475, 2.499545 
7.626448e+1, 9.121168e+1, 190492.84, -45940.453, 1988.8019, 0.0016181662, 0.0007269187, 190509.58, 190509.58, 0.0, 2.5004754, 2.4996922 
7.6264465e+1, 9.371137e+1, 191731.34, -43147.85, -79.83115, 0.00081440725, 0.0004150863, 191731.38, 191731.38, 0.0, 2.5004752, 2.4996972 
7.626445e+1, 9.621107e+1, 191596.19, -43177.953, -38.763363, -0.000044648874, 0.000060417275, 191596.2, 191596.2, 0.0, 2.500475, 2.4996972 
7.6264435e+1, 9.871075e+1, 191449.22, -43213.754, 2.036676, -0.00090709, -0.00031232717, 191449.22, 191449.22, 0.0, 2.5004747, 2.4996972 
7.876494e+1, 1.24916814e+0, -192167.38, -837793.1, -115.140915, -0.000095077834, -0.000023166622, -192167.36, -192167.36, 0.0, 2.500472, 2.498335 
7.876494e+1, 3.7475044e+0, -192369.27, -838170.5, -69.86031, -0.00008259426, -0.00006891606, -192369.27, -192369.27, 0.0, 2.500472, 2.4983344 
7.876494e+1, 6.245841e+0, -192457.75, -838203.7, -94.89103, -0.00008078311, -0.00011388644, -192457.73, -192457.73, 0.0, 2.5004718, 2.4983344 
7.876494e+1, 8.744178e+0, -192614.33, -838269.7, -121.48269, -0.00008964428, -0.00015807789, -192614.3, -192614.3, 0.0, 2.5004716, 2.4983344 
7.876494e+1, 1.1242591e+1, -150287.3, -750267.1, -235.05418, -0.00010065058, 0.00000787455, -150287.2, -150287.2, 0.0, 2.5004716, 2.4984853 
7.876494e+1, 1.3741079e+1, -149868.34, -749650.56, -22.33112, -0.00018298447, -0.000008988903, -149868.34, -149868.34, 0.0, 2.5004718, 2.4984863 
7.876494e+1, 1.6239567e+1, -149735.05, -749563.1, -14.419987, -0.00027135893, -0.000021567186, -149735.05, -149735.05, 0.0, 2.500472, 2.4984863 
7.876494e+1, 1.8738057e+1, -149642.67, -749495.44, -9.519485, -0.00036567712, -0.000029404457, -149642.67, -149642.67, 0.0, 2.500472, 2.4984863 
7.876494e+1, 2.123662e+1, -107760.34, -662441.8, -450.99026, -0.00017379019, 0.00018786102, -107759.98, -107759.98, 0.0, 2.500472, 2.4986358 
7.876494e+1, 2.3735256e+1, -107306.766, -661553.56, -117.30447, -0.00007473982, 0.000025110676, -107306.734, -107306.734, 0.0, 2.500472, 2.4986372 
7.876494e+1, 2.6233894e+1, -107275.9, -661503.5, -166.98346, 0.000018845356, -0.0001308137, -107275.85, -107275.85, 0.0, 2.500472, 2.4986372 
7.876494e+1, 2.873253e+1, -107272.18, -661466.5, -219.24763, 0.00010793452, -0.00027844665, -107272.09, -107272.09, 0.0, 2.500472, 2.4986374 
7.876494e+1, 3.1231248e+1, -65308.723, -574251.5, -675.63135, 0.00021717661, -0.000009552285, -65307.824, -65307.824, 0.0, 2.500472, 2.498787 
7.876494e+1, 3.373004e+1, -64729.7, -573138.56, -275.36267, 0.000002660749, -0.000057391466, -64729.55, -64729.55, 0.0, 2.5004723, 2.4987888 
7.876494e+1, 3.6228824e+1, -64676.625, -573070.9, -293.34662, -0.00021843467, -0.00009778286, -64676.457, -64676.457, 0.0, 2.5004723, 2.4987888 
7.8764933e+1, 3.8727614e+1, -64655.145, -573018.4, -313.7261, -0.00044488287, -0.00012816003, -64654.95, -64654.95, 0.0, 2.5004723, 2.498789 
7.8764933e+1, 4.1226482e+1, -22851.9, -486308.25, -671.2318, -0.00030287556, 0.00022461262, -22850.928, -22850.928, 0.0, 2.5004723, 2.4989376 
7.876494e+1, 4.3725422e+1, -22062.736, -484892.4, -452.4094, -0.00015944832, 0.000034600773, -22062.293, -22062.293, 0.0, 2.5004725, 2.49894 
7.876494e+1, 4.622436e+1, -21950.672, -484791.03, -491.0311, -0.000029703848, -0.00015086393, -21950.15, -21950.15, 0.0, 2.5004728, 2.4989402 
7.876494e+1, 4.8723298e+1, -21893.863, -484716.25, -531.9484, 0.00008797886, -0.00032763908, -21893.252, -21893.252, 0.0, 2.5004728, 2.4989402 
7.876494e+1, 5.122232e+1, 19731.19, -398307.7, -686.19904, 0.00032413544, 0.00012624741, 19732.316, 19732.316, 0.0, 2.5004728, 2.4990885 
7.876494e+1, 5.3721404e+1, 20500.094, -396757.5, -828.4203, 0.00015416903, 0.0000073100673, 20501.74, 20501.74, 0.0, 2.500473, 2.4990911 
7.876494e+1, 5.6220496e+1, 20488.326, -396719.5, -859.35974, -0.00003057246, -0.00011104555, 20490.096, 20490.096, 0.0, 2.5004728, 2.4990911 
7.8764933e+1, 5.871959e+1, 20408.248, -396714.38, -895.50696, -0.0002273365, -0.00022235971, 20410.17, 20410.17, 0.0, 2.5004728, 2.4990914 
7.876494e+1, 6.1218756e+1, 62146.61, -310245.4, -509.45163, -0.00026256338, 0.0002986602, 62147.305, 62147.305, 0.0, 2.500473, 2.4992397 
7.8764933e+1, 6.3718e+1, 63112.49, -308425.2, -1088.6602, -0.00025171955, 0.00013453452, 63115.676, 63115.676, 0.0, 2.5004733, 2.4992425 
7.8764933e+1, 6.621724e+1, 63159.4, -308357.34, -1100.1445, -0.0002597861, -0.00003445465, 63162.656, 63162.656, 0.0, 2.5004733, 2.4992428 
7.8764933e+1, 6.871648e+1, 63122.88, -308329.72, -1111.6649, -0.00028620887, -0.00020035607, 63126.203, 63126.203, 0.0, 2.500473, 2.4992428 
7.876494e+1, 7.1215796e+1, 104782.64, -222284.0, -329.5157, 0.00019930859, 0.0004265091, 104782.98, 104782.98, 0.0, 2.5004735, 2.4993904 
7.876494e+1, 7.3715186e+1, 105959.21, -220182.88, -1381.2156, 0.0002908216, 0.00016276615, 105965.055, 105965.055, 0.0, 2.500474, 2.4993937 
7.876494e+1, 7.6214576e+1, 106050.664, -220113.45, -1337.0594, 0.0003587116, -0.00011074698, 106056.14, 106056.14, 0.0, 2.5004742, 2.4993937 
7.8764933e+1, 7.8713965e+1, 106006.14, -220109.53, -1300.0619, 0.000408725, -0.00038260812, 106011.32, 106011.32, 0.0, 2.500474, 2.499394 
7.8764933e+1, 8.121344e+1, 147636.94, -134275.38, 167.8437, -0.00042093024, 0.00027223356, 147637.05, 147637.05, 0.0, 2.5004747, 2.4995408 
7.876492e+1, 8.3712983e+1, 148896.64, -131784.77, -1504.2194, -0.0007091362, 0.0000699403, 148904.7, 148904.7, 0.0, 2.500475, 2.499545 
7.8764915e+1, 8.621252e+1, 148814.6, -131792.08, -1468.4677, -0.001012249, -0.00014753797, 148822.27, 148822.27, 0.0, 2.5004747, 2.499545 
7.8764915e+1, 8.8712066e+1, 148555.9, -131884.44, -1438.0809, -0.0013405514, -0.00036730053, 148563.28, 148563.28, 0.0, 2.5004742, 2.4995453 
7.8764945e+1, 9.1211694e+1, 190181.89, -46141.313, 491.89914, 0.0015108279, 0.0011265596, 190182.9, 190182.9, 0.0, 2.500475, 2.4996922 
7.876494e+1, 9.371138e+1, 191746.39, -43021.867, -1530.2914, 0.0006585991, 0.00065257744, 191756.36, 191756.36, 0.0, 2.5004752, 2.4996974 
7.876492e+1, 9.621107e+1, 191470.13, -43122.926, -1371.5675, -0.00027799743, 0.00013178411, 191478.14, 191478.14, 0.0, 2.5004747, 2.4996974 
7.876491e+1, 9.871075e+1, 190824.83, -43401.688, -1220.2335, -0.0012478776, -0.00040751105, 190831.19, 190831.19, 0.0, 2.5004735, 2.4996974 
8.1265414e+1, 1.24916814e+0, -191375.42, -837495.1, -83.68707, 0.00017106488, -0.0000143819225, -191375.4, -191375.4, 0.0, 2.5004735, 2.498335 
8.1265414e+1, 3.7475047e+0, -191446.08, -837825.9, 1.6805067, 0.00014635565, -0.00004211321, -191446.08, -191446.08, 0.0, 2.5004737, 2.4983342 
8.1265414e+1, 6.245841e+0, -191328.95, -837764.06, 16.396303, 0.00013595748, -0.000068467074, -191328.95, -191328.95, 0.0, 2.500474, 2.4983342 
8.1265414e+1, 8.744178e+0, -191213.25, -837702.94, 31.152122, 0.00013987045, -0.00009344365, -191213.25, -191213.25, 0.0, 2.5004742, 2.4983342 
8.1265414e+1, 1.1242591e+1, -148841.84, -749674.1, -63.108353, 0.00013485433, 0.00007447215, -148841.84, -148841.84, 0.0, 2.5004742, 2.498485 
8.1265414e+1, 1.3741079e+1, -148659.84, -749175.6, 141.26582, 0.000029501942, 0.000044130888, -148659.81, -148659.81, 0.0, 2.500474, 2.498486 
8.1265414e+1, 1.6239567e+1, -148728.0, -749193.2, 126.33917, -0.00006662216, 0.000018382387, -148727.98, -148727.98, 0.0, 2.5004737, 2.498486 
8.1265414e+1, 1.8738054e+1, -148798.02, -749211.6, 111.38902, -0.00015339952, -0.0000023204093, -148797.98, -148797.98, 0.0, 2.5004737, 2.498486 
8.1265414e+1, 2.1236618e+1, -106921.34, -662194.25, -291.63702, 0.000025335923, 0.00022036662, -106921.19, -106921.19, 0.0, 2.5004737, 2.4986353 
8.1265414e+1, 2.3735256e+1, -106404.15, -661277.5, 158.65614, 0.00009879029, 0.00008082082, -106404.11, -106404.11, 0.0, 2.500474, 2.4986367 
8.1265414e+1, 2.6233894e+1, -106292.805, -661199.2, 196.80328, 0.0001774867, -0.000055536817, -106292.734, -106292.734, 0.0, 2.500474, 2.498637 
8.1265414e+1, 2.873253e+1, -106182.99, -661121.7, 235.1491, 0.00026236684, -0.00018724396, -106182.9, -106182.9, 0.0, 2.5004742, 2.498637 
8.1265414e+1, 3.1231245e+1, -64186.043, -573940.56, -188.55658, 0.0003828151, 0.000104702, -64185.973, -64185.973, 0.0, 2.5004742, 2.4987864 
8.1265414e+1, 3.3730033e+1, -63599.875, -572789.44, 273.4526, 0.00014476958, 0.00004936353, -63599.73, -63599.73, 0.0, 2.5004745, 2.4987884 
8.1265414e+1, 3.6228824e+1, -63538.297, -572727.4, 284.75986, -0.00008820365, -0.000004385813, -63538.137, -63538.137, 0.0, 2.5004745, 2.4987884 
8.12654e+1, 3.872761e+1, -63475.113, -572664.6, 297.30832, -0.00031469238, -0.000053843483, -63474.938, -63474.938, 0.0, 2.5004745, 2.4987886 
8.12654e+1, 4.122648e+1, -21789.582, -486075.16, -8.874304, -0.00019409094, 0.00028562697, -21789.582, -21789.582, 0.0, 2.5004745, 2.4989371 
8.12654e+1, 4.372542e+1, -21118.04, -484676.5, 305.76923, -0.00006512606, 0.00008110405, -21117.838, -21117.838, 0.0, 2.5004745, 2.4989395 
8.1265414e+1, 4.6224353e+1, -21096.986, -484632.2, 337.85367, 0.00007224165, -0.00012465226, -21096.74, -21096.74, 0.0, 2.5004745, 2.4989395 
8.1265414e+1, 4.8723292e+1, -21076.943, -484588.34, 369.4031, 0.00021952395, -0.00032746108, -21076.65, -21076.65, 0.0, 2.5004745, 2.4989398 
8.1265414e+1, 5.122231e+1, 20549.752, -398228.8, 312.71973, 0.00046204848, 0.0001443625, 20549.984, 20549.984, 0.0, 2.5004747, 2.4990878 
8.1265414e+1, 5.3721404e+1, 21488.105, -396521.2, 264.7217, 0.00025271197, 0.000025792495, 21488.273, 21488.273, 0.0, 2.500475, 2.4990907 
8.1265414e+1, 5.622049e+1, 21658.21, -396409.63, 315.8087, 0.000054263495, -0.000095872674, 21658.45, 21658.45, 0.0, 2.5004752, 2.4990907 
8.12654e+1, 5.871958e+1, 21828.055, -396298.16, 367.19675, -0.00013042797, -0.00021383153, 21828.377, 21828.377, 0.0, 2.5004754, 2.4990907 
8.1265414e+1, 6.121875e+1, 63487.043, -309941.44, 852.1304, -0.00016543633, 0.00030584141, 63488.99, 63488.99, 0.0, 2.5004756, 2.4992387 
8.12654e+1, 6.371799e+1, 64317.86, -308098.38, 295.43173, -0.00015143129, 0.00009039902, 64318.094, 64318.094, 0.0, 2.5004754, 2.499242 
8.12654e+1, 6.621723e+1, 64262.348, -308096.56, 320.7033, -0.00011662694, -0.00013164061, 64262.625, 64262.625, 0.0, 2.5004754, 2.499242 
8.12654e+1, 6.8716466e+1, 64194.746, -308100.56, 338.68863, -0.000060530758, -0.00035196767, 64195.055, 64195.055, 0.0, 2.5004752, 2.4992423 
8.1265414e+1, 7.121579e+1, 105686.48, -222134.75, 1238.6019, 0.0004082297, 0.00028929272, 105691.16, 105691.16, 0.0, 2.5004754, 2.4993896 
8.1265414e+1, 7.371518e+1, 106775.91, -219968.1, 126.47434, 0.000445481, 0.00000023830391, 106775.96, 106775.96, 0.0, 2.5004756, 2.4993932 
8.1265414e+1, 7.621457e+1, 106841.13, -219926.61, 148.33934, 0.00051073637, -0.00029937446, 106841.2, 106841.2, 0.0, 2.5004756, 2.4993932 
8.1265414e+1, 7.871396e+1, 106906.63, -219884.98, 169.77643, 0.00060933124, -0.00059738394, 106906.72, 106906.72, 0.0, 2.500476, 2.4993935 
8.1265414e+1, 8.121343e+1, 148249.52, -134214.3, 1713.4453, -0.00019981408, 0.00004110999, 148259.9, 148259.9, 0.0, 2.5004761, 2.4995403 
8.12654e+1, 8.3712965e+1, 149332.06, -131695.02, -50.106598, -0.00048188065, -0.00022271015, 149332.08, 149332.08, 0.0, 2.5004756, 2.4995449 
8.1265396e+1, 8.621251e+1, 149178.53, -131742.45, -40.611465, -0.00071599724, -0.0004988403, 149178.53, 149178.53, 0.0, 2.5004754, 2.4995449 
8.126539e+1, 8.871205e+1, 149027.52, -131788.67, -30.059875, -0.0009125123, -0.0007739641, 149027.52, 149027.52, 0.0, 2.5004752, 2.4995449 
8.1265426e+1, 9.121168e+1, 190689.44, -46045.72, 2039.1144, 0.0018923766, 0.00085277495, 190707.0, 190707.0, 0.0, 2.5004761, 2.4996917 
8.1265414e+1, 9.371137e+1, 192251.53, -42797.555, -299.87424, 0.0010423495, 0.0002972409, 192251.9, 192251.9, 0.0, 2.5004761, 2.4996974 
8.1265396e+1, 9.621106e+1, 192237.81, -42783.832, -344.66568, 0.00025084728, -0.00029358984, 192238.31, 192238.31, 0.0, 2.500476, 2.4996974 
8.126539e+1, 9.8710746e+1, 192205.66, -42778.996, -390.61185, -0.0004324734, -0.0008883275, 192206.3, 192206.3, 0.0, 2.500476, 2.4996974 
8.376588e+1, 1.2491684e+0, -191213.95, -837378.7, -55.995914, 0.000087751905, -0.0000061660257, -191213.94, -191213.94, 0.0, 2.5004737, 2.498335 
8.376588e+1, 3.7475052e+0, -191290.05, -837724.1, 35.022263, 0.00006222333, -0.00001754317, -191290.05, -191290.05, 0.0, 2.500474, 2.4983342 
8.376588e+1, 6.245842e+0, -191171.06, -837661.6, 56.172672, 0.000042621534, -0.000027646412, -191171.05, -191171.05, 0.0, 2.5004742, 2.4983342 
8.376588e+1, 8.744179e+0, -191053.69, -837599.94, 77.42019, 0.000028946597, -0.00003647588, -191053.67, -191053.67, 0.0, 2.5004745, 2.4983342 
8.376588e+1, 1.12425916e+1, -148729.23, -749667.8, -85.031746, 0.00006119052, 0.0001077211, -148729.22, -148729.22, 0.0, 2.5004745, 2.498485 
8.376588e+1, 1.3741079e+1, -148552.45, -749180.1, 142.94267, 0.0000061713417, 0.000034490313, -148552.42, -148552.42, 0.0, 2.5004742, 2.4984858 
8.376588e+1, 1.6239567e+1, -148618.7, -749195.1, 136.99025, -0.000045421606, -0.000034957247, -148618.67, -148618.67, 0.0, 2.5004742, 2.498486 
8.376588e+1, 1.8738054e+1, -148686.34, -749210.8, 130.89008, -0.000093410425, -0.00010019166, -148686.31, -148686.31, 0.0, 2.500474, 2.498486 
8.376588e+1, 2.1236618e+1, -106719.805, -661994.6, -256.61987, 0.000045358116, 0.000108502114, -106719.69, -106719.69, 0.0, 2.500474, 2.4986355 
8.376588e+1, 2.3735256e+1, -106202.125, -661087.0, 224.00296, 0.000042338797, 0.00002135963, -106202.03, -106202.03, 0.0, 2.5004742, 2.498637 
8.376588e+1, 2.6233894e+1, -106082.06, -661004.2, 269.26785, 0.000040899995, -0.00006172688, -106081.93, -106081.93, 0.0, 2.5004742, 2.4986372 
8.376588e+1, 2.8732532e+1, -105962.91, -660921.75, 314.70755, 0.00004188001, -0.00013937484, -105962.73, -105962.73, 0.0, 2.5004745, 2.4986372 
8.376588e+1, 3.1231248e+1, -64030.03, -573888.75, -153.14014, 0.00020024224, 0.00017094238, -64029.984, -64029.984, 0.0, 2.5004745, 2.4987864 
8.376588e+1, 3.373004e+1, -63413.008, -572680.94, 347.33643, 0.00006830416, 0.00007097852, -63412.77, -63412.77, 0.0, 2.5004747, 2.4987884 
8.376588e+1, 3.6228824e+1, -63347.086, -572616.8, 368.3059, -0.0000622544, -0.000026236032, -63346.82, -63346.82, 0.0, 2.5004747, 2.4987886 
8.376588e+1, 3.8727614e+1, -63282.105, -572553.1, 389.412, -0.00018981524, -0.000117888405, -63281.805, -63281.805, 0.0, 2.5004747, 2.4987886 
8.376588e+1, 4.1226482e+1, -21594.807, -485950.56, 37.5451, -0.000065281965, 0.00021874692, -21594.803, -21594.803, 0.0, 2.5004747, 2.4989371 
8.376588e+1, 4.372542e+1, -20897.166, -484497.53, 392.20474, -0.000033176697, 0.00004430747, -20896.834, -20896.834, 0.0, 2.5004747, 2.4989398 
8.376588e+1, 4.622436e+1, -20879.154, -484454.6, 432.7008, 0.0000022859283, -0.00013070996, -20878.75, -20878.75, 0.0, 2.5004747, 2.4989398 
8.376588e+1, 4.8723298e+1, -20862.457, -484412.3, 473.30856, 0.00004262297, -0.0003020729, -20861.973, -20861.973, 0.0, 2.5004747, 2.4989398 
8.376588e+1, 5.122231e+1, 20747.611, -398069.6, 432.15607, 0.00025581382, 0.00018364265, 20748.057, 20748.057, 0.0, 2.500475, 2.499088 
8.376588e+1, 5.3721404e+1, 21714.463, -396270.47, 411.94916, 0.00015396718, 0.00006316649, 21714.867, 21714.867, 0.0, 2.5004752, 2.499091 
8.376588e+1, 5.6220496e+1, 21863.422, -396167.6, 475.27408, 0.0000570732, -0.000060659353, 21863.963, 21863.963, 0.0, 2.5004754, 2.499091 
8.376588e+1, 5.871959e+1, 22010.54, -396065.63, 538.5196, -0.000032305255, -0.00018103833, 22011.232, 22011.232, 0.0, 2.5004756, 2.4990911 
8.376588e+1, 6.1218756e+1, 63549.688, -309922.66, 972.6774, -0.000051625982, 0.0003389088, 63552.22, 63552.22, 0.0, 2.5004756, 2.4992387 
8.376588e+1, 6.3718e+1, 64417.55, -307980.7, 423.36694, -0.000104773295, 0.000092891656, 64418.03, 64418.03, 0.0, 2.5004756, 2.4992423 
8.3765876e+1, 6.621723e+1, 64344.836, -307987.6, 463.7494, -0.00014403333, -0.00015923081, 64345.414, 64345.414, 0.0, 2.5004754, 2.4992423 
8.3765876e+1, 6.871648e+1, 64269.76, -307995.63, 504.12442, -0.00016889747, -0.00040890134, 64270.445, 64270.445, 0.0, 2.5004752, 2.4992423 
8.376588e+1, 7.1215796e+1, 105727.54, -222115.47, 1492.7336, 0.00022618019, 0.00030383005, 105734.336, 105734.336, 0.0, 2.5004756, 2.4993896 
8.376588e+1, 7.3715186e+1, 106895.414, -219798.86, 368.64362, 0.00033935317, 0.00009800658, 106895.836, 106895.836, 0.0, 2.5004756, 2.4993935 
8.376588e+1, 7.6214576e+1, 106966.59, -219751.19, 419.4157, 0.00047133624, -0.00011846891, 106967.13, 106967.13, 0.0, 2.500476, 2.4993937 
8.376588e+1, 7.8713965e+1, 107034.01, -219705.34, 470.00894, 0.00062656373, -0.00033281828, 107034.68, 107034.68, 0.0, 2.500476, 2.4993937 
8.376588e+1, 8.121344e+1, 148300.64, -134194.13, 2006.4938, -0.00020252168, 0.00029367645, 148314.89, 148314.89, 0.0, 2.5004761, 2.4995403 
8.3765876e+1, 8.371298e+1, 149431.88, -131560.89, 229.04224, -0.00050340284, -0.00008504168, 149432.06, 149432.06, 0.0, 2.500476, 2.499545 
8.376587e+1, 8.6212516e+1, 149259.44, -131621.67, 267.4834, -0.00076984346, -0.0004761035, 149259.7, 149259.7, 0.0, 2.5004754, 2.499545 
8.3765864e+1, 8.871206e+1, 149080.67, -131685.5, 305.47433, -0.0010127911, -0.00086615485, 149081.02, 149081.02, 0.0, 2.5004752, 2.499545 
8.37659e+1, 9.1211694e+1, 190511.33, -46305.008, 2517.2974, 0.0016513782, 0.00090919086, 190538.08, 190538.08, 0.0, 2.500476, 2.4996912 
8.376588e+1, 9.371138e+1, 192029.92, -42978.848, 57.60635, 0.00089107873, 0.00043941007, 192029.94, 192029.94, 0.0, 2.5004756, 2.4996972 
8.376587e+1, 9.621107e+1, 191913.84, -43014.34, 15.459655, 0.00016399227, -0.000069268666, 191913.84, 191913.84, 0.0, 2.5004754, 2.4996972 
8.3765864e+1, 9.8710763e+1, 191785.03, -43055.973, -27.40619, -0.0004827533, -0.0005829328, 191785.03, 191785.03, 0.0, 2.5004752, 2.4996972 
8.626636e+1, 1.2491685e+0, -191190.11, -837329.4, -29.552143, 0.0000043179202, 0.0000011174757, -191190.11, -191190.11, 0.0, 2.5004737, 2.498335 
8.6266357e+1, 3.7475055e+0, -191274.45, -837692.3, 63.03015, -0.000022173781, 0.0000042298198, -191274.45, -191274.45, 0.0, 2.500474, 2.4983342 
8.6266357e+1, 6.245843e+0, -191155.38, -837630.06, 86.99163, -0.00005112312, 0.000008512733, -191155.36, -191155.36, 0.0, 2.5004742, 2.4983342 
8.6266357e+1, 8.7441796e+0, -191037.9, -837568.56, 111.05022, -0.000082530016, 0.000013966077, -191037.89, -191037.89, 0.0, 2.5004745, 2.4983342 
8.6266357e+1, 1.1242593e+1, -148769.75, -749752.9, -124.386284, -0.00001310121, 0.00014178232, -148769.72, -148769.72, 0.0, 2.5004745, 2.4984848 
8.6266357e+1, 1.3741079e+1, -148587.56, -749256.06, 121.58104, -0.000019627227, 0.0000198203, -148587.53, -148587.53, 0.0, 2.5004742, 2.4984858 
8.6266357e+1, 1.6239567e+1, -148651.42, -749268.3, 118.94845, -0.000028528662, -0.00009919198, -148651.4, -148651.4, 0.0, 2.5004742, 2.4984858 
8.6266357e+1, 1.8738054e+1, -148716.7, -749281.2, 116.16812, -0.000039568404, -0.00021482323, -148716.67, -148716.67, 0.0, 2.500474, 2.4984858 
8.6266357e+1, 2.1236618e+1, -106687.055, -661917.9, -264.5405, 0.00006913034, -0.0000014000369, -106686.92, -106686.92, 0.0, 2.500474, 2.4986358 
8.6266357e+1, 2.3735256e+1, -106151.32, -660971.5, 246.16454, -0.00001108617, -0.00004088461, -106151.21, -106151.21, 0.0, 2.5004742, 2.4986372 
8.6266357e+1, 2.6233897e+1, -106031.78, -660888.56, 293.72794, -0.00009343394, -0.00007555409, -106031.625, -106031.625, 0.0, 2.5004742, 2.4986372 
8.6266357e+1, 2.8732535e+1, -105913.15, -660806.06, 341.46613, -0.00017712679, -0.00010399726, -105912.94, -105912.94, 0.0, 2.5004745, 2.4986374 
8.6266357e+1, 3.123125e+1, -64065.387, -573952.75, -174.06781, 0.000014165522, 0.0002333455, -64065.33, -64065.33, 0.0, 2.5004745, 2.4987862 
8.6266357e+1, 3.373004e+1, -63409.934, -572662.6, 355.0941, -0.000011816191, 0.0000851657, -63409.684, -63409.684, 0.0, 2.5004747, 2.4987886 
8.6266357e+1, 3.622883e+1, -63345.555, -572599.25, 378.0776, -0.000040076564, -0.000059184888, -63345.273, -63345.273, 0.0, 2.5004747, 2.4987886 
8.6266357e+1, 3.8727614e+1, -63282.113, -572536.25, 401.19775, -0.00006882644, -0.00019670239, -63281.8, -63281.8, 0.0, 2.5004747, 2.4987886 
8.6266357e+1, 4.1226482e+1, -21615.115, -485961.3, -3.6487265, 0.000058659156, 0.00015025475, -21615.115, -21615.115, 0.0, 2.5004747, 2.4989371 
8.6266357e+1, 4.3725422e+1, -20873.572, -484414.88, 385.22968, -0.000006159219, 0.0000027911576, -20873.252, -20873.252, 0.0, 2.5004747, 2.4989398 
8.6266357e+1, 4.6224362e+1, -20856.822, -484372.47, 428.03168, -0.000072653536, -0.00014473729, -20856.426, -20856.426, 0.0, 2.5004747, 2.49894 
8.6266357e+1, 4.87233e+1, -20841.385, -484330.7, 470.94543, -0.0001393149, -0.00028790472, -20840.906, -20840.906, 0.0, 2.5004747, 2.49894 
8.6266357e+1, 5.122232e+1, 20742.443, -398045.53, 438.706, 0.00004962449, 0.00022508486, 20742.904, 20742.904, 0.0, 2.500475, 2.499088 
8.6266357e+1, 5.372141e+1, 21781.023, -396098.16, 435.71384, 0.000053433323, 0.00009838693, 21781.477, 21781.477, 0.0, 2.5004752, 2.4990911 
8.6266357e+1, 5.6220496e+1, 21931.37, -395993.13, 502.1256, 0.000056199588, -0.000032088028, 21931.973, 21931.973, 0.0, 2.5004754, 2.4990914 
8.6266357e+1, 5.871959e+1, 22079.871, -395889.0, 568.458, 0.000060238184, -0.0001593758, 22080.645, 22080.645, 0.0, 2.5004756, 2.4990914 
8.6266357e+1, 6.1218756e+1, 63499.36, -309990.6, 943.7973, 0.000052846917, 0.00037439584, 63501.746, 63501.746, 0.0, 2.5004756, 2.4992387 
8.6266357e+1, 6.3718e+1, 64438.46, -307902.34, 389.0135, -0.00006958429, 0.00009374744, 64438.867, 64438.867, 0.0, 2.5004756, 2.4992423 
8.626635e+1, 6.621724e+1, 64366.59, -307909.25, 432.5291, -0.00018499588, -0.00019270345, 64367.094, 64367.094, 0.0, 2.5004754, 2.4992425 
8.626635e+1, 6.871648e+1, 64292.367, -307917.28, 476.03732, -0.00029290956, -0.0004759609, 64292.977, 64292.977, 0.0, 2.5004752, 2.4992425 
8.6266357e+1, 7.1215796e+1, 105683.8, -222176.61, 1531.3865, 0.000040924122, 0.00032404123, 105690.945, 105690.945, 0.0, 2.5004754, 2.4993896 
8.6266357e+1, 7.3715186e+1, 106946.83, -219663.89, 372.23022, 0.00022601837, 0.00019720726, 106947.25, 106947.25, 0.0, 2.5004756, 2.4993937 
8.6266357e+1, 7.621458e+1, 107021.06, -219611.4, 427.15854, 0.00042055518, 0.00005937862, 107021.62, 107021.62, 0.0, 2.5004756, 2.499394 
8.6266357e+1, 7.871397e+1, 107091.52, -219560.73, 481.90796, 0.000628244, -0.00007579945, 107092.234, 107092.234, 0.0, 2.500476, 2.499394 
8.6266357e+1, 8.121345e+1, 148270.11, -134244.0, 1989.9132, -0.00021122223, 0.00054864003, 148284.13, 148284.13, 0.0, 2.5004761, 2.4995403 
8.626635e+1, 8.3712983e+1, 149480.45, -131452.36, 170.43939, -0.0005304239, 0.000051875435, 149480.55, 149480.55, 0.0, 2.500476, 2.499545 
8.6266345e+1, 8.621252e+1, 149309.02, -131516.88, 213.86383, -0.00082885963, -0.00045744493, 149309.19, 149309.19, 0.0, 2.5004754, 2.4995453 
8.626633e+1, 8.8712066e+1, 149131.25, -131584.44, 256.83804, -0.0011179135, -0.0009657489, 149131.48, 149131.48, 0.0, 2.5004752, 2.4995453 
8.6266375e+1, 9.12117e+1, 190380.39, -46577.188, 2607.2886, 0.0013641621, 0.0009804887, 190409.08, 190409.08, 0.0, 2.500476, 2.499691 
8.6266357e+1, 9.371139e+1, 191986.73, -43075.777, 28.906672, 0.0006911593, 0.0005891719, 191986.73, 191986.73, 0.0, 2.5004756, 2.499697 
8.6266345e+1, 9.6211076e+1, 191875.19, -43109.016, -1.6213098, 0.000026656131, 0.00015497883, 191875.19, 191875.19, 0.0, 2.5004754, 2.499697 
8.626633e+1, 9.871077e+1, 191750.9, -43148.395, -32.86844, -0.00058537786, -0.00028527644, 191750.9, 191750.9, 0.0, 2.5004752, 2.499697 
8.876684e+1, 1.2491687e+0, -192197.38, -837778.7, -19.519743, -0.0000774448, 0.0000074991876, -192197.38, -192197.38, 0.0, 2.500472, 2.4983351 
8.876684e+1, 3.747506e+0, -192197.55, -838116.25, 38.478798, -0.00010531681, 0.000023300465, -192197.55, -192197.55, 0.0, 2.5004723, 2.4983342 
8.876684e+1, 6.245843e+0, -192047.55, -838039.4, 28.612762, -0.00014385, 0.000040173018, -192047.53, -192047.53, 0.0, 2.5004725, 2.4983344 
8.876684e+1, 8.744181e+0, -191961.69, -837993.4, 17.59953, -0.00019304431, 0.000058116704, -191961.69, -191961.69, 0.0, 2.5004728, 2.4983344 
8.876684e+1, 1.1242594e+1, -149764.33, -750316.44, -330.71484, -0.000086513806, 0.0001769584, -149764.14, -149764.14, 0.0, 2.5004728, 2.4984846 
8.876684e+1, 1.374108e+1, -149531.5, -749774.1, -112.11424, -0.00004652816, 0.00000049634235, -149531.48, -149531.48, 0.0, 2.5004728, 2.4984856 
8.876684e+1, 1.6239567e+1, -149602.11, -749788.0, -162.63733, -0.000014585958, -0.00017386088, -149602.06, -149602.06, 0.0, 2.5004725, 2.4984856 
8.876684e+1, 1.8738052e+1, -149719.5, -749824.5, -219.19728, 0.000009608882, -0.00034565615, -149719.42, -149719.42, 0.0, 2.5004723, 2.4984858 
8.876683e+1, 2.1236618e+1, -107650.67, -662364.0, -648.0307, 0.000098098295, -0.00010873873, -107649.914, -107649.914, 0.0, 2.5004723, 2.4986358 
8.876683e+1, 2.3735258e+1, -107011.63, -661298.56, -147.3392, -0.000060264712, -0.00010534532, -107011.59, -107011.59, 0.0, 2.5004725, 2.4986374 
8.876683e+1, 2.6233897e+1, -106869.82, -661204.6, -145.89403, -0.00022441603, -0.00009650289, -106869.78, -106869.78, 0.0, 2.5004728, 2.4986374 
8.876683e+1, 2.8732535e+1, -106766.59, -661129.3, -148.69304, -0.00039357043, -0.00008066306, -106766.555, -106766.555, 0.0, 2.5004728, 2.4986374 
8.876683e+1, 3.123125e+1, -65022.098, -574486.2, -772.83954, -0.00017437768, 0.000292328, -65020.926, -65020.926, 0.0, 2.500473, 2.4987862 
8.876683e+1, 3.3730042e+1, -64305.395, -573080.9, -291.13132, -0.00009463191, 0.000092345166, -64305.227, -64305.227, 0.0, 2.500473, 2.4987886 
8.876683e+1, 3.622883e+1, -64269.195, -573031.1, -343.79526, -0.000020686733, -0.00010283455, -64268.96, -64268.96, 0.0, 2.500473, 2.4987886 
8.876683e+1, 3.8727614e+1, -64269.74, -572999.06, -399.61758, 0.00004938311, -0.00028993576, -64269.426, -64269.426, 0.0, 2.500473, 2.4987886 
8.876683e+1, 4.1226482e+1, -22650.137, -486495.0, -935.50336, 0.00017879342, 0.00008039344, -22648.25, -22648.25, 0.0, 2.500473, 2.4989371 
8.876683e+1, 4.3725422e+1, -21809.281, -484798.06, -587.09875, 0.000016792052, -0.0000433438, -21808.537, -21808.537, 0.0, 2.500473, 2.49894 
8.876683e+1, 4.6224362e+1, -21809.914, -484764.03, -622.8237, -0.000151752, -0.00016677087, -21809.076, -21809.076, 0.0, 2.500473, 2.49894 
8.876683e+1, 4.87233e+1, -21859.76, -484753.75, -663.4598, -0.00032535175, -0.00028512694, -21858.809, -21858.809, 0.0, 2.500473, 2.4989402 
8.876683e+1, 5.122232e+1, 19643.484, -398588.28, -772.6749, -0.00015556712, 0.00026834794, 19644.912, 19644.912, 0.0, 2.500473, 2.499088 
8.876683e+1, 5.372141e+1, 20791.03, -396438.9, -848.9991, -0.00004804798, 0.00013091537, 20792.758, 20792.758, 0.0, 2.5004733, 2.4990916 
8.876683e+1, 5.62205e+1, 20921.133, -396342.25, -874.25024, 0.000052504012, -0.000010879388, 20922.965, 20922.965, 0.0, 2.5004735, 2.4990916 
8.876683e+1, 5.8719593e+1, 21015.62, -396262.78, -905.33746, 0.0001482139, -0.00014973071, 21017.584, 21017.584, 0.0, 2.5004735, 2.4990916 
8.876684e+1, 6.121876e+1, 62276.402, -310658.16, -681.404, 0.00014906924, 0.00041122292, 62277.65, 62277.65, 0.0, 2.5004737, 2.4992385 
8.876683e+1, 6.3718003e+1, 63333.64, -308370.22, -1326.8633, -0.000044807795, 0.000091646325, 63338.38, 63338.38, 0.0, 2.5004735, 2.4992425 
8.876683e+1, 6.621724e+1, 63263.914, -308376.56, -1366.4038, -0.00023838485, -0.00023362879, 63268.938, 63268.938, 0.0, 2.5004735, 2.4992425 
8.8766825e+1, 6.8716484e+1, 63165.61, -308396.7, -1407.2405, -0.00043125934, -0.00055497827, 63170.938, 63170.938, 0.0, 2.5004733, 2.4992425 
8.876683e+1, 7.12158e+1, 104505.84, -222825.81, -346.71527, -0.00014612322, 0.00034785754, 104506.21, 104506.21, 0.0, 2.5004735, 2.4993894 
8.876683e+1, 7.371519e+1, 105981.31, -220022.42, -1579.6539, 0.00010693992, 0.00029556078, 105988.97, 105988.97, 0.0, 2.5004737, 2.499394 
8.876683e+1, 7.6214594e+1, 106112.22, -219939.34, -1553.2532, 0.00036004043, 0.0002316552, 106119.62, 106119.62, 0.0, 2.500474, 2.4993942 
8.876683e+1, 7.8713983e+1, 106202.875, -219875.66, -1523.0935, 0.0006163405, 0.00017090343, 106209.99, 106209.99, 0.0, 2.5004742, 2.4993942 
8.876683e+1, 8.1213456e+1, 147350.9, -134754.08, -56.524857, -0.00022379796, 0.0008029828, 147350.92, 147350.92, 0.0, 2.5004747, 2.49954 
8.8766825e+1, 8.371299e+1, 148787.5, -131703.44, -1923.0507, -0.0005608361, 0.00018479103, 148800.69, 148800.69, 0.0, 2.5004745, 2.4995453 
8.8766813e+1, 8.6212534e+1, 148686.92, -131738.06, -1870.7235, -0.0008907668, -0.00044636644, 148699.39, 148699.39, 0.0, 2.5004742, 2.4995453 
8.876681e+1, 8.8712066e+1, 148523.44, -131802.98, -1813.9415, -0.0012252479, -0.0010765203, 148535.17, 148535.17, 0.0, 2.500474, 2.4995453 
8.8766843e+1, 9.1211706e+1, 189651.7, -47173.3, 740.82495, 0.0010335796, 0.0010626685, 189654.02, 189654.02, 0.0, 2.500475, 2.4996903 
8.876683e+1, 9.3711394e+1, 191456.36, -43409.297, -1843.1726, 0.00044559131, 0.0007423477, 191470.83, 191470.83, 0.0, 2.500475, 2.4996967 
8.8766813e+1, 9.621109e+1, 191288.7, -43469.477, -1747.7098, -0.00015769908, 0.00037473973, 191301.7, 191301.7, 0.0, 2.5004747, 2.499697 
8.876681e+1, 9.8710775e+1, 190955.6, -43609.316, -1657.0444, -0.00073610287, -0.00000006022596, 190967.3, 190967.3, 0.0, 2.500474, 2.499697 
9.126731e+1, 1.2491687e+0, -190992.19, -837294.0, 0.56339175, 0.00010725997, 0.000010675071, -190992.19, -190992.19, 0.0, 2.5004742, 2.498335 
9.126731e+1, 3.7475058e+0, -191342.5, -837816.2, 60.425583, 0.00004811706, 0.00003313072, -191342.48, -191342.48, 0.0, 2.500474, 2.498334 
9.126731e+1, 6.245843e+0, -191472.83, -837878.2, 57.499516, 0.0000017111582, 0.00005706113, -191472.83, -191472.83, 0.0, 2.5004737, 2.498334 
9.126731e+1, 8.744181e+0, -191605.4, -837941.2, 54.521374, -0.000031957636, 0.00008246614, -191605.4, -191605.4, 0.0, 2.5004735, 2.498334 
9.126731e+1, 1.1242594e+1, -149420.36, -750278.4, -228.68669, 0.00008469998, 0.00021369332, -149420.27, -149420.27, 0.0, 2.5004735, 2.4984844 
9.126731e+1, 1.374108e+1, -149019.22, -749664.75, 78.58819, 0.00010602382, 0.000054156757, -149019.2, -149019.2, 0.0, 2.5004737, 2.4984853 
9.126731e+1, 1.6239567e+1, -148879.28, -749592.2, 110.30357, 0.000137012, -0.000101984755, -148879.27, -148879.27, 0.0, 2.500474, 2.4984853 
9.126731e+1, 1.8738052e+1, -148740.28, -749520.1, 141.66048, 0.00017798558, -0.00025427318, -148740.25, -148740.25, 0.0, 2.5004742, 2.4984853 
9.126731e+1, 2.1236618e+1, -106571.16, -662037.56, -236.0354, 0.0002600525, 0.0000031677112, -106571.055, -106571.055, 0.0, 2.5004742, 2.4986353 
9.1267306e+1, 2.3735256e+1, -106147.14, -661048.94, 266.93976, 0.00006154625, -0.0000064692026, -106147.016, -106147.016, 0.0, 2.5004742, 2.498637 
9.1267306e+1, 2.6233897e+1, -106210.44, -661069.4, 257.75394, -0.00012872083, -0.000013461885, -106210.31, -106210.31, 0.0, 2.500474, 2.4986372 
9.1267306e+1, 2.8732535e+1, -106276.59, -661091.2, 247.81297, -0.000309943, -0.000016183052, -106276.484, -106276.484, 0.0, 2.500474, 2.4986372 
9.1267306e+1, 3.123125e+1, -64664.645, -574585.5, -330.1793, -0.00009846743, 0.00035369044, -64664.43, -64664.43, 0.0, 2.500474, 2.4987855 
9.1267306e+1, 3.373004e+1, -63894.54, -573119.56, 260.56528, -0.000006937282, 0.00015308411, -63894.406, -63894.406, 0.0, 2.500474, 2.4987879 
9.1267306e+1, 3.6228824e+1, -63799.07, -573058.0, 296.5774, 0.00009170397, -0.000047773192, -63798.9, -63798.9, 0.0, 2.5004742, 2.498788 
9.126731e+1, 3.8727614e+1, -63701.895, -572995.6, 331.11273, 0.00019932377, -0.00024556677, -63701.68, -63701.68, 0.0, 2.5004745, 2.498788 
9.1267306e+1, 4.122648e+1, -21997.205, -486552.28, -135.22668, 0.0003241784, 0.00013979044, -21997.166, -21997.166, 0.0, 2.5004745, 2.4989362 
9.1267306e+1, 4.372542e+1, -21053.627, -484724.1, 294.66757, 0.00011362951, 0.000004905635, -21053.44, -21053.44, 0.0, 2.5004747, 2.4989393 
9.1267306e+1, 4.622436e+1, -20957.854, -484660.56, 326.88654, -0.00008399869, -0.00013052265, -20957.623, -20957.623, 0.0, 2.500475, 2.4989393 
9.1267306e+1, 4.8723298e+1, -20864.121, -484598.0, 358.52176, -0.0002672013, -0.0002614741, -20863.844, -20863.844, 0.0, 2.500475, 2.4989395 
9.1267306e+1, 5.122232e+1, 20534.684, -398570.84, 327.97195, -0.0001110688, 0.00028539414, 20534.94, 20534.94, 0.0, 2.500475, 2.499087 
9.1267306e+1, 5.3721404e+1, 21577.273, -396363.4, 322.65485, 0.000013479721, 0.00010454302, 21577.523, 21577.523, 0.0, 2.500475, 2.499091 
9.1267306e+1, 5.6220496e+1, 21561.668, -396353.78, 357.78018, 0.00014612342, -0.00008049504, 21561.975, 21561.975, 0.0, 2.500475, 2.499091 
9.1267306e+1, 5.871959e+1, 21542.72, -396345.75, 392.87982, 0.0002887675, -0.00026217845, 21543.09, 21543.09, 0.0, 2.500475, 2.499091 
9.126731e+1, 6.1218756e+1, 62769.313, -310837.56, 723.69995, 0.0002934943, 0.0002997046, 62770.715, 62770.715, 0.0, 2.500475, 2.4992375 
9.1267306e+1, 6.371799e+1, 64153.164, -308269.84, 177.08888, 0.000083050865, -0.00004581283, 64153.246, 64153.246, 0.0, 2.5004754, 2.4992418 
9.1267306e+1, 6.621723e+1, 64346.09, -308161.94, 241.07033, -0.00011604522, -0.00040052654, 64346.246, 64346.246, 0.0, 2.5004756, 2.4992418 
9.1267294e+1, 6.8716466e+1, 64530.836, -308058.0, 302.92203, -0.0003035909, -0.00075440033, 64531.082, 64531.082, 0.0, 2.500476, 2.4992418 
9.1267306e+1, 7.121579e+1, 105673.32, -222650.23, 1456.0162, -0.000047177782, 0.00017165742, 105679.78, 105679.78, 0.0, 2.500476, 2.4993885 
9.1267306e+1, 7.3715186e+1, 106941.21, -219803.75, 209.68643, 0.00022830581, 0.000091289025, 106941.34, 106941.34, 0.0, 2.500476, 2.4993935 
9.1267306e+1, 7.6214576e+1, 106813.75, -219848.84, 234.02504, 0.0005188126, -0.000006260201, 106813.914, 106813.914, 0.0, 2.5004756, 2.4993935 
9.126731e+1, 7.871397e+1, 106678.76, -219897.56, 254.26465, 0.0008269234, -0.00010551439, 106678.95, 106678.95, 0.0, 2.5004752, 2.4993935 
9.126731e+1, 8.121344e+1, 147699.06, -134869.19, 1775.8075, 0.00002700687, 0.0004996152, 147710.23, 147710.23, 0.0, 2.5004754, 2.4995394 
9.1267306e+1, 8.3712983e+1, 149482.6, -131514.4, -172.382, -0.00028639138, -0.0001818353, 149482.69, 149482.69, 0.0, 2.500476, 2.499545 
9.1267294e+1, 8.6212516e+1, 149712.7, -131387.61, -173.7691, -0.0005735726, -0.0008793929, 149712.81, 149712.81, 0.0, 2.5004764, 2.499545 
9.126729e+1, 8.871205e+1, 149942.31, -131261.05, -177.50212, -0.00084618566, -0.0015787528, 149942.42, 149942.42, 0.0, 2.5004766, 2.499545 
9.126732e+1, 9.1211694e+1, 190717.66, -46772.387, 2407.1633, 0.0011829399, 0.0006598098, 190742.05, 190742.05, 0.0, 2.5004768, 2.49969 
9.1267306e+1, 9.371138e+1, 192322.31, -43009.723, -357.48087, 0.0006900628, 0.00030512846, 192322.86, 192322.86, 0.0, 2.5004764, 2.4996967 
9.1267294e+1, 9.6211076e+1, 192047.64, -43123.625, -353.98172, 0.00021532427, -0.00010176385, 192048.17, 192048.17, 0.0, 2.500476, 2.4996967 
9.126729e+1, 9.8710763e+1, 191759.3, -43244.117, -344.23267, -0.00020570694, -0.0005184733, 191759.8, 191759.8, 0.0, 2.5004754, 2.499697 
9.3767786e+1, 1.2491685e+0, -190942.98, -837282.75, -30.0424, 0.000034648114, -0.0000020122059, -190942.98, -190942.98, 0.0, 2.5004742, 2.498335 
9.3767786e+1, 3.7475055e+0, -191296.5, -837815.44, 29.656788, 0.0000071167433, -0.0000051886477, -191296.5, -191296.5, 0.0, 2.500474, 2.498334 
9.3767786e+1, 6.245843e+0, -191423.45, -837875.0, 32.41003, -0.000015139959, -0.0000072336884, -191423.45, -191423.45, 0.0, 2.5004737, 2.498334 
9.3767786e+1, 8.7441796e+0, -191551.97, -837935.3, 35.14954, -0.0000321219, -0.000008147483, -191551.97, -191551.97, 0.0, 2.5004735, 2.498334 
9.3767786e+1, 1.1242593e+1, -149297.13, -750130.2, -193.51228, 0.00007252199, 0.00013042985, -149297.06, -149297.06, 0.0, 2.5004735, 2.4984846 
9.3767786e+1, 1.374108e+1, -148895.39, -749522.94, 129.37639, 0.000057593854, 0.000032321717, -148895.38, -148895.38, 0.0, 2.5004737, 2.4984856 
9.3767786e+1, 1.6239567e+1, -148750.31, -749447.3, 167.10995, 0.000047643265, -0.00006261159, -148750.27, -148750.27, 0.0, 2.500474, 2.4984856 
9.3767786e+1, 1.8738054e+1, -148606.17, -749372.2, 204.85016, 0.00004299206, -0.00015393432, -148606.11, -148606.11, 0.0, 2.5004742, 2.4984856 
9.3767786e+1, 2.123662e+1, -106509.79, -662043.1, -229.75218, 0.00013758628, 0.0000986228, -106509.695, -106509.695, 0.0, 2.5004745, 2.4986353 
9.3767786e+1, 2.3735258e+1, -106078.18, -661043.5, 281.7974, 0.000013572465, 0.000026488447, -106078.04, -106078.04, 0.0, 2.5004745, 2.498637 
9.3767774e+1, 2.6233897e+1, -106137.11, -661060.25, 282.7902, -0.0001073626, -0.000043297863, -106136.97, -106136.97, 0.0, 2.5004742, 2.498637 
9.3767774e+1, 2.8732535e+1, -106197.516, -661077.75, 283.80145, -0.00022440929, -0.00010911053, -106197.375, -106197.375, 0.0, 2.5004742, 2.498637 
9.3767774e+1, 3.123125e+1, -64521.258, -574433.44, -281.14816, -0.00003210396, 0.00022741912, -64521.1, -64521.1, 0.0, 2.500474, 2.4987857 
9.3767774e+1, 3.373004e+1, -63728.867, -572930.6, 347.5126, 0.0000036639385, 0.00007167494, -63728.63, -63728.63, 0.0, 2.5004742, 2.498788 
9.3767774e+1, 3.622883e+1, -63629.695, -572866.56, 396.59723, 0.000042078325, -0.000084316416, -63629.387, -63629.387, 0.0, 2.5004745, 2.4987884 
9.3767786e+1, 3.8727614e+1, -63531.746, -572803.06, 445.7356, 0.00008483389, -0.0002374067, -63531.355, -63531.355, 0.0, 2.5004745, 2.4987884 
9.3767774e+1, 4.1226482e+1, -21890.385, -486488.84, -22.77486, 0.00020983389, 0.00018457821, -21890.383, -21890.383, 0.0, 2.5004747, 2.4989362 
9.3767774e+1, 4.3725422e+1, -20893.1, -484545.44, 427.68842, 0.00005916875, 0.000044381486, -20892.705, -20892.705, 0.0, 2.500475, 2.4989395 
9.3767774e+1, 4.6224362e+1, -20803.688, -484484.1, 476.48453, -0.00008562885, -0.00009775307, -20803.197, -20803.197, 0.0, 2.500475, 2.4989395 
9.3767774e+1, 4.87233e+1, -20716.492, -484423.8, 525.1551, -0.00022302622, -0.0002366446, -20715.896, -20715.896, 0.0, 2.5004752, 2.4989398 
9.3767774e+1, 5.122232e+1, 20591.553, -398545.78, 443.96567, -0.00008099457, 0.000308517, 20592.021, 20592.021, 0.0, 2.5004752, 2.499087 
9.3767774e+1, 5.372141e+1, 21685.826, -396215.25, 476.87125, 0.000013263018, 0.0001117673, 21686.37, 21686.37, 0.0, 2.500475, 2.4990911 
9.3767774e+1, 5.6220496e+1, 21659.893, -396209.84, 526.8918, 0.00010983735, -0.00009109157, 21660.557, 21660.557, 0.0, 2.500475, 2.4990911 
9.3767774e+1, 5.871959e+1, 21631.957, -396205.4, 576.58685, 0.00021038628, -0.00029239632, 21632.754, 21632.754, 0.0, 2.500475, 2.4990911 
9.3767786e+1, 6.1218756e+1, 62814.8, -310768.78, 962.12366, 0.00019111561, 0.00030095546, 62817.277, 62817.277, 0.0, 2.500475, 2.4992378 
9.3767774e+1, 6.3718e+1, 64267.586, -308046.2, 426.2339, 0.000028277635, 0.00001488109, 64268.074, 64268.074, 0.0, 2.5004754, 2.4992423 
9.3767774e+1, 6.621724e+1, 64459.38, -307939.06, 501.64285, -0.00012852262, -0.0002813705, 64460.055, 64460.055, 0.0, 2.5004756, 2.4992423 
9.3767774e+1, 6.871648e+1, 64648.543, -307833.2, 576.83167, -0.00027941365, -0.0005775994, 64649.438, 64649.438, 0.0, 2.500476, 2.4992423 
9.3767786e+1, 7.1215796e+1, 105704.914, -222623.0, 1668.455, -0.000073872514, 0.0003631289, 105713.39, 105713.39, 0.0, 2.5004761, 2.4993885 
9.3767786e+1, 7.371519e+1, 107048.14, -219645.95, 440.82074, 0.00017507386, 0.00021828129, 107048.734, 107048.734, 0.0, 2.500476, 2.4993937 
9.3767786e+1, 7.621458e+1, 106936.07, -219685.77, 495.03683, 0.00043267373, 0.000055917393, 106936.82, 106936.82, 0.0, 2.5004756, 2.4993937 
9.3767786e+1, 7.871397e+1, 106820.12, -219727.44, 548.6725, 0.00070074265, -0.00010822804, 106821.04, 106821.04, 0.0, 2.5004754, 2.4993937 
9.3767786e+1, 8.121345e+1, 147756.66, -134892.81, 2205.2964, -0.00007545778, 0.0005147509, 147773.86, 147773.86, 0.0, 2.5004756, 2.4995394 
9.3767774e+1, 8.3712983e+1, 149596.61, -131410.3, 263.41046, -0.00031764098, -0.00009763607, 149596.86, 149596.86, 0.0, 2.5004761, 2.499545 
9.376777e+1, 8.621252e+1, 149810.53, -131294.66, 296.6665, -0.00054187037, -0.0007249083, 149810.84, 149810.84, 0.0, 2.5004764, 2.499545 
9.376776e+1, 8.8712066e+1, 150018.56, -131181.84, 329.3317, -0.0007597105, -0.001352529, 150018.95, 150018.95, 0.0, 2.5004766, 2.4995453 
9.376779e+1, 9.12117e+1, 190798.47, -46668.863, 2838.824, 0.00097442995, 0.00096412544, 190832.4, 190832.4, 0.0, 2.5004768, 2.4996903 
9.3767786e+1, 9.3711394e+1, 192372.98, -42907.64, 60.903336, 0.00053778075, 0.0005313245, 192373.0, 192373.0, 0.0, 2.5004764, 2.499697 
9.376777e+1, 9.621108e+1, 192058.19, -43047.707, 79.326584, 0.00010383692, 0.000049170085, 192058.22, 192058.22, 0.0, 2.500476, 2.499697 
9.376776e+1, 9.871077e+1, 191730.84, -43193.82, 97.23212, -0.0002971789, -0.00043869106, 191730.89, 191730.89, 0.0, 2.5004752, 2.499697 
9.6268255e+1, 1.2491684e+0, -190950.8, -837299.25, -61.579723, -0.00003836648, -0.000015448382, -190950.8, -190950.8, 0.0, 2.5004742, 2.498335 
9.6268255e+1, 3.7475055e+0, -191310.25, -837844.8, -5.8512764, -0.00003504851, -0.000045754794, -191310.25, -191310.25, 0.0, 2.500474, 2.498334 
9.6268255e+1, 6.245842e+0, -191436.39, -837903.25, -0.53939486, -0.00003391841, -0.00007527326, -191436.39, -191436.39, 0.0, 2.5004737, 2.498334 
9.6268255e+1, 8.744179e+0, -191564.08, -837962.4, 4.758755, -0.000034976092, -0.00010400394, -191564.08, -191564.08, 0.0, 2.5004735, 2.498334 
9.6268255e+1, 1.1242593e+1, -149253.45, -750038.2, -173.30469, 0.00006221198, 0.00005015103, -149253.4, -149253.4, 0.0, 2.5004735, 2.4984848 
9.6268255e+1, 1.374108e+1, -148845.23, -749418.25, 163.11873, 0.00000997217, 0.0000093002855, -148845.2, -148845.2, 0.0, 2.5004737, 2.4984856 
9.6268255e+1, 1.6239569e+1, -148699.3, -749341.7, 203.38297, -0.000041989493, -0.000028620636, -148699.23, -148699.23, 0.0, 2.500474, 2.4984858 
9.6268255e+1, 1.8738057e+1, -148554.31, -749265.56, 243.65385, -0.00009333798, -0.00006317333, -148554.22, -148554.22, 0.0, 2.5004742, 2.4984858 
9.6268255e+1, 2.1236622e+1, -106549.41, -662123.06, -253.7536, 0.000014364622, 0.00019661759, -106549.29, -106549.29, 0.0, 2.5004745, 2.498635 
9.6268255e+1, 2.373526e+1, -106097.48, -661082.06, 259.86862, -0.00003683353, 0.000057637582, -106097.36, -106097.36, 0.0, 2.5004745, 2.498637 
9.6268255e+1, 2.62339e+1, -106154.94, -661096.56, 263.7129, -0.00009011724, -0.0000793633, -106154.81, -106154.81, 0.0, 2.5004742, 2.498637 
9.6268255e+1, 2.8732535e+1, -106213.87, -661111.75, 267.57565, -0.00014466942, -0.00021268785, -106213.734, -106213.734, 0.0, 2.5004742, 2.498637 
9.626825e+1, 3.123125e+1, -64497.75, -574369.8, -296.2203, 0.000036778652, 0.00010301036, -64497.58, -64497.58, 0.0, 2.500474, 2.4987857 
9.6268255e+1, 3.3730042e+1, -63670.332, -572794.4, 363.8861, 0.00001594462, -0.000011115798, -63670.07, -63670.07, 0.0, 2.5004742, 2.4987884 
9.6268255e+1, 3.622883e+1, -63570.58, -572729.25, 415.26578, -0.000006770832, -0.00012559419, -63570.24, -63570.24, 0.0, 2.5004745, 2.4987886 
9.6268255e+1, 3.872762e+1, -63472.047, -572664.75, 466.6992, -0.000029782334, -0.00023733445, -63471.617, -63471.617, 0.0, 2.5004745, 2.4987886 
9.6268255e+1, 4.1226485e+1, -21905.75, -486506.03, -16.35772, 0.000090150825, 0.0002304482, -21905.75, -21905.75, 0.0, 2.5004747, 2.4989362 
9.626825e+1, 4.3725425e+1, -20838.193, -484418.53, 440.36255, -0.0000013603661, 0.000081722406, -20837.775, -20837.775, 0.0, 2.500475, 2.4989398 
9.626825e+1, 4.6224365e+1, -20747.055, -484355.5, 492.22794, -0.000094017254, -0.000070435744, -20746.531, -20746.531, 0.0, 2.500475, 2.4989398 
9.626825e+1, 4.8723304e+1, -20658.133, -484293.53, 543.9678, -0.00018629969, -0.00022058364, -20657.494, -20657.494, 0.0, 2.5004752, 2.4989398 
9.626825e+1, 5.122232e+1, 20552.064, -398595.53, 393.9432, -0.000052612304, 0.0003353687, 20552.434, 20552.434, 0.0, 2.500475, 2.4990869 
9.626825e+1, 5.372141e+1, 21726.873, -396100.44, 457.81775, 0.000010853577, 0.00011957663, 21727.375, 21727.375, 0.0, 2.500475, 2.4990914 
9.626825e+1, 5.62205e+1, 21703.285, -396093.16, 510.46228, 0.0000707873, -0.00010440435, 21703.908, 21703.908, 0.0, 2.500475, 2.4990914 
9.626825e+1, 5.8719593e+1, 21677.695, -396086.88, 562.7813, 0.0001286693, -0.00032863213, 21678.453, 21678.453, 0.0, 2.500475, 2.4990914 
9.6268255e+1, 6.121876e+1, 62812.74, -310749.78, 994.5382, 0.000081277605, 0.0003053611, 62815.387, 62815.387, 0.0, 2.500475, 2.4992378 
9.626825e+1, 6.3718003e+1, 64358.934, -307834.56, 461.7724, -0.000033814744, 0.00007546517, 64359.508, 64359.508, 0.0, 2.5004754, 2.4992425 
9.626825e+1, 6.621725e+1, 64551.496, -307727.28, 539.79285, -0.00014813192, -0.00016572766, 64552.277, 64552.277, 0.0, 2.5004756, 2.4992425 
9.626825e+1, 6.8716484e+1, 64741.43, -307621.28, 617.5931, -0.0002621816, -0.00040771381, 64742.453, 64742.453, 0.0, 2.500476, 2.4992428 
9.6268255e+1, 7.12158e+1, 105683.38, -222644.9, 1629.38, -0.00010989313, 0.00055864104, 105691.47, 105691.47, 0.0, 2.5004761, 2.4993885 
9.6268255e+1, 7.3715204e+1, 107101.21, -219514.84, 398.63504, 0.00011390548, 0.0003468594, 107101.695, 107101.695, 0.0, 2.500476, 2.499394 
9.6268255e+1, 7.6214594e+1, 106989.11, -219556.78, 455.45566, 0.00034000573, 0.00011705209, 106989.74, 106989.74, 0.0, 2.5004756, 2.499394 
9.6268255e+1, 7.8713983e+1, 106873.125, -219600.58, 511.69583, 0.000569436, -0.00011461373, 106873.92, 106873.92, 0.0, 2.5004754, 2.499394 
9.6268255e+1, 8.1213456e+1, 147706.22, -134986.88, 2278.1497, -0.00018967912, 0.0005331877, 147724.58, 147724.58, 0.0, 2.5004756, 2.4995391 
9.626825e+1, 8.371299e+1, 149620.38, -131350.33, 309.81638, -0.00035818154, -0.000013091256, 149620.72, 149620.72, 0.0, 2.500476, 2.4995453 
9.626824e+1, 8.6212534e+1, 149832.28, -131238.95, 345.79874, -0.0005168888, -0.00057316123, 149832.7, 149832.7, 0.0, 2.5004764, 2.4995453 
9.626824e+1, 8.871207e+1, 150038.31, -131130.42, 381.19025, -0.000677388, -0.0011321256, 150038.83, 150038.83, 0.0, 2.5004766, 2.4995453 
9.6268266e+1, 9.1211706e+1, 190833.0, -46616.74, 2803.169, 0.0007365058, 0.0012778142, 190866.1, 190866.1, 0.0, 2.5004768, 2.4996903 
9.6268255e+1, 9.37114e+1, 192430.75, -42803.707, -7.7026143, 0.00036007917, 0.0007595304, 192430.75, 192430.75, 0.0, 2.5004764, 2.4996972 
9.626824e+1, 9.621109e+1, 192109.23, -42953.844, 19.881243, -0.00002868688, 0.0001944789, 192109.23, 192109.23, 0.0, 2.500476, 2.4996972 
9.6268237e+1, 9.871079e+1, 191775.17, -43110.02, 46.947407, -0.00040530652, -0.00037216628, 191775.17, 191775.17, 0.0, 2.5004752, 2.4996972 
9.876873e+1, 1.2491683e+0, -191481.22, -837569.0, -111.34692, -0.000110350404, -0.000029609277, -191481.2, -191481.2, 0.0, 2.5004733, 2.4983346 
9.876873e+1, 3.747505e+0, -191787.95, -838100.3, -98.53333, -0.000077179415, -0.00008849172, -191787.94, -191787.94, 0.0, 2.5004733, 2.498334 
9.876873e+1, 6.2458414e+0, -191901.78, -838152.0, -130.64996, -0.000053489, -0.00014692516, -191901.77, -191901.77, 0.0, 2.500473, 2.498334 
9.876873e+1, 8.744178e+0, -192065.03, -838227.56, -164.27917, -0.000039279064, -0.00020490978, -192064.98, -192064.98, 0.0, 2.5004728, 2.498334 
9.876873e+1, 1.12425916e+1, -149710.2, -750206.44, -334.1608, 0.000055025186, -0.0000269031, -149710.02, -149710.02, 0.0, 2.5004728, 2.4984848 
9.876873e+1, 1.3741082e+1, -149239.81, -749530.7, -24.295135, -0.000035725167, -0.000014642976, -149239.81, -149239.81, 0.0, 2.500473, 2.4984858 
9.876873e+1, 1.623957e+1, -149080.06, -749446.94, -23.330868, -0.0001308197, 0.00000026979487, -149080.06, -149080.06, 0.0, 2.5004733, 2.4984858 
9.876873e+1, 1.8738058e+1, -148953.84, -749379.4, -23.076838, -0.00022989769, 0.000018301294, -148953.84, -148953.84, 0.0, 2.5004735, 2.4984858 
9.876873e+1, 2.1236624e+1, -107055.81, -662455.3, -633.0019, -0.000108540706, 0.00029745244, -107055.086, -107055.086, 0.0, 2.5004737, 2.4986348 
9.876873e+1, 2.373526e+1, -106548.836, -661331.94, -176.95299, -0.000088682275, 0.000087305234, -106548.78, -106548.78, 0.0, 2.5004735, 2.498637 
9.876873e+1, 2.62339e+1, -106620.09, -661351.7, -235.26071, -0.000075946315, -0.000121294266, -106620.0, -106620.0, 0.0, 2.5004735, 2.498637 
9.876873e+1, 2.8732535e+1, -106728.984, -661389.5, -298.53107, -0.00006950488, -0.0003265041, -106728.82, -106728.82, 0.0, 2.5004733, 2.498637 
9.876873e+1, 3.123125e+1, -64992.637, -574588.75, -926.4003, 0.00010937607, -0.000019174484, -64990.953, -64990.953, 0.0, 2.5004733, 2.498786 
9.876873e+1, 3.3730042e+1, -64068.207, -572881.2, -286.87042, 0.000030863994, -0.00009506794, -64068.047, -64068.047, 0.0, 2.5004735, 2.4987886 
9.876873e+1, 3.622883e+1, -63967.69, -572815.06, -294.37622, -0.000053990127, -0.00017150823, -63967.52, -63967.52, 0.0, 2.5004735, 2.4987888 
9.876873e+1, 3.872762e+1, -63912.438, -572770.8, -308.147, -0.00014364657, -0.0002453545, -63912.25, -63912.25, 0.0, 2.5004737, 2.4987888 
9.876873e+1, 4.1226485e+1, -22455.498, -486805.1, -885.9649, -0.00003400139, 0.00027726826, -22453.807, -22453.807, 0.0, 2.5004737, 2.4989362 
9.876873e+1, 4.3725425e+1, -21308.76, -484548.44, -520.1323, -0.00006710018, 0.00011665496, -21308.176, -21308.176, 0.0, 2.500474, 2.49894 
9.876873e+1, 4.6224368e+1, -21274.613, -484512.13, -568.9344, -0.00010813926, -0.000048955357, -21273.916, -21273.916, 0.0, 2.500474, 2.49894 
9.876873e+1, 4.8723307e+1, -21299.686, -484504.34, -626.15814, -0.00015565129, -0.00021375685, -21298.838, -21298.838, 0.0, 2.500474, 2.49894 
9.876873e+1, 5.1222324e+1, 19769.1, -399034.84, -948.082, -0.00002454406, 0.00036528468, 19771.246, 19771.246, 0.0, 2.5004737, 2.4990869 
9.876873e+1, 5.3721416e+1, 21091.758, -396315.34, -932.8402, 0.0000073398883, 0.00012699545, 21093.844, 21093.844, 0.0, 2.5004737, 2.4990914 
9.876873e+1, 5.622051e+1, 21042.494, -396319.84, -971.32574, 0.000030036195, -0.00012167593, 21044.754, 21044.754, 0.0, 2.5004737, 2.4990916 
9.876873e+1, 5.87196e+1, 20913.45, -396362.78, -1018.27313, 0.000044917408, -0.0003723516, 20915.934, 20915.934, 0.0, 2.5004735, 2.4990916 
9.876873e+1, 6.121876e+1, 61938.324, -311180.78, -647.10486, -0.000034621462, 0.00031122586, 61939.445, 61939.445, 0.0, 2.5004735, 2.4992378 
9.876873e+1, 6.371801e+1, 63617.37, -308028.03, -1285.6671, -0.000101914644, 0.00013399834, 63621.82, 63621.82, 0.0, 2.5004737, 2.499243 
9.8768723e+1, 6.621725e+1, 63759.063, -307945.6, -1314.592, -0.00017341146, -0.000055755874, 63763.71, 63763.71, 0.0, 2.500474, 2.499243 
9.8768723e+1, 6.871649e+1, 63823.637, -307900.25, -1344.1831, -0.0002500462, -0.00024708954, 63828.496, 63828.496, 0.0, 2.5004742, 2.499243 
9.876873e+1, 7.1215814e+1, 104608.56, -223200.08, -496.76425, -0.00015331489, 0.00075562764, 104609.31, 104609.31, 0.0, 2.5004742, 2.4993885 
9.876873e+1, 7.3715204e+1, 106178.09, -219857.19, -1785.1763, 0.00004650471, 0.0004741964, 106187.87, 106187.87, 0.0, 2.5004742, 2.4993942 
9.876873e+1, 7.62146e+1, 106030.164, -219918.55, -1778.1168, 0.00024258335, 0.00017407355, 106039.87, 106039.87, 0.0, 2.5004737, 2.4993942 
9.876873e+1, 7.871399e+1, 105779.336, -220029.47, -1766.0364, 0.00043514068, -0.00012796826, 105788.91, 105788.91, 0.0, 2.5004735, 2.4993942 
9.876873e+1, 8.121346e+1, 146476.92, -135668.64, 80.425385, -0.00031343137, 0.00055145094, 146476.94, 146476.94, 0.0, 2.5004735, 2.499539 
9.8768723e+1, 8.3712995e+1, 148557.11, -131816.06, -1935.486, -0.0004059141, 0.000068150795, 148570.47, 148570.47, 0.0, 2.5004742, 2.4995453 
9.8768723e+1, 8.621254e+1, 148712.39, -131735.23, -1908.1744, -0.0004962216, -0.00042802966, 148725.38, 148725.38, 0.0, 2.5004745, 2.4995453 
9.876872e+1, 8.8712084e+1, 148724.23, -131723.52, -1874.2849, -0.0005960707, -0.0009217069, 148736.77, 148736.77, 0.0, 2.5004745, 2.4995453 
9.8768735e+1, 9.1211724e+1, 189518.33, -47243.67, 504.99637, 0.00047239286, 0.0015966321, 189519.4, 189519.4, 0.0, 2.5004747, 2.4996903 
9.876873e+1, 9.371141e+1, 191320.4, -43263.953, -2264.8408, 0.00015970673, 0.000985615, 191342.27, 191342.27, 0.0, 2.5004745, 2.4996972 
9.8768723e+1, 9.62111e+1, 190933.13, -43452.46, -2131.2039, -0.00017930163, 0.00033001872, 190952.5, 190952.5, 0.0, 2.5004737, 2.4996972 
9.8768705e+1, 9.8710793e+1, 190310.08, -43754.504, -1985.9012, -0.00052627304, -0.00032318113, 190326.92, 190326.92, 0.0, 2.5004728, 2.4996972 
1.0126921e+2, 1.2491683e+0, -191491.1, -837664.0, -71.639366, 0.000018645867, -0.000026713129, -191491.1, -191491.1, 0.0, 2.5004735, 2.4983346 
1.0126921e+2, 3.7475047e+0, -191616.19, -838119.6, -21.291954, 0.0000240197, -0.00007956402, -191616.19, -191616.19, 0.0, 2.5004737, 2.4983337 
1.0126921e+2, 6.2458414e+0, -191495.64, -838062.94, -6.0475407, 0.00003934139, -0.00013164691, -191495.64, -191495.64, 0.0, 2.500474, 2.4983337 
1.0126921e+2, 8.744178e+0, -191376.33, -838006.8, 9.143943, 0.00006461106, -0.00018296197, -191376.33, -191376.33, 0.0, 2.500474, 2.4983337 
1.012692e+2, 1.12425916e+1, -148980.17, -749973.1, -119.45226, 0.00015407897, 0.000006221105, -148980.16, -148980.16, 0.0, 2.5004742, 2.4984846 
1.012692e+2, 1.374108e+1, -148810.89, -749437.1, 184.88991, 0.00004155788, 0.00002493456, -148810.84, -148810.84, 0.0, 2.500474, 2.4984856 
1.012692e+2, 1.6239569e+1, -148926.61, -749492.5, 175.68417, -0.000064833024, 0.000044988188, -148926.56, -148926.56, 0.0, 2.5004737, 2.4984856 
1.012692e+2, 1.8738058e+1, -149042.75, -749548.0, 166.0228, -0.00016474408, 0.00006685909, -149042.7, -149042.7, 0.0, 2.5004735, 2.4984856 
1.012692e+2, 2.1236622e+1, -107224.414, -662714.0, -380.0171, -0.000029964332, 0.00034700191, -107224.16, -107224.16, 0.0, 2.5004735, 2.4986346 
1.012692e+2, 2.373526e+1, -106522.81, -661493.9, 163.00594, -0.000004116158, 0.0001369612, -106522.766, -106522.766, 0.0, 2.5004737, 2.4986365 
1.012692e+2, 2.6233897e+1, -106378.484, -661428.06, 193.15071, 0.000029801164, -0.00007111928, -106378.42, -106378.42, 0.0, 2.500474, 2.4986365 
1.012692e+2, 2.8732532e+1, -106234.67, -661362.5, 222.14505, 0.00007267688, -0.0002753976, -106234.586, -106234.586, 0.0, 2.5004745, 2.4986365 
1.012692e+2, 3.1231248e+1, -64337.05, -574550.4, -344.33554, 0.00023057351, 0.000035306224, -64336.82, -64336.82, 0.0, 2.5004747, 2.4987853 
1.012692e+2, 3.373004e+1, -63573.17, -572872.0, 307.31784, 0.00010375541, -0.000050891584, -63572.99, -63572.99, 0.0, 2.5004745, 2.498788 
1.012692e+2, 3.622883e+1, -63635.582, -572905.25, 311.63123, -0.000013328613, -0.00013583334, -63635.39, -63635.39, 0.0, 2.5004745, 2.498788 
1.012692e+2, 3.8727614e+1, -63699.85, -572939.4, 315.17487, -0.000119257085, -0.00021631306, -63699.656, -63699.656, 0.0, 2.5004742, 2.498788 
1.012692e+2, 4.1226482e+1, -22430.4, -487147.0, -192.2187, -0.0000069891144, 0.00029654734, -22430.32, -22430.32, 0.0, 2.5004742, 2.4989355 
1.012692e+2, 4.3725422e+1, -21235.377, -484789.75, 261.62787, -0.000009111065, 0.00010505941, -21235.229, -21235.229, 0.0, 2.5004745, 2.4989393 
1.012692e+2, 4.6224362e+1, -21161.85, -484755.22, 298.3236, 0.000002059, -0.00008801721, -21161.658, -21161.658, 0.0, 2.5004745, 2.4989393 
1.012692e+2, 4.87233e+1, -21090.613, -484721.8, 336.1561, 0.00002796994, -0.00027679707, -21090.371, -21090.371, 0.0, 2.5004747, 2.4989393 
1.012692e+2, 5.122232e+1, 20106.445, -399309.9, 114.87059, 0.00013684343, 0.0002964301, 20106.479, 20106.479, 0.0, 2.5004747, 2.499086 
1.012692e+2, 5.372141e+1, 21574.46, -396419.06, 217.36147, 0.00010469541, 0.000034920253, 21574.574, 21574.574, 0.0, 2.500475, 2.4990907 
1.012692e+2, 5.6220496e+1, 21669.852, -396373.9, 261.54556, 0.00009382175, -0.0002312064, 21670.016, 21670.016, 0.0, 2.5004752, 2.4990907 
1.012692e+2, 5.871959e+1, 21760.475, -396331.06, 305.74487, 0.000105315, -0.00049336476, 21760.697, 21760.697, 0.0, 2.5004754, 2.4990907 
1.012692e+2, 6.1218756e+1, 62652.59, -311253.03, 799.7074, 0.00003238943, 0.00018328003, 62654.3, 62654.3, 0.0, 2.5004752, 2.4992368 
1.012692e+2, 6.3718e+1, 64214.92, -308026.7, 255.87547, 0.000008717094, -0.00003649604, 64215.098, 64215.098, 0.0, 2.5004752, 2.4992423 
1.012692e+2, 6.621724e+1, 64227.234, -308017.22, 303.20398, 0.0000069462003, -0.00026501977, 64227.48, 64227.48, 0.0, 2.5004752, 2.4992423 
1.012692e+2, 6.871648e+1, 64235.047, -308009.9, 348.826, 0.000025952024, -0.0004911139, 64235.37, 64235.37, 0.0, 2.5004752, 2.4992423 
1.012692e+2, 7.12158e+1, 104979.68, -223379.7, 1276.7557, 0.000048192953, 0.00050304766, 104984.64, 104984.64, 0.0, 2.5004752, 2.4993877 
1.012692e+2, 7.371519e+1, 106867.41, -219778.61, 25.570454, 0.00018057211, 0.00018540959, 106867.41, 106867.41, 0.0, 2.5004756, 2.4993937 
1.012692e+2, 7.621458e+1, 107066.37, -219681.48, 54.101902, 0.00034094256, -0.00014891988, 107066.38, 107066.38, 0.0, 2.500476, 2.4993937 
1.012692e+2, 7.871397e+1, 107261.59, -219586.17, 73.78983, 0.0005283178, -0.0004828197, 107261.61, 107261.61, 0.0, 2.5004764, 2.4993937 
1.012692e+2, 8.121345e+1, 147848.22, -135226.4, 2004.4001, -0.00014013241, 0.00018889067, 147862.42, 147862.42, 0.0, 2.5004761, 2.4995384 
1.012692e+2, 8.3712983e+1, 149648.4, -131418.33, -18.569895, -0.00015729554, -0.00030827214, 149648.4, 149648.4, 0.0, 2.5004761, 2.499545 
1.0126919e+2, 8.621252e+1, 149604.7, -131428.52, -2.5705242, -0.0001276295, -0.0008249504, 149604.7, 149604.7, 0.0, 2.5004761, 2.499545 
1.0126919e+2, 8.8712066e+1, 149553.45, -131442.34, 10.243164, -0.00006212717, -0.0013456149, 149553.45, 149553.45, 0.0, 2.500476, 2.499545 
1.01269215e+2, 9.1211706e+1, 190169.14, -46924.766, 2389.6392, 0.00062150345, 0.0012264567, 190193.22, 190193.22, 0.0, 2.500476, 2.4996903 
1.012692e+2, 9.3711394e+1, 192379.23, -42721.6, -529.74005, 0.00033921856, 0.0005833363, 192380.42, 192380.42, 0.0, 2.5004761, 2.4996974 
1.0126919e+2, 9.621108e+1, 192615.94, -42593.9, -566.0622, 0.000104024315, -0.00011907265, 192617.31, 192617.31, 0.0, 2.5004766, 2.4996974 
1.01269186e+2, 9.8710775e+1, 192835.03, -42474.69, -603.1873, -0.00007292831, -0.0008325708, 192836.58, 192836.58, 0.0, 2.500477, 2.4996974 
1.0376968e+2, 1.2491684e+0, -191440.39, -837591.0, -33.86301, 0.000014012523, -0.000016303413, -191440.39, -191440.39, 0.0, 2.5004735, 2.4983346 
1.0376968e+2, 3.7475055e+0, -191567.94, -838050.56, 10.658541, 0.0000063753546, -0.000048358936, -191567.94, -191567.94, 0.0, 2.5004737, 2.4983337 
1.0376968e+2, 6.245842e+0, -191448.03, -837993.94, 29.459738, 0.0000024018336, -0.00007967854, -191448.03, -191448.03, 0.0, 2.500474, 2.4983337 
1.0376968e+2, 8.744179e+0, -191329.4, -837937.94, 48.378754, 0.0000020920827, -0.00011026241, -191329.39, -191329.39, 0.0, 2.5004742, 2.4983337 
1.0376968e+2, 1.1242593e+1, -148969.58, -749986.5, -144.75484, 0.00007561142, 0.0000598455, -148969.53, -148969.53, 0.0, 2.5004742, 2.4984846 
1.0376968e+2, 1.3741082e+1, -148798.38, -749451.8, 160.70073, 0.0000021511053, 0.0000265342, -148798.33, -148798.33, 0.0, 2.500474, 2.4984856 
1.03769675e+2, 1.6239569e+1, -148911.44, -749506.25, 156.66974, -0.00006865857, -0.0000060694497, -148911.39, -148911.39, 0.0, 2.5004737, 2.4984856 
1.03769675e+2, 1.8738058e+1, -149025.3, -749561.1, 152.5992, -0.00013652747, -0.000037493795, -149025.27, -149025.27, 0.0, 2.5004735, 2.4984856 
1.03769675e+2, 2.1236622e+1, -107121.82, -662545.56, -331.89496, 0.000014647099, 0.00021772952, -107121.625, -107121.625, 0.0, 2.5004737, 2.4986348 
1.03769675e+2, 2.373526e+1, -106425.89, -661338.7, 225.3166, 0.000008069453, 0.00006926241, -106425.8, -106425.8, 0.0, 2.500474, 2.4986367 
1.03769675e+2, 2.62339e+1, -106279.336, -661271.5, 266.60495, 0.000005805717, -0.0000778793, -106279.21, -106279.21, 0.0, 2.5004742, 2.4986367 
1.03769675e+2, 2.8732535e+1, -106133.77, -661204.75, 307.87457, 0.00000882999, -0.00022199786, -106133.61, -106133.61, 0.0, 2.5004745, 2.4986367 
1.03769675e+2, 3.123125e+1, -64312.574, -574545.7, -286.01825, 0.00013153852, 0.00011666319, -64312.414, -64312.414, 0.0, 2.5004747, 2.4987853 
1.03769675e+2, 3.3730042e+1, -63518.63, -572803.56, 358.6098, 0.0000320666, 0.000012515035, -63518.375, -63518.375, 0.0, 2.5004745, 2.4987884 
1.03769675e+2, 3.622883e+1, -63580.54, -572835.75, 379.8657, -0.00006231625, -0.00009162101, -63580.254, -63580.254, 0.0, 2.5004745, 2.4987884 
1.03769675e+2, 3.872762e+1, -63644.066, -572868.7, 401.09973, -0.00015039596, -0.00019247133, -63643.75, -63643.75, 0.0, 2.5004742, 2.4987884 
1.03769675e+2, 4.1226485e+1, -22366.332, -487046.56, -81.09073, -0.000022846501, 0.0002832148, -22366.318, -22366.318, 0.0, 2.5004742, 2.4989355 
1.03769675e+2, 4.3725425e+1, -21133.287, -484605.84, 410.76645, -0.000009958252, 0.0000811967, -21132.922, -21132.922, 0.0, 2.5004745, 2.4989398 
1.03769675e+2, 4.6224365e+1, -21059.084, -484570.5, 466.0923, 0.000009894397, -0.00012330746, -21058.615, -21058.615, 0.0, 2.5004745, 2.4989398 
1.03769675e+2, 4.8723304e+1, -20986.73, -484536.06, 521.33716, 0.000038148424, -0.0003246123, -20986.145, -20986.145, 0.0, 2.5004747, 2.4989398 
1.03769675e+2, 5.122232e+1, 20151.582, -399233.84, 313.22818, 0.00010485072, 0.00026900644, 20151.814, 20151.814, 0.0, 2.500475, 2.499086 
1.03769675e+2, 5.372141e+1, 21673.096, -396230.7, 427.65735, 0.000057791, 0.00007153884, 21673.533, 21673.533, 0.0, 2.500475, 2.4990911 
1.03769675e+2, 5.62205e+1, 21768.457, -396184.6, 487.06137, 0.00002231592, -0.00013167913, 21769.025, 21769.025, 0.0, 2.5004752, 2.4990911 
1.03769675e+2, 5.8719593e+1, 21860.338, -396140.2, 546.2444, -0.00000090144897, -0.00033209284, 21861.053, 21861.053, 0.0, 2.5004754, 2.4990911 
1.03769675e+2, 6.121876e+1, 62678.563, -311212.4, 979.245, -0.00006218576, 0.00034579495, 62681.125, 62681.125, 0.0, 2.5004752, 2.4992368 
1.03769675e+2, 6.3718003e+1, 64312.97, -307849.44, 481.89883, -0.000018769073, 0.00006057381, 64313.59, 64313.59, 0.0, 2.5004752, 2.4992425 
1.03769675e+2, 6.621724e+1, 64332.41, -307838.13, 540.74677, 0.00003562173, -0.00023462698, 64333.2, 64333.2, 0.0, 2.5004752, 2.4992425 
1.03769675e+2, 6.8716484e+1, 64347.96, -307828.7, 599.202, 0.000099825236, -0.00052860077, 64348.926, 64348.926, 0.0, 2.5004752, 2.4992425 
1.0376968e+2, 7.12158e+1, 105036.49, -223317.58, 1551.0168, 0.000008842278, 0.00047427148, 105043.81, 105043.81, 0.0, 2.5004754, 2.4993877 
1.03769675e+2, 7.371519e+1, 106979.59, -219611.31, 340.73782, 0.000089085195, 0.0002330465, 106979.95, 106979.95, 0.0, 2.5004756, 2.499394 
1.03769675e+2, 7.6214594e+1, 107182.664, -219512.88, 394.3619, 0.00018365662, -0.000025481728, 107183.14, 107183.14, 0.0, 2.500476, 2.499394 
1.03769675e+2, 7.8713983e+1, 107379.89, -219417.25, 447.4649, 0.0002899847, -0.00028412795, 107380.5, 107380.5, 0.0, 2.5004764, 2.499394 
1.03769675e+2, 8.1213456e+1, 147959.28, -135089.75, 2302.677, -0.0002565925, 0.00039571075, 147978.02, 147978.02, 0.0, 2.5004764, 2.4995387 
1.03769675e+2, 8.371299e+1, 149784.39, -131246.03, 334.3746, -0.0001655592, -0.00013576724, 149784.78, 149784.78, 0.0, 2.5004764, 2.4995453 
1.03769675e+2, 8.6212534e+1, 149747.4, -131257.36, 383.71835, -0.00005127756, -0.0006850449, 149747.94, 149747.94, 0.0, 2.5004761, 2.4995453 
1.0376967e+2, 8.871207e+1, 149700.4, -131273.5, 432.3796, 0.00007682031, -0.0012367882, 149701.08, 149701.08, 0.0, 2.5004761, 2.4995453 
1.0376969e+2, 9.121172e+1, 190296.03, -46823.645, 2844.3115, 0.00031901558, 0.0013627167, 190330.16, 190330.16, 0.0, 2.500476, 2.4996905 
1.0376968e+2, 9.37114e+1, 192482.98, -42694.5, 8.213029, 0.00015279975, 0.00072606484, 192482.98, 192482.98, 0.0, 2.5004764, 2.4996972 
1.0376967e+2, 9.621109e+1, 192735.66, -42564.824, -2.392068, 0.0000097212705, 0.000033496377, 192735.66, 192735.66, 0.0, 2.5004768, 2.4996974 
1.0376966e+2, 9.871079e+1, 192973.42, -42442.33, -13.558444, -0.000107268774, -0.0006661536, 192973.42, 192973.42, 0.0, 2.5004773, 2.4996974 
1.0627016e+2, 1.2491687e+0, -191410.28, -837528.0, 3.303231, 0.000009592597, -0.000006530089, -191410.28, -191410.28, 0.0, 2.5004735, 2.4983346 
1.0627016e+2, 3.7475058e+0, -191540.78, -837992.7, 40.727844, -0.000010608344, -0.00001906308, -191540.78, -191540.78, 0.0, 2.5004737, 2.498334 
1.0627016e+2, 6.245843e+0, -191421.34, -837936.0, 61.691765, -0.000033429973, -0.00003089231, -191421.34, -191421.34, 0.0, 2.500474, 2.498334 
1.0627016e+2, 8.744181e+0, -191303.17, -837880.0, 82.773506, -0.000058872163, -0.000042017957, -191303.17, -191303.17, 0.0, 2.5004742, 2.498334 
1.0627016e+2, 1.1242594e+1, -148990.83, -750031.25, -175.80682, -0.0000034451696, 0.00011722178, -148990.78, -148990.78, 0.0, 2.5004742, 2.4984844 
1.0627016e+2, 1.3741082e+1, -148811.81, -749480.2, 127.17013, -0.000036876925, 0.000028097274, -148811.78, -148811.78, 0.0, 2.500474, 2.4984856 
1.0627016e+2, 1.6239569e+1, -148925.22, -749535.2, 125.25388, -0.00007113313, -0.00006097632, -148925.2, -148925.2, 0.0, 2.5004737, 2.4984856 
1.0627016e+2, 1.8738057e+1, -149039.44, -749590.6, 123.29809, -0.00010598749, -0.00014950897, -149039.42, -149039.42, 0.0, 2.5004735, 2.4984856 
1.0627015e+2, 2.1236622e+1, -107066.6, -662424.0, -305.75934, 0.000055908924, 0.00009188109, -107066.43, -107066.43, 0.0, 2.5004737, 2.498635 
1.0627016e+2, 2.373526e+1, -106362.79, -661200.8, 258.56097, 0.000017309825, 0.0000013624206, -106362.67, -106362.67, 0.0, 2.500474, 2.498637 
1.0627016e+2, 2.62339e+1, -106216.016, -661133.2, 301.9215, -0.00002070207, -0.000088531975, -106215.85, -106215.85, 0.0, 2.5004742, 2.498637 
1.0627016e+2, 2.8732535e+1, -106070.23, -661066.0, 345.26334, -0.000057096586, -0.00017618216, -106070.016, -106070.016, 0.0, 2.5004745, 2.498637 
1.0627015e+2, 3.123125e+1, -64338.06, -574586.94, -290.25073, 0.000036369365, 0.00020094244, -64337.895, -64337.895, 0.0, 2.5004747, 2.4987853 
1.0627015e+2, 3.3730042e+1, -63499.22, -572752.75, 335.67053, -0.000036189092, 0.00007609792, -63498.996, -63498.996, 0.0, 2.5004745, 2.4987884 
1.0627015e+2, 3.6228833e+1, -63559.832, -572783.44, 359.1942, -0.000108348366, -0.000050067258, -63559.58, -63559.58, 0.0, 2.5004745, 2.4987884 
1.0627015e+2, 3.872762e+1, -63622.063, -572814.94, 382.69604, -0.00017905739, -0.00017412168, -63621.773, -63621.773, 0.0, 2.5004742, 2.4987884 
1.0627015e+2, 4.1226485e+1, -22344.365, -486984.13, -91.74913, -0.000043847627, 0.00027315912, -22344.348, -22344.348, 0.0, 2.5004742, 2.4989357 
1.0627015e+2, 4.3725425e+1, -21058.693, -484435.84, 423.08362, -0.00001636369, 0.00005764501, -21058.307, -21058.307, 0.0, 2.5004745, 2.49894 
1.0627015e+2, 4.6224365e+1, -20983.021, -484399.28, 481.06015, 0.000011827979, -0.00016134861, -20982.523, -20982.523, 0.0, 2.5004745, 2.49894 
1.0627015e+2, 4.8723304e+1, -20909.2, -484363.63, 538.9558, 0.00004208203, -0.00037824086, -20908.572, -20908.572, 0.0, 2.5004747, 2.49894 
1.0627015e+2, 5.1222324e+1, 20158.14, -399197.0, 326.62994, 0.000077788354, 0.00024645546, 20158.395, 20158.395, 0.0, 2.5004747, 2.4990861 
1.0627015e+2, 5.3721416e+1, 21747.5, -396054.75, 444.64676, 0.000015495349, 0.00010976142, 21747.975, 21747.975, 0.0, 2.500475, 2.4990914 
1.0627015e+2, 5.622051e+1, 21844.719, -396006.78, 508.12866, -0.000045031327, -0.000033955374, 21845.336, 21845.336, 0.0, 2.5004752, 2.4990914 
1.0627015e+2, 5.87196e+1, 21938.457, -395960.5, 571.3895, -0.00010341015, -0.00017603113, 21939.238, 21939.238, 0.0, 2.5004754, 2.4990914 
1.0627015e+2, 6.121876e+1, 62665.41, -311212.97, 934.3262, -0.00016412765, 0.00051333406, 62667.746, 62667.746, 0.0, 2.5004752, 2.4992368 
1.0627015e+2, 6.371801e+1, 64379.11, -307688.3, 478.01462, -0.000052778047, 0.00015971952, 64379.723, 64379.723, 0.0, 2.5004752, 2.499243 
1.0627015e+2, 6.621725e+1, 64399.547, -307678.1, 540.9757, 0.000058749407, -0.00020525878, 64400.332, 64400.332, 0.0, 2.5004752, 2.499243 
1.0627015e+2, 6.8716484e+1, 64416.09, -307669.78, 603.5441, 0.00016912543, -0.0005702146, 64417.07, 64417.07, 0.0, 2.5004752, 2.499243 
1.0627016e+2, 7.1215814e+1, 105032.945, -223301.75, 1568.6448, -0.000033167278, 0.00044955433, 105040.44, 105040.44, 0.0, 2.5004752, 2.4993877 
1.0627016e+2, 7.3715204e+1, 107037.0, -219471.17, 386.62585, -0.000004317489, 0.000282327, 107037.45, 107037.45, 0.0, 2.5004756, 2.4993942 
1.0627015e+2, 7.62146e+1, 107241.19, -219372.81, 445.51202, 0.000025172045, 0.00009704979, 107241.8, 107241.8, 0.0, 2.500476, 2.4993942 
1.0627015e+2, 7.871399e+1, 107439.53, -219277.28, 503.8771, 0.000051171945, -0.00008889194, 107440.305, 107440.305, 0.0, 2.5004764, 2.4993942 
1.0627016e+2, 8.121346e+1, 147997.58, -135005.27, 2259.8499, -0.00037789092, 0.0006051731, 148015.63, 148015.63, 0.0, 2.5004764, 2.499539 
1.0627016e+2, 8.3712995e+1, 149849.14, -131108.89, 319.55746, -0.00017682737, 0.00003643695, 149849.5, 149849.5, 0.0, 2.5004764, 2.4995456 
1.0627015e+2, 8.621254e+1, 149810.83, -131125.2, 376.2713, 0.000023973986, -0.0005484983, 149811.33, 149811.33, 0.0, 2.5004761, 2.4995456 
1.0627015e+2, 8.8712084e+1, 149762.48, -131146.34, 432.30267, 0.00021657119, -0.0011343781, 149763.16, 149763.16, 0.0, 2.5004761, 2.4995456 
1.06270164e+2, 9.1211724e+1, 190315.83, -46799.043, 2860.7878, 0.0000060964417, 0.0015070232, 190350.34, 190350.34, 0.0, 2.500476, 2.4996905 
1.0627016e+2, 9.371141e+1, 192477.56, -42720.86, 91.1903, -0.000041521198, 0.00087262224, 192477.61, 192477.61, 0.0, 2.5004764, 2.4996972 
1.0627015e+2, 9.62111e+1, 192725.73, -42599.055, 92.25168, -0.0000897679, 0.00018541403, 192725.77, 192725.77, 0.0, 2.5004768, 2.4996972 
1.0627014e+2, 9.8710793e+1, 192958.97, -42484.434, 92.751785, -0.00014408765, -0.00050486857, 192959.0, 192959.0, 0.0, 2.5004773, 2.4996972 
1.0877063e+2, 1.24916874e+0, -191602.45, -837573.1, 24.875774, 0.0000069730377, 0.0000026035855, -191602.45, -191602.45, 0.0, 2.500473, 2.498335 
1.0877063e+2, 3.7475064e+0, -191642.31, -837998.75, 23.069683, -0.000025702266, 0.000008323492, -191642.31, -191642.31, 0.0, 2.5004735, 2.498334 
1.0877063e+2, 6.245844e+0, -191491.66, -837926.8, 13.519404, -0.000067056586, 0.000014727906, -191491.66, -191491.66, 0.0, 2.5004737, 2.498334 
1.0877063e+2, 8.7441814e+0, -191404.89, -837885.7, 3.468156, -0.000117089825, 0.00002181666, -191404.89, -191404.89, 0.0, 2.500474, 2.498334 
1.0877063e+2, 1.12425946e+1, -149157.2, -750163.1, -352.7442, -0.00008186839, 0.00017838374, -149157.0, -149157.0, 0.0, 2.500474, 2.4984844 
1.0877063e+2, 1.3741082e+1, -148921.64, -749557.4, -87.587265, -0.000074427335, 0.000029620442, -148921.63, -148921.63, 0.0, 2.5004737, 2.4984856 
1.0877063e+2, 1.6239569e+1, -149027.77, -749609.3, -123.22129, -0.000071167095, -0.0001197432, -149027.75, -149027.75, 0.0, 2.5004737, 2.4984856 
1.0877063e+2, 1.8738057e+1, -149166.83, -749677.1, -160.29797, -0.000071929484, -0.00026917495, -149166.78, -149166.78, 0.0, 2.5004735, 2.4984856 
1.0877063e+2, 2.123662e+1, -107134.72, -662387.44, -576.944, 0.000095002826, -0.00003056911, -107134.12, -107134.12, 0.0, 2.5004735, 2.498635 
1.0877063e+2, 2.373526e+1, -106375.62, -661102.06, -53.12642, 0.000024649002, -0.000066859444, -106375.62, -106375.62, 0.0, 2.5004737, 2.4986372 
1.0877063e+2, 2.62339e+1, -106228.625, -661034.06, -58.32871, -0.000048705002, -0.00010326133, -106228.62, -106228.62, 0.0, 2.500474, 2.4986372 
1.0877063e+2, 2.8732538e+1, -106115.16, -660982.2, -66.1428, -0.00012400189, -0.00013816607, -106115.15, -106115.15, 0.0, 2.5004742, 2.4986372 
1.08770624e+2, 3.1231254e+1, -64493.313, -574714.56, -805.3297, -0.000053809097, 0.00028786017, -64492.043, -64492.043, 0.0, 2.5004745, 2.498785 
1.08770624e+2, 3.3730045e+1, -63578.293, -572752.2, -266.19846, -0.00009992436, 0.00013945969, -63578.152, -63578.152, 0.0, 2.5004745, 2.4987884 
1.08770624e+2, 3.6228833e+1, -63652.48, -572788.75, -315.661, -0.00015025747, -0.000011668706, -63652.285, -63652.285, 0.0, 2.5004742, 2.4987884 
1.08770624e+2, 3.8727623e+1, -63761.125, -572841.9, -370.20108, -0.00020387601, -0.00016184566, -63760.855, -63760.855, 0.0, 2.500474, 2.4987884 
1.08770624e+2, 4.122649e+1, -22500.438, -487027.78, -918.6661, -0.000068632246, 0.00026567435, -22498.621, -22498.621, 0.0, 2.500474, 2.4989357 
1.08770624e+2, 4.372543e+1, -21125.555, -484337.34, -461.47525, -0.000027160346, 0.000033520886, -21125.096, -21125.096, 0.0, 2.5004742, 2.4989402 
1.08770624e+2, 4.6224368e+1, -21068.186, -484309.25, -488.59232, 0.000008985536, -0.00020320473, -21067.67, -21067.67, 0.0, 2.5004742, 2.4989402 
1.0877063e+2, 4.8723307e+1, -21058.324, -484304.03, -521.66284, 0.00004100766, -0.0004389308, -21057.736, -21057.736, 0.0, 2.5004742, 2.4989402 
1.0877063e+2, 5.1222324e+1, 19887.154, -399317.38, -843.63916, 0.000056940145, 0.00022736075, 19888.852, 19888.852, 0.0, 2.5004742, 2.4990861 
1.08770624e+2, 5.3721416e+1, 21535.342, -396020.66, -825.75574, -0.000020885915, 0.00014800852, 21536.975, 21536.975, 0.0, 2.5004745, 2.4990916 
1.08770624e+2, 5.622051e+1, 21546.951, -396013.06, -868.9692, -0.0001066744, 0.000060194594, 21548.76, 21548.76, 0.0, 2.5004745, 2.4990916 
1.08770624e+2, 5.87196e+1, 21489.066, -396038.97, -915.41504, -0.00020020764, -0.00002716854, 21491.074, 21491.074, 0.0, 2.5004745, 2.4990916 
1.08770624e+2, 6.1218774e+1, 62052.277, -311527.75, -725.0938, -0.00027139232, 0.0006836941, 62053.684, 62053.684, 0.0, 2.5004742, 2.4992368 
1.08770624e+2, 6.371801e+1, 63883.88, -307801.34, -1230.7058, -0.00009161793, 0.00025854423, 63887.953, 63887.953, 0.0, 2.5004742, 2.4992433 
1.0877063e+2, 6.6217256e+1, 63840.953, -307823.34, -1257.4926, 0.00007796173, -0.00017951909, 63845.207, 63845.207, 0.0, 2.5004742, 2.4992433 
1.0877063e+2, 6.871649e+1, 63704.75, -307890.28, -1287.9019, 0.00023571844, -0.0006187799, 63709.215, 63709.215, 0.0, 2.500474, 2.4992433 
1.0877063e+2, 7.1215814e+1, 104154.89, -223726.69, -402.91327, -0.00007593383, 0.00042589277, 104155.38, 104155.38, 0.0, 2.5004737, 2.4993877 
1.0877063e+2, 7.371521e+1, 106200.99, -219764.44, -1637.5244, -0.00009784079, 0.000330118, 106209.22, 106209.22, 0.0, 2.500474, 2.4993944 
1.08770624e+2, 7.62146e+1, 106254.695, -219739.23, -1649.8553, -0.00013241312, 0.00021539339, 106263.05, 106263.05, 0.0, 2.5004742, 2.4993944 
1.08770624e+2, 7.8713995e+1, 106185.41, -219773.27, -1657.1434, -0.00018530969, 0.00009943975, 106193.836, 106193.836, 0.0, 2.500474, 2.4993944 
1.0877063e+2, 8.121347e+1, 146610.89, -135625.34, -44.20835, -0.00050119765, 0.00081372226, 146610.9, 146610.9, 0.0, 2.500474, 2.499539 
1.0877063e+2, 8.3713007e+1, 148535.69, -131637.55, -1982.1069, -0.00018890582, 0.00020474174, 148549.72, 148549.72, 0.0, 2.500474, 2.4995458 
1.0877063e+2, 8.6212546e+1, 148350.66, -131728.9, -1940.8185, 0.00010023091, -0.00041898325, 148364.1, 148364.1, 0.0, 2.5004735, 2.4995458 
1.0877063e+2, 8.871209e+1, 147973.94, -131912.58, -1900.9296, 0.00035969028, -0.0010421624, 147986.84, 147986.84, 0.0, 2.500473, 2.4995458 
1.0877063e+2, 9.121173e+1, 188349.05, -47755.305, 557.39716, -0.0003146949, 0.0016556137, 188350.36, 188350.36, 0.0, 2.5004725, 2.4996905 
1.0877063e+2, 9.371142e+1, 190563.98, -43666.33, -2109.758, -0.00024158067, 0.0010194125, 190582.98, 190582.98, 0.0, 2.5004733, 2.4996972 
1.08770624e+2, 9.6211106e+1, 190627.13, -43639.395, -2060.9595, -0.00019193067, 0.00033322856, 190645.25, 190645.25, 0.0, 2.5004733, 2.4996972 
1.08770624e+2, 9.87108e+1, 190430.53, -43737.54, -2016.8181, -0.00017977829, -0.00035204634, 190447.9, 190447.9, 0.0, 2.500473, 2.4996972 
1.11271106e+2, 1.24916874e+0, -191213.03, -837442.2, 62.25815, 0.00013436399, 0.00000424169, -191213.02, -191213.02, 0.0, 2.5004737, 2.4983346 
1.11271106e+2, 3.747506e+0, -191536.75, -838006.1, 59.750404, 0.000057420224, 0.000014237705, -191536.73, -191536.73, 0.0, 2.5004737, 2.498334 
1.11271106e+2, 6.245843e+0, -191608.38, -838042.8, 59.548676, -0.0000041195008, 0.000026251419, -191608.38, -191608.38, 0.0, 2.5004735, 2.498334 
1.11271106e+2, 8.744181e+0, -191682.25, -838080.56, 58.72493, -0.00005025507, 0.000040282663, -191682.25, -191682.25, 0.0, 2.5004735, 2.498334 
1.11271106e+2, 1.12425946e+1, -149436.02, -750394.94, -244.1644, -0.000007051589, 0.00019583924, -149435.92, -149435.92, 0.0, 2.5004735, 2.4984841 
1.11271106e+2, 1.3741082e+1, -149024.52, -749705.44, 62.595287, -0.0000009904531, 0.00003690212, -149024.5, -149024.5, 0.0, 2.5004737, 2.4984853 
1.11271106e+2, 1.6239569e+1, -148928.27, -749668.0, 76.54701, 0.000012225157, -0.000120111945, -148928.25, -148928.25, 0.0, 2.500474, 2.4984853 
1.11271106e+2, 1.8738054e+1, -148833.63, -749631.3, 90.24098, 0.000032759464, -0.00027466792, -148833.61, -148833.61, 0.0, 2.500474, 2.498485 
1.11271106e+2, 2.1236618e+1, -106761.47, -662334.7, -270.51428, 0.00018396178, -0.00004418135, -106761.336, -106761.336, 0.0, 2.5004742, 2.4986348 
1.11271106e+2, 2.3735258e+1, -106269.76, -661168.06, 253.5078, 0.00008877792, -0.00007945302, -106269.64, -106269.64, 0.0, 2.500474, 2.498637 
1.11271106e+2, 2.62339e+1, -106371.4, -661231.06, 253.48584, 0.0000024248704, -0.00011185112, -106371.28, -106371.28, 0.0, 2.500474, 2.498637 
1.11271106e+2, 2.8732535e+1, -106474.99, -661294.94, 252.91055, -0.00007411344, -0.00013979747, -106474.875, -106474.875, 0.0, 2.5004737, 2.498637 
1.11271106e+2, 3.123125e+1, -64942.76, -575165.1, -402.23544, 0.000010650918, 0.0002847183, -64942.445, -64942.445, 0.0, 2.500474, 2.4987845 
1.11271106e+2, 3.3730042e+1, -63844.223, -573083.2, 191.161, -0.000022100327, 0.00011409212, -63844.152, -63844.152, 0.0, 2.5004742, 2.498788 
1.11271106e+2, 3.622883e+1, -63733.184, -573049.1, 217.90536, -0.000047441492, -0.000058070007, -63733.09, -63733.09, 0.0, 2.5004742, 2.4987879 
1.11271106e+2, 3.872762e+1, -63623.88, -573015.94, 244.03722, -0.00006437963, -0.00022804874, -63623.76, -63623.76, 0.0, 2.5004745, 2.4987879 
1.11271106e+2, 4.1226482e+1, -22244.348, -487215.66, -227.2048, 0.000042333944, 0.00018447354, -22244.238, -22244.238, 0.0, 2.5004747, 2.498935 
1.11271106e+2, 4.3725422e+1, -20980.88, -484522.25, 273.41098, 0.000054704728, -0.000051582392, -20980.72, -20980.72, 0.0, 2.5004747, 2.4989398 
1.11271106e+2, 4.6224362e+1, -21039.209, -484569.44, 293.80005, 0.00007769815, -0.00029230816, -21039.023, -21039.023, 0.0, 2.5004745, 2.4989398 
1.11271106e+2, 4.87233e+1, -21100.35, -484618.0, 314.2234, 0.00011223493, -0.00053216435, -21100.137, -21100.137, 0.0, 2.5004745, 2.4989395 
1.11271106e+2, 5.122232e+1, 19716.41, -399748.94, 91.83789, 0.00013046525, 0.00011337192, 19716.43, 19716.43, 0.0, 2.5004745, 2.4990852 
1.11271106e+2, 5.372141e+1, 21467.635, -396326.4, 211.2983, 0.0000717749, 0.000006036033, 21467.742, 21467.742, 0.0, 2.5004747, 2.4990911 
1.11271106e+2, 5.62205e+1, 21592.496, -396279.0, 253.6172, 0.000028292408, -0.00011223402, 21592.65, 21592.65, 0.0, 2.500475, 2.499091 
1.11271106e+2, 5.8719593e+1, 21714.117, -396233.2, 295.5461, 0.00000017035461, -0.00023258178, 21714.326, 21714.326, 0.0, 2.5004752, 2.499091 
1.11271106e+2, 6.121876e+1, 62326.29, -311767.1, 558.62445, -0.000093770854, 0.00045903065, 62327.12, 62327.12, 0.0, 2.500475, 2.499236 
1.11271106e+2, 6.3718e+1, 64225.285, -307924.56, 150.31026, 0.000056908648, 0.0000178833, 64225.348, 64225.348, 0.0, 2.5004752, 2.4992425 
1.11271106e+2, 6.621724e+1, 64278.12, -307913.47, 183.2975, 0.00022905243, -0.0004368974, 64278.21, 64278.21, 0.0, 2.5004752, 2.4992425 
1.11271106e+2, 6.871648e+1, 64326.676, -307904.44, 215.75066, 0.00042057046, -0.00089352886, 64326.8, 64326.8, 0.0, 2.5004754, 2.4992425 
1.11271106e+2, 7.12158e+1, 104743.984, -223721.55, 1202.6271, 0.00004195651, 0.00014274787, 104748.39, 104748.39, 0.0, 2.5004752, 2.499387 
1.11271106e+2, 7.371519e+1, 106844.7, -219664.84, 79.946014, 0.000011974843, 0.000039835166, 106844.73, 106844.73, 0.0, 2.5004754, 2.499394 
1.11271106e+2, 7.6214594e+1, 107036.01, -219577.86, 115.28852, 0.000013878524, -0.00008351809, 107036.05, 107036.05, 0.0, 2.5004756, 2.499394 
1.112711e+2, 7.8713983e+1, 107219.805, -219494.48, 145.01295, 0.000040965493, -0.00020955461, 107219.87, 107219.87, 0.0, 2.5004761, 2.499394 
1.11271106e+2, 8.1213456e+1, 147623.72, -135255.25, 1744.2323, -0.00019334356, 0.00047868016, 147634.48, 147634.48, 0.0, 2.5004756, 2.4995387 
1.11271106e+2, 8.371299e+1, 149693.94, -131191.5, -184.46696, 0.0000875798, -0.00015904744, 149694.06, 149694.06, 0.0, 2.500476, 2.4995456 
1.11271106e+2, 8.6212534e+1, 149835.69, -131129.23, -194.59715, 0.00040257996, -0.00081511337, 149835.81, 149835.81, 0.0, 2.5004764, 2.4995456 
1.11271106e+2, 8.8712066e+1, 149968.48, -131071.27, -205.57411, 0.0007460654, -0.0014743512, 149968.63, 149968.63, 0.0, 2.5004764, 2.4995456 
1.11271106e+2, 9.121172e+1, 190514.42, -46629.605, 2268.1287, -0.00035583272, 0.0012296635, 190536.11, 190536.11, 0.0, 2.5004764, 2.4996905 
1.11271106e+2, 9.37114e+1, 192580.05, -42675.723, -424.9904, -0.0001796879, 0.0006378945, 192580.81, 192580.81, 0.0, 2.5004766, 2.4996972 
1.11271106e+2, 9.621109e+1, 192767.64, -42596.363, -475.2671, 0.00005182731, -0.000008622318, 192768.61, 192768.61, 0.0, 2.5004768, 2.4996972 
1.112711e+2, 9.871079e+1, 192934.2, -42527.137, -526.05133, 0.00031675593, -0.0006589323, 192935.38, 192935.38, 0.0, 2.5004773, 2.4996972 
1.1377158e+2, 1.2491687e+0, -191189.72, -837414.2, 47.86024, 0.00007217228, -0.0000015550154, -191189.72, -191189.72, 0.0, 2.500474, 2.498335 
1.1377158e+2, 3.7475058e+0, -191509.64, -837970.75, 38.52076, 0.000016738326, -0.0000043074338, -191509.63, -191509.63, 0.0, 2.5004737, 2.498334 
1.1377158e+2, 6.245843e+0, -191579.98, -838005.6, 42.31138, -0.00003276105, -0.0000065822146, -191579.98, -191579.98, 0.0, 2.5004737, 2.498334 
1.1377157e+2, 8.744181e+0, -191652.33, -838041.44, 45.69169, -0.000076325756, -0.000008379522, -191652.33, -191652.33, 0.0, 2.5004735, 2.498334 
1.1377157e+2, 1.1242594e+1, -149384.05, -750287.6, -216.88794, -0.0000026172331, 0.00014755245, -149383.95, -149383.95, 0.0, 2.5004735, 2.4984844 
1.1377157e+2, 1.3741082e+1, -148983.19, -749615.9, 92.07676, -0.0000057024113, 0.00003534281, -148983.17, -148983.17, 0.0, 2.5004737, 2.4984853 
1.1377157e+2, 1.6239569e+1, -148889.28, -749579.56, 112.63374, -0.0000074746167, -0.00007623391, -148889.27, -148889.27, 0.0, 2.500474, 2.4984853 
1.1377157e+2, 1.8738057e+1, -148796.69, -749543.94, 133.34094, -0.000007678636, -0.00018667753, -148796.66, -148796.66, 0.0, 2.500474, 2.4984853 
1.1377157e+2, 2.123662e+1, -106751.75, -662303.94, -268.64664, 0.00010662707, 0.000039011047, -106751.625, -106751.625, 0.0, 2.5004742, 2.4986348 
1.1377157e+2, 2.373526e+1, -106259.47, -661128.8, 250.86005, 0.000028825225, -0.000025094745, -106259.35, -106259.35, 0.0, 2.500474, 2.498637 
1.1377157e+2, 2.62339e+1, -106364.945, -661193.0, 261.48532, -0.000044883316, -0.000088130226, -106364.82, -106364.82, 0.0, 2.500474, 2.498637 
1.1377157e+2, 2.8732535e+1, -106471.68, -661257.75, 272.03958, -0.00011370424, -0.00014856824, -106471.55, -106471.55, 0.0, 2.5004737, 2.498637 
1.1377157e+2, 3.123125e+1, -64912.406, -575052.1, -308.91068, 0.000010146281, 0.00024351593, -64912.22, -64912.22, 0.0, 2.5004737, 2.4987848 
1.1377157e+2, 3.3730042e+1, -63806.66, -572954.75, 282.70004, -0.000008817649, 0.00008177011, -63806.504, -63806.504, 0.0, 2.500474, 2.4987884 
1.1377157e+2, 3.622883e+1, -63695.02, -572919.8, 322.35687, -0.000024591807, -0.00008219849, -63694.816, -63694.816, 0.0, 2.5004742, 2.498788 
1.1377157e+2, 3.872762e+1, -63584.63, -572885.44, 362.1114, -0.00003597965, -0.00024481607, -63584.37, -63584.37, 0.0, 2.5004745, 2.498788 
1.1377157e+2, 4.1226485e+1, -22255.092, -487186.16, -128.9027, 0.00002397482, 0.00018685943, -22255.057, -22255.057, 0.0, 2.5004747, 2.4989352 
1.1377157e+2, 4.3725425e+1, -20954.645, -484421.0, 369.3888, 0.0000114650375, 0.0000073537963, -20954.35, -20954.35, 0.0, 2.5004747, 2.49894 
1.1377157e+2, 4.6224365e+1, -21008.209, -484465.2, 404.37418, 0.0000048785782, -0.00017656402, -21007.857, -21007.857, 0.0, 2.5004745, 2.4989398 
1.1377157e+2, 4.8723304e+1, -21063.488, -484510.22, 439.50983, 0.000004805702, -0.00035944185, -21063.072, -21063.072, 0.0, 2.5004745, 2.4989398 
1.1377157e+2, 5.122232e+1, 19756.965, -399646.78, 240.55351, 0.000019707277, 0.00025033095, 19757.102, 19757.102, 0.0, 2.5004745, 2.4990854 
1.1377157e+2, 5.372141e+1, 21550.375, -396150.2, 401.02036, 0.000015290663, 0.00007500018, 21550.76, 21550.76, 0.0, 2.5004747, 2.4990914 
1.1377157e+2, 5.622051e+1, 21684.139, -396099.5, 455.69095, 0.000020093094, -0.00010952932, 21684.637, 21684.637, 0.0, 2.500475, 2.4990914 
1.1377157e+2, 5.8719593e+1, 21815.695, -396049.88, 510.49664, 0.00003412775, -0.000294731, 21816.318, 21816.318, 0.0, 2.5004752, 2.4990914 
1.1377157e+2, 6.121876e+1, 62391.19, -311675.47, 717.54443, -0.00009066503, 0.0003921789, 62392.57, 62392.57, 0.0, 2.500475, 2.499236 
1.1377157e+2, 6.3718003e+1, 64328.71, -307765.94, 361.17126, 0.000023898345, 0.000041420157, 64329.063, 64329.063, 0.0, 2.5004752, 2.4992428 
1.1377157e+2, 6.621725e+1, 64391.05, -307749.9, 408.30353, 0.00015262721, -0.00032145993, 64391.5, 64391.5, 0.0, 2.5004752, 2.4992428 
1.1377157e+2, 6.8716484e+1, 64450.063, -307735.5, 455.36975, 0.00029299816, -0.0006848777, 64450.62, 64450.62, 0.0, 2.5004754, 2.4992428 
1.1377157e+2, 7.12158e+1, 104867.44, -223575.63, 1401.6099, -0.00013140753, 0.000360519, 104873.42, 104873.42, 0.0, 2.5004752, 2.4993873 
1.1377157e+2, 7.3715204e+1, 106990.484, -219478.61, 363.46262, -0.000097847296, 0.00021388107, 106990.89, 106990.89, 0.0, 2.5004756, 2.4993942 
1.1377157e+2, 7.6214594e+1, 107180.3, -219395.72, 415.19385, -0.000042725835, 0.000048227448, 107180.83, 107180.83, 0.0, 2.500476, 2.4993942 
1.1377157e+2, 7.871399e+1, 107365.2, -219315.19, 466.61792, 0.000026567413, -0.00011891755, 107365.875, 107365.875, 0.0, 2.5004761, 2.4993942 
1.1377158e+2, 8.1213456e+1, 147748.0, -135131.95, 1964.9962, -0.00015668548, 0.0005289705, 147761.64, 147761.64, 0.0, 2.500476, 2.499539 
1.1377158e+2, 8.3712995e+1, 149798.95, -131122.08, 157.08629, 0.00011675378, -0.000107897045, 149799.05, 149799.05, 0.0, 2.5004761, 2.4995456 
1.1377158e+2, 8.621254e+1, 149950.28, -131055.34, 170.3536, 0.00040863742, -0.00076187885, 149950.39, 149950.39, 0.0, 2.5004764, 2.4995456 
1.1377158e+2, 8.871207e+1, 150094.1, -130992.234, 183.27011, 0.00071388, -0.0014180979, 150094.2, 150094.2, 0.0, 2.5004766, 2.4995456 
1.1377157e+2, 9.121172e+1, 190677.44, -46524.53, 2595.2397, -0.00076354726, 0.0012436762, 190705.83, 190705.83, 0.0, 2.5004766, 2.4996908 
1.1377157e+2, 9.371141e+1, 192713.11, -42693.0, 24.716202, -0.00039654362, 0.00070075184, 192713.11, 192713.11, 0.0, 2.5004768, 2.499697 
1.1377157e+2, 9.62111e+1, 192946.9, -42590.223, -4.8656807, 0.0000059491313, 0.000101975114, 192946.9, 192946.9, 0.0, 2.5004773, 2.499697 
1.1377157e+2, 9.8710793e+1, 193166.69, -42494.19, -35.35006, 0.00041501835, -0.0005027343, 193166.7, 193166.7, 0.0, 2.5004778, 2.499697 
1.16272055e+2, 1.2491687e+0, -191178.58, -837392.25, 33.274757, 0.000009638084, -0.000008105091, -191178.58, -191178.58, 0.0, 2.500474, 2.498335 
1.16272055e+2, 3.7475058e+0, -191494.28, -837942.4, 16.679506, -0.000024970686, -0.00002511272, -191494.28, -191494.28, 0.0, 2.5004737, 2.498334 
1.16272055e+2, 6.245843e+0, -191562.42, -837975.06, 23.697882, -0.000063114305, -0.000043182812, -191562.42, -191562.42, 0.0, 2.5004737, 2.498334 
1.16272055e+2, 8.744181e+0, -191632.53, -838008.6, 30.305944, -0.000104792685, -0.00006231552, -191632.53, -191632.53, 0.0, 2.5004735, 2.498334 
1.16272055e+2, 1.1242594e+1, -149349.94, -750205.75, -198.90588, 0.000003826977, 0.00010199898, -149349.88, -149349.88, 0.0, 2.5004735, 2.4984844 
1.16272055e+2, 1.3741082e+1, -148947.33, -749530.44, 113.3684, -0.0000073134493, 0.000032693242, -148947.31, -148947.31, 0.0, 2.5004737, 2.4984856 
1.16272055e+2, 1.6239569e+1, -148853.38, -749494.2, 136.7362, -0.000022996086, -0.000037293325, -148853.34, -148853.34, 0.0, 2.500474, 2.4984856 
1.16272055e+2, 1.8738058e+1, -148760.72, -749458.56, 160.2542, -0.000042861175, -0.00010747179, -148760.67, -148760.67, 0.0, 2.500474, 2.4984856 
1.1627205e+2, 2.1236622e+1, -106752.12, -662300.44, -286.8219, 0.00002501443, 0.00012342744, -106751.97, -106751.97, 0.0, 2.5004742, 2.4986348 
1.1627205e+2, 2.373526e+1, -106240.63, -661086.6, 219.3978, -0.000034734596, 0.000026864866, -106240.55, -106240.55, 0.0, 2.500474, 2.4986372 
1.1627205e+2, 2.62339e+1, -106345.0, -661149.6, 232.4393, -0.000095079304, -0.00007049081, -106344.91, -106344.91, 0.0, 2.500474, 2.498637 
1.1627205e+2, 2.8732538e+1, -106450.63, -661213.2, 245.40977, -0.00015546341, -0.0001671032, -106450.52, -106450.52, 0.0, 2.5004737, 2.498637 
1.1627205e+2, 3.123125e+1, -64875.13, -574957.8, -274.96368, 0.000008036065, 0.00020572657, -64874.98, -64874.98, 0.0, 2.5004737, 2.498785 
1.1627205e+2, 3.3730042e+1, -63748.62, -572817.1, 308.04932, 0.0000033028502, 0.000050618903, -63748.438, -63748.438, 0.0, 2.500474, 2.4987886 
1.1627205e+2, 3.6228833e+1, -63636.65, -572781.4, 349.5056, -0.0000024654737, -0.00010750913, -63636.41, -63636.41, 0.0, 2.5004742, 2.4987884 
1.1627205e+2, 3.872762e+1, -63525.926, -572746.25, 391.05963, -0.0000078640705, -0.00026511864, -63525.625, -63525.625, 0.0, 2.5004745, 2.4987884 
1.1627205e+2, 4.1226485e+1, -22257.498, -487167.78, -134.20038, 0.000010927879, 0.00019010379, -22257.459, -22257.459, 0.0, 2.5004747, 2.4989352 
1.1627205e+2, 4.3725425e+1, -20914.668, -484313.72, 351.65698, -0.00002685437, 0.00006461764, -20914.4, -20914.4, 0.0, 2.5004745, 2.49894 
1.1627205e+2, 4.6224368e+1, -20968.281, -484357.25, 388.79715, -0.00006345976, -0.000065074164, -20967.955, -20967.955, 0.0, 2.5004745, 2.49894 
1.1627205e+2, 4.8723307e+1, -21023.605, -484401.56, 426.0876, -0.00009858224, -0.00019355459, -21023.215, -21023.215, 0.0, 2.5004745, 2.49894 
1.1627205e+2, 5.1222324e+1, 19783.156, -399568.34, 241.63417, -0.0000956037, 0.00039425935, 19783.295, 19783.295, 0.0, 2.5004745, 2.4990857 
1.1627205e+2, 5.3721416e+1, 21619.523, -395981.47, 432.49396, -0.000045729517, 0.00014759378, 21619.97, 21619.97, 0.0, 2.5004747, 2.4990916 
1.1627205e+2, 5.622051e+1, 21751.994, -395932.38, 489.8545, 0.000007471634, -0.00010670145, 21752.57, 21752.57, 0.0, 2.500475, 2.4990916 
1.1627205e+2, 5.87196e+1, 21882.26, -395884.38, 547.35016, 0.00006377653, -0.00036026386, 21882.977, 21882.977, 0.0, 2.5004752, 2.4990916 
1.1627205e+2, 6.121876e+1, 62396.984, -311635.8, 687.2577, -0.000079347396, 0.0003308028, 62398.246, 62398.246, 0.0, 2.500475, 2.4992363 
1.1627205e+2, 6.371801e+1, 64378.555, -307634.25, 374.20508, -0.0000014725072, 0.0000668451, 64378.93, 64378.93, 0.0, 2.5004752, 2.499243 
1.1627205e+2, 6.621725e+1, 64440.793, -307617.94, 424.59464, 0.000083121224, -0.00020786254, 64441.277, 64441.277, 0.0, 2.5004752, 2.499243 
1.1627205e+2, 6.871649e+1, 64499.703, -307603.25, 474.91815, 0.00017162507, -0.00048179395, 64500.31, 64500.31, 0.0, 2.5004754, 2.499243 
1.1627205e+2, 7.1215814e+1, 104898.414, -223493.14, 1375.5752, -0.0003069791, 0.00058369426, 104904.17, 104904.17, 0.0, 2.5004752, 2.4993875 
1.1627205e+2, 7.371521e+1, 107052.63, -219333.72, 412.38705, -0.00020933905, 0.00039062047, 107053.16, 107053.16, 0.0, 2.5004754, 2.4993944 
1.1627205e+2, 7.62146e+1, 107241.734, -219254.55, 468.1131, -0.00010034706, 0.00017978191, 107242.41, 107242.41, 0.0, 2.500476, 2.4993944 
1.1627205e+2, 7.871399e+1, 107425.92, -219177.73, 523.532, 0.000011803758, -0.000031355972, 107426.76, 107426.76, 0.0, 2.5004761, 2.4993944 
1.16272055e+2, 8.121346e+1, 147772.75, -135072.61, 1903.32, -0.00011477395, 0.00058125885, 147785.55, 147785.55, 0.0, 2.500476, 2.499539 
1.16272055e+2, 8.3713007e+1, 149807.64, -131099.95, 200.14177, 0.00014911691, -0.000057613226, 149807.78, 149807.78, 0.0, 2.5004761, 2.4995456 
1.16272055e+2, 8.621254e+1, 149961.27, -131032.26, 218.38121, 0.00041575995, -0.00071247714, 149961.44, 149961.44, 0.0, 2.5004764, 2.4995456 
1.16272055e+2, 8.8712084e+1, 150107.38, -130968.18, 236.26984, 0.00068063714, -0.0013686441, 150107.58, 150107.58, 0.0, 2.5004766, 2.4995456 
1.1627205e+2, 9.1211724e+1, 190696.81, -46511.883, 2572.9602, -0.0011550122, 0.0012646954, 190724.72, 190724.72, 0.0, 2.5004766, 2.4996908 
1.16272055e+2, 9.371141e+1, 192685.92, -42788.766, 112.84496, -0.0006015112, 0.000765278, 192685.97, 192685.97, 0.0, 2.500477, 2.499697 
1.16272055e+2, 9.6211106e+1, 192927.53, -42681.047, 93.792015, -0.000032688928, 0.00020865786, 192927.58, 192927.58, 0.0, 2.5004773, 2.499697 
1.16272055e+2, 9.8710793e+1, 193155.14, -42580.08, 73.83656, 0.0005158677, -0.00035603324, 193155.16, 193155.16, 0.0, 2.5004778, 2.4996967 
1.1877253e+2, 1.2491685e+0, -191218.36, -837395.75, 9.572906, -0.000051590145, -0.000015424735, -191218.36, -191218.36, 0.0, 2.5004737, 2.498335 
1.1877253e+2, 3.7475055e+0, -191455.52, -837905.0, -35.299545, -0.00006627365, -0.000048207996, -191455.52, -191455.52, 0.0, 2.5004737, 2.498334 
1.1877253e+2, 6.245843e+0, -191529.47, -837939.3, -49.047096, -0.0000936475, -0.00008356886, -191529.47, -191529.47, 0.0, 2.5004737, 2.498334 
1.1877253e+2, 8.7441796e+0, -191688.53, -838014.6, -66.14224, -0.00013371161, -0.000121507524, -191688.53, -191688.53, 0.0, 2.5004735, 2.498334 
1.1877253e+2, 1.1242594e+1, -149400.66, -750182.44, -292.09158, 0.0000142454255, 0.000059124806, -149400.52, -149400.52, 0.0, 2.5004735, 2.4984846 
1.1877253e+2, 1.3741082e+1, -148881.44, -749433.06, 2.186191, -0.000004271382, 0.000028748917, -148881.44, -148881.44, 0.0, 2.5004737, 2.4984858 
1.1877253e+2, 1.623957e+1, -148749.4, -749378.56, -1.9300426, -0.00003293653, -0.0000035827236, -148749.4, -148749.4, 0.0, 2.500474, 2.4984856 
1.1877253e+2, 1.8738058e+1, -148685.36, -749356.9, -10.460513, -0.00007127226, -0.000037368885, -148685.36, -148685.36, 0.0, 2.5004742, 2.4984856 
1.1877252e+2, 2.1236624e+1, -106717.86, -662304.06, -538.20996, -0.0000593341, 0.00020868202, -106717.34, -106717.34, 0.0, 2.5004742, 2.4986348 
1.1877252e+2, 2.3735262e+1, -106112.69, -660994.44, -87.88216, -0.0001005084, 0.00007591567, -106112.67, -106112.67, 0.0, 2.5004742, 2.4986372 
1.1877252e+2, 2.62339e+1, -106201.86, -661049.56, -119.72069, -0.0001467549, -0.00005952436, -106201.83, -106201.83, 0.0, 2.500474, 2.4986372 
1.1877252e+2, 2.8732538e+1, -106339.45, -661128.0, -157.41615, -0.00019780379, -0.00019603205, -106339.41, -106339.41, 0.0, 2.5004737, 2.4986372 
1.1877252e+2, 3.123125e+1, -64749.477, -574844.6, -673.97864, 0.0000059106897, 0.00017061725, -64748.586, -64748.586, 0.0, 2.500474, 2.498785 
1.1877252e+2, 3.3730042e+1, -63533.754, -572606.44, -149.13411, 0.000015691141, 0.000019734323, -63533.71, -63533.71, 0.0, 2.5004742, 2.4987888 
1.1877252e+2, 3.6228833e+1, -63416.727, -572567.75, -164.8908, 0.00002038965, -0.00013504238, -63416.676, -63416.676, 0.0, 2.5004745, 2.4987886 
1.1877253e+2, 3.8727623e+1, -63351.168, -572553.9, -186.16428, 0.000021624088, -0.0002900983, -63351.1, -63351.1, 0.0, 2.5004747, 2.4987886 
1.1877252e+2, 4.1226485e+1, -22163.121, -487120.06, -816.4776, 0.0000048963507, 0.0001929373, -22161.688, -22161.688, 0.0, 2.5004747, 2.4989352 
1.1877252e+2, 4.372543e+1, -20740.777, -484144.88, -413.4132, -0.00005868155, 0.0001187532, -20740.408, -20740.408, 0.0, 2.5004747, 2.4989402 
1.1877252e+2, 4.6224368e+1, -20816.81, -484198.6, -451.48566, -0.0001256981, 0.000040508254, -20816.371, -20816.371, 0.0, 2.5004747, 2.4989402 
1.1877252e+2, 4.8723313e+1, -20944.615, -484277.28, -493.9095, -0.00019608546, -0.00003636322, -20944.09, -20944.09, 0.0, 2.5004745, 2.4989402 
1.1877252e+2, 5.122233e+1, 19797.79, -399514.8, -745.3179, -0.00021358751, 0.00054314715, 19799.113, 19799.113, 0.0, 2.5004742, 2.4990857 
1.1877252e+2, 5.372142e+1, 21679.156, -395820.88, -608.99097, -0.00010957553, 0.00022169552, 21680.045, 21680.045, 0.0, 2.5004745, 2.4990919 
1.1877252e+2, 5.622051e+1, 21748.867, -395803.13, -635.10895, -0.000007858979, -0.000106028805, 21749.832, 21749.832, 0.0, 2.5004747, 2.4990919 
1.1877252e+2, 5.87196e+1, 21762.781, -395812.25, -663.8058, 0.00009100551, -0.00043166146, 21763.836, 21763.836, 0.0, 2.5004747, 2.4990919 
1.1877253e+2, 6.121877e+1, 62109.063, -311763.72, -681.6222, -0.000057862908, 0.0002722688, 62110.31, 62110.31, 0.0, 2.5004745, 2.4992363 
1.1877252e+2, 6.371801e+1, 64085.32, -307671.63, -1040.2406, -0.000017312499, 0.00009143152, 64088.234, 64088.234, 0.0, 2.5004745, 2.4992433 
1.1877252e+2, 6.6217256e+1, 64036.574, -307708.5, -1077.9766, 0.000022528588, -0.00009897431, 64039.7, 64039.7, 0.0, 2.5004745, 2.4992433 
1.1877252e+2, 6.871649e+1, 63935.676, -307770.47, -1117.1674, 0.0000587147, -0.00028733906, 63939.03, 63939.03, 0.0, 2.5004742, 2.4992433 
1.1877252e+2, 7.121582e+1, 104178.305, -223793.14, -343.22104, -0.0004824916, 0.0008091064, 104178.664, 104178.664, 0.0, 2.500474, 2.4993875 
1.1877252e+2, 7.371521e+1, 106278.28, -219594.63, -1310.7266, -0.0003204974, 0.00056689786, 106283.555, 106283.555, 0.0, 2.500474, 2.4993947 
1.1877252e+2, 7.6214606e+1, 106308.72, -219595.25, -1327.7434, -0.00015704431, 0.0003079724, 106314.13, 106314.13, 0.0, 2.5004742, 2.4993947 
1.1877253e+2, 7.8713995e+1, 106270.92, -219628.77, -1343.5192, -0.0000012445446, 0.00004991029, 106276.46, 106276.46, 0.0, 2.500474, 2.4993947 
1.1877254e+2, 8.121347e+1, 146381.19, -135711.97, -134.9939, -0.00006553495, 0.0006322971, 146381.27, 146381.27, 0.0, 2.5004735, 2.499539 
1.1877254e+2, 8.3713007e+1, 148248.05, -131834.66, -1761.6996, 0.00018663159, -0.000011403768, 148259.13, 148259.13, 0.0, 2.5004735, 2.4995456 
1.1877254e+2, 8.6212546e+1, 148172.33, -131877.6, -1769.3969, 0.00042608485, -0.0006700487, 148183.5, 148183.5, 0.0, 2.5004733, 2.4995456 
1.1877253e+2, 8.8712084e+1, 148018.78, -131958.02, -1779.338, 0.0006489358, -0.0013290363, 148030.1, 148030.1, 0.0, 2.500473, 2.4995456 
1.1877252e+2, 9.1211724e+1, 188354.58, -47658.277, 465.9918, -0.0015277346, 0.0012897942, 188355.5, 188355.5, 0.0, 2.5004725, 2.4996908 
1.1877253e+2, 9.371142e+1, 190077.5, -44127.414, -1891.2676, -0.00079264434, 0.00082875893, 190092.77, 190092.77, 0.0, 2.5004725, 2.4996967 
1.1877253e+2, 9.6211106e+1, 189949.38, -44196.625, -1908.1322, -0.000062139705, 0.00030901862, 189964.92, 189964.92, 0.0, 2.5004723, 2.4996967 
1.1877254e+2, 9.87108e+1, 189663.42, -44341.84, -1929.7732, 0.0006217991, -0.00022083563, 189679.34, 189679.34, 0.0, 2.5004718, 2.4996967 
1.21273e+2, 1.2491685e+0, -191278.52, -837456.06, 28.748758, 0.00003590903, -0.000018846536, -191278.52, -191278.52, 0.0, 2.5004737, 2.498335 
1.21273e+2, 3.7475055e+0, -191553.88, -837985.1, -17.644293, 0.000015300628, -0.00005637494, -191553.88, -191553.88, 0.0, 2.5004737, 2.498334 
1.21273e+2, 6.2458426e+0, -191586.1, -838005.5, -19.996185, 0.000013875803, -0.00009368299, -191586.1, -191586.1, 0.0, 2.5004735, 2.498334 
1.21273e+2, 8.744179e+0, -191620.56, -838026.94, -22.165003, 0.000031634616, -0.00013077083, -191620.56, -191620.56, 0.0, 2.5004735, 2.498334 
1.21273e+2, 1.1242593e+1, -149296.7, -750164.56, -162.13945, 0.00018449753, 0.00004348612, -149296.66, -149296.66, 0.0, 2.5004737, 2.4984846 
1.21273e+2, 1.3741082e+1, -148974.33, -749514.8, 135.83951, 0.00011080648, 0.000006291267, -148974.3, -148974.3, 0.0, 2.5004737, 2.4984856 
1.21273e+2, 1.6239569e+1, -148976.05, -749535.44, 142.08873, 0.000054019256, -0.000025945958, -148976.02, -148976.02, 0.0, 2.5004737, 2.4984856 
1.21273e+2, 1.8738058e+1, -148979.56, -749557.0, 147.98085, 0.000014619195, -0.000052729647, -148979.53, -148979.53, 0.0, 2.5004737, 2.4984856 
1.21273e+2, 2.1236622e+1, -107010.5, -662574.56, -320.34055, 0.000020976995, 0.00019537883, -107010.31, -107010.31, 0.0, 2.500474, 2.4986346 
1.21273e+2, 2.373526e+1, -106321.52, -661211.94, 131.55112, -0.000017705099, 0.000040842307, -106321.49, -106321.49, 0.0, 2.500474, 2.498637 
1.21273e+2, 2.62339e+1, -106299.36, -661229.8, 132.22046, -0.000045660556, -0.00011172488, -106299.33, -106299.33, 0.0, 2.500474, 2.4986367 
1.21273e+2, 2.8732535e+1, -106280.01, -661248.94, 132.55626, -0.00006266887, -0.0002606735, -106279.98, -106279.98, 0.0, 2.5004742, 2.4986367 
1.21273e+2, 3.123125e+1, -64662.01, -574943.75, -288.42252, 0.00012811358, 0.000084108506, -64661.848, -64661.848, 0.0, 2.5004742, 2.4987848 
1.21273e+2, 3.373004e+1, -63660.582, -572797.7, 249.30865, 0.000116442934, -0.00007320526, -63660.46, -63660.46, 0.0, 2.5004742, 2.4987884 
1.21273e+2, 3.622883e+1, -63727.094, -572863.94, 265.38742, 0.00011722003, -0.00023073159, -63726.953, -63726.953, 0.0, 2.5004742, 2.4987884 
1.21273e+2, 3.872762e+1, -63797.203, -572931.94, 280.93814, 0.00013192907, -0.00038495084, -63797.05, -63797.05, 0.0, 2.500474, 2.4987884 
1.21273e+2, 4.1226482e+1, -22643.271, -487583.47, -257.70593, 0.0001248094, 0.00008229534, -22643.129, -22643.129, 0.0, 2.5004742, 2.4989347 
1.21273e+2, 4.3725425e+1, -21083.59, -484514.97, 184.177, 0.00005856472, -0.00001427491, -21083.518, -21083.518, 0.0, 2.5004745, 2.4989398 
1.21273e+2, 4.6224365e+1, -21000.99, -484508.88, 202.08246, 0.0000043659734, -0.00011664903, -21000.902, -21000.902, 0.0, 2.5004747, 2.4989398 
1.21272996e+2, 4.8723304e+1, -20922.154, -484504.56, 219.21114, -0.00003768483, -0.00021945148, -20922.05, -20922.05, 0.0, 2.5004747, 2.4989398 
1.21272996e+2, 5.122232e+1, 19858.945, -399753.16, 35.105373, -0.00008997186, 0.00034074864, 19858.95, 19858.95, 0.0, 2.5004747, 2.4990852 
1.21272996e+2, 5.372141e+1, 21614.145, -396077.9, 237.8812, 0.0000030846315, 0.000018648901, 21614.281, 21614.281, 0.0, 2.5004747, 2.4990914 
1.21273e+2, 5.62205e+1, 21576.146, -396124.28, 257.6133, 0.00010918303, -0.0003143658, 21576.307, 21576.307, 0.0, 2.5004747, 2.4990914 
1.21273e+2, 5.871959e+1, 21535.182, -396172.13, 277.16345, 0.00022729141, -0.00065002014, 21535.365, 21535.365, 0.0, 2.5004747, 2.4990914 
1.21273e+2, 6.1218756e+1, 61909.684, -312126.03, 324.4773, 0.00009464795, 0.000031000895, 61909.97, 61909.97, 0.0, 2.5004745, 2.4992356 
1.21273e+2, 6.3718e+1, 64154.37, -307867.3, 94.717964, 0.00014491177, -0.00015550945, 64154.395, 64154.395, 0.0, 2.500475, 2.4992428 
1.21273e+2, 6.621724e+1, 64392.926, -307773.84, 131.88307, 0.00020819287, -0.00035693558, 64392.973, 64392.973, 0.0, 2.5004754, 2.4992428 
1.21273e+2, 6.8716484e+1, 64628.434, -307681.84, 168.68787, 0.000281552, -0.00056184694, 64628.51, 64628.51, 0.0, 2.5004756, 2.4992428 
1.21273e+2, 7.12158e+1, 104922.65, -223622.47, 927.1407, -0.0003222701, 0.0005015765, 104925.266, 104925.266, 0.0, 2.5004754, 2.4993873 
1.21273e+2, 7.3715204e+1, 106949.414, -219444.84, 86.5813, -0.00019267407, 0.00025362283, 106949.44, 106949.44, 0.0, 2.5004754, 2.4993944 
1.21273e+2, 7.6214594e+1, 106957.805, -219460.92, 108.02908, -0.00004432378, -0.000014282456, 106957.836, 106957.836, 0.0, 2.5004754, 2.4993942 
1.21273e+2, 7.8713983e+1, 106963.52, -219478.28, 127.01955, 0.0001128172, -0.00028485683, 106963.58, 106963.58, 0.0, 2.5004754, 2.4993942 
1.2127301e+2, 8.1213456e+1, 147275.9, -135341.58, 1300.2639, 0.000105136394, 0.0002907261, 147281.89, 147281.89, 0.0, 2.5004752, 2.499539 
1.2127301e+2, 8.371299e+1, 149587.05, -131288.53, -188.33281, 0.00040174645, -0.00031573547, 149587.17, 149587.17, 0.0, 2.500476, 2.4995453 
1.2127301e+2, 8.6212534e+1, 150048.77, -131076.53, -185.0626, 0.0007088248, -0.00093557074, 150048.89, 150048.89, 0.0, 2.5004766, 2.4995453 
1.2127301e+2, 8.871207e+1, 150502.63, -130868.31, -183.27019, 0.0010229893, -0.0015544365, 150502.73, 150502.73, 0.0, 2.5004776, 2.4995453 
1.21272996e+2, 9.121172e+1, 191045.84, -46148.09, 1930.7739, -0.0014585778, 0.0009922291, 191061.56, 191061.56, 0.0, 2.5004768, 2.4996912 
1.21273e+2, 9.37114e+1, 192679.52, -42785.207, -270.9768, -0.0007122476, 0.0005366581, 192679.83, 192679.83, 0.0, 2.500477, 2.499697 
1.21273e+2, 9.62111e+1, 192677.84, -42802.176, -278.0857, 0.000077139484, 0.00003461904, 192678.17, 192678.17, 0.0, 2.500477, 2.499697 
1.2127301e+2, 9.871079e+1, 192656.17, -42828.773, -285.59265, 0.0008621827, -0.00046671488, 192656.52, 192656.52, 0.0, 2.5004768, 2.4996967 
1.2377348e+2, 1.2491685e+0, -191269.53, -837428.2, 25.068962, -0.000031127736, -0.000013719408, -191269.53, -191269.53, 0.0, 2.5004737, 2.498335 
1.2377348e+2, 3.7475055e+0, -191540.88, -837948.06, -25.834496, -0.000021802533, -0.000040979507, -191540.88, -191540.88, 0.0, 2.5004737, 2.498334 
1.2377348e+2, 6.2458426e+0, -191573.69, -837969.2, -24.536098, -0.000003285293, -0.00006800054, -191573.69, -191573.69, 0.0, 2.5004735, 2.498334 
1.2377348e+2, 8.7441796e+0, -191608.48, -837991.25, -23.016537, 0.000024424035, -0.00009478264, -191608.48, -191608.48, 0.0, 2.5004735, 2.498334 
1.2377348e+2, 1.1242593e+1, -149269.19, -750091.94, -153.10002, 0.00013596928, 0.00006579283, -149269.14, -149269.14, 0.0, 2.5004735, 2.4984846 
1.2377348e+2, 1.3741082e+1, -148950.4, -749450.1, 135.72095, 0.000058218702, 0.000014295946, -148950.38, -148950.38, 0.0, 2.5004737, 2.4984858 
1.2377348e+2, 1.6239569e+1, -148950.36, -749466.94, 146.32576, -0.000010521703, -0.00003410656, -148950.31, -148950.31, 0.0, 2.5004737, 2.4984856 
1.2377348e+2, 1.8738058e+1, -148952.39, -749484.7, 156.85593, -0.00006988731, -0.00007894675, -148952.34, -148952.34, 0.0, 2.5004737, 2.4984856 
1.2377348e+2, 2.1236622e+1, -107025.34, -662558.2, -287.2366, -0.000008763861, 0.00017816307, -107025.195, -107025.195, 0.0, 2.500474, 2.4986346 
1.2377348e+2, 2.373526e+1, -106331.18, -661178.56, 144.06305, -0.00002318555, 0.000048727055, -106331.14, -106331.14, 0.0, 2.500474, 2.498637 
1.2377348e+2, 2.62339e+1, -106310.66, -661195.25, 150.64241, -0.000033581124, -0.00008051254, -106310.61, -106310.61, 0.0, 2.500474, 2.498637 
1.2377348e+2, 2.8732535e+1, -106291.63, -661212.7, 157.38593, -0.00003945298, -0.00020787198, -106291.586, -106291.586, 0.0, 2.500474, 2.498637 
1.2377348e+2, 3.123125e+1, -64652.664, -574851.2, -264.81796, 0.00007765918, 0.00011808147, -64652.527, -64652.527, 0.0, 2.5004742, 2.498785 
1.2377348e+2, 3.3730042e+1, -63653.81, -572709.7, 259.82047, 0.000045032644, -0.000011127478, -63653.68, -63653.68, 0.0, 2.5004742, 2.4987886 
1.2377348e+2, 3.622883e+1, -63718.215, -572772.7, 285.32, 0.000018082063, -0.00014195578, -63718.055, -63718.055, 0.0, 2.500474, 2.4987886 
1.2377348e+2, 3.872762e+1, -63784.67, -572836.7, 311.02945, -0.0000022130262, -0.00027119622, -63784.484, -63784.484, 0.0, 2.500474, 2.4987886 
1.2377348e+2, 4.1226485e+1, -22650.145, -487515.3, -178.5322, 0.0000363131, 0.00017571922, -22650.076, -22650.076, 0.0, 2.5004742, 2.4989347 
1.2377348e+2, 4.3725425e+1, -21078.783, -484429.1, 263.47037, 0.000022614067, 0.000028111428, -21078.633, -21078.633, 0.0, 2.5004742, 2.49894 
1.2377348e+2, 4.6224365e+1, -20989.771, -484418.2, 293.40536, 0.000012896876, -0.00012583703, -20989.586, -20989.586, 0.0, 2.5004745, 2.49894 
1.2377348e+2, 4.8723304e+1, -20902.916, -484408.34, 323.62665, 0.000007609989, -0.0002808091, -20902.691, -20902.691, 0.0, 2.5004747, 2.4989398 
1.2377348e+2, 5.122232e+1, 19865.756, -399694.66, 88.786026, -0.00009960477, 0.00028202005, 19865.773, 19865.773, 0.0, 2.5004747, 2.4990852 
1.2377348e+2, 5.372141e+1, 21645.299, -395979.16, 326.09537, -0.000044014727, 0.000058393034, 21645.553, 21645.553, 0.0, 2.5004747, 2.4990916 
1.2377348e+2, 5.622051e+1, 21614.324, -396022.06, 360.27777, 0.000017481178, -0.00017531065, 21614.637, 21614.637, 0.0, 2.5004747, 2.4990916 
1.2377348e+2, 5.8719593e+1, 21580.863, -396066.16, 394.7519, 0.000083275045, -0.0004110219, 21581.236, 21581.236, 0.0, 2.5004747, 2.4990916 
1.2377348e+2, 6.121876e+1, 61991.7, -311963.97, 450.14633, -0.000037209164, 0.0002527437, 61992.242, 61992.242, 0.0, 2.5004745, 2.4992359 
1.2377348e+2, 6.3718003e+1, 64243.133, -307706.78, 300.23074, 0.00008456268, -0.0000025636928, 64243.375, 64243.375, 0.0, 2.500475, 2.499243 
1.2377348e+2, 6.621725e+1, 64492.504, -307608.72, 350.25717, 0.00021266348, -0.0002714927, 64492.832, 64492.832, 0.0, 2.5004754, 2.499243 
1.2377348e+2, 6.8716484e+1, 64739.125, -307511.97, 400.3016, 0.00034422177, -0.0005430118, 64739.555, 64739.555, 0.0, 2.500476, 2.499243 
1.2377348e+2, 7.12158e+1, 105032.59, -223485.75, 994.57043, -0.00032054514, 0.00045216153, 105035.61, 105035.61, 0.0, 2.5004754, 2.4993873 
1.2377348e+2, 7.3715204e+1, 107051.625, -219340.75, 274.10654, -0.00025996182, 0.00023976187, 107051.86, 107051.86, 0.0, 2.5004754, 2.4993944 
1.2377348e+2, 7.6214594e+1, 107070.22, -219353.34, 306.45532, -0.00018736946, 0.000008426884, 107070.51, 107070.51, 0.0, 2.5004756, 2.4993944 
1.2377348e+2, 7.871399e+1, 107085.0, -219367.78, 338.6843, -0.00011345403, -0.00022525778, 107085.35, 107085.35, 0.0, 2.5004756, 2.4993944 
1.23773485e+2, 8.1213456e+1, 147427.48, -135200.88, 1479.8445, -0.00007783673, 0.0003771332, 147435.23, 147435.23, 0.0, 2.5004752, 2.4995391 
1.23773485e+2, 8.3712995e+1, 149714.86, -131215.39, 152.82455, 0.00034856622, -0.0001584442, 149714.94, 149714.94, 0.0, 2.5004761, 2.4995456 
1.23773485e+2, 8.621254e+1, 150190.4, -130996.65, 166.20969, 0.0007764264, -0.00070818653, 150190.5, 150190.5, 0.0, 2.5004768, 2.4995453 
1.2377349e+2, 8.871207e+1, 150660.53, -130780.516, 178.92561, 0.0012026782, -0.0012581566, 150660.64, 150660.64, 0.0, 2.5004778, 2.4995453 
1.2377348e+2, 9.121172e+1, 191335.28, -45829.77, 2000.7996, -0.0015196643, 0.0011386212, 191352.16, 191352.16, 0.0, 2.5004773, 2.4996915 
1.2377348e+2, 9.37114e+1, 192895.8, -42669.223, 7.5862217, -0.00080284715, 0.0006018885, 192895.8, 192895.8, 0.0, 2.5004773, 2.499697 
1.23773485e+2, 9.62111e+1, 192934.45, -42668.28, 18.056019, -0.00005659638, 0.000019568584, 192934.45, 192934.45, 0.0, 2.5004773, 2.499697 
1.23773485e+2, 9.871079e+1, 192963.08, -42672.164, 27.812408, 0.00066732446, -0.0005634091, 192963.08, 192963.08, 0.0, 2.5004776, 2.4996967 
1.2627394e+2, 1.2491685e+0, -191255.06, -837398.06, 20.813068, -0.000098102406, -0.000009153829, -191255.06, -191255.06, 0.0, 2.5004737, 2.498335 
1.2627394e+2, 3.7475055e+0, -191522.44, -837909.6, -34.753277, -0.00005872019, -0.000027268723, -191522.44, -191522.44, 0.0, 2.5004737, 2.498334 
1.2627394e+2, 6.245843e+0, -191555.6, -837931.44, -30.25383, -0.000020137488, -0.000045125835, -191555.6, -191555.6, 0.0, 2.5004735, 2.498334 
1.2627394e+2, 8.7441796e+0, -191590.75, -837954.2, -25.533218, 0.000017645745, -0.0000627253, -191590.75, -191590.75, 0.0, 2.5004735, 2.498334 
1.2627394e+2, 1.1242593e+1, -149241.47, -750030.56, -146.6827, 0.00008559154, 0.00008854913, -149241.44, -149241.44, 0.0, 2.5004735, 2.4984848 
1.2627394e+2, 1.3741082e+1, -148918.72, -749383.4, 132.81754, 0.0000013775531, 0.000018949466, -148918.69, -148918.69, 0.0, 2.5004737, 2.4984858 
1.2627394e+2, 1.6239569e+1, -148914.94, -749395.4, 147.06013, -0.00008171399, -0.000049434133, -148914.9, -148914.9, 0.0, 2.5004737, 2.4984858 
1.2627394e+2, 1.8738058e+1, -148913.25, -749408.4, 161.22807, -0.00016344307, -0.00011614668, -148913.2, -148913.2, 0.0, 2.5004737, 2.4984858 
1.2627394e+2, 2.1236622e+1, -107040.76, -662569.56, -267.85336, -0.000031417156, 0.00016400592, -107040.63, -107040.63, 0.0, 2.5004737, 2.4986346 
1.2627394e+2, 2.373526e+1, -106320.055, -661136.3, 147.63081, -0.000022743916, 0.000056668432, -106320.016, -106320.016, 0.0, 2.500474, 2.498637 
1.2627394e+2, 2.62339e+1, -106297.29, -661150.06, 156.87474, -0.000016830443, -0.00005232655, -106297.24, -106297.24, 0.0, 2.500474, 2.498637 
1.2627394e+2, 2.8732535e+1, -106276.016, -661164.5, 166.28282, -0.000012816973, -0.00016117976, -106275.97, -106275.97, 0.0, 2.500474, 2.498637 
1.2627394e+2, 3.123125e+1, -64620.313, -574758.9, -264.5291, 0.000024677542, 0.000149902, -64620.176, -64620.176, 0.0, 2.5004742, 2.498785 
1.2627394e+2, 3.3730042e+1, -63616.113, -572607.75, 243.22069, -0.000030021885, 0.000045927653, -63615.996, -63615.996, 0.0, 2.5004742, 2.4987888 
1.2627394e+2, 3.6228833e+1, -63678.164, -572667.44, 271.71164, -0.00008578057, -0.00006111143, -63678.016, -63678.016, 0.0, 2.500474, 2.4987888 
1.2627394e+2, 3.8727623e+1, -63742.266, -572728.06, 300.4125, -0.0001421604, -0.00016828126, -63742.09, -63742.09, 0.0, 2.500474, 2.4987886 
1.2627394e+2, 4.1226485e+1, -22642.037, -487460.1, -153.49348, -0.0000456747, 0.0002728157, -22641.986, -22641.986, 0.0, 2.500474, 2.498935 
1.2627394e+2, 4.3725425e+1, -21051.416, -484333.38, 286.31882, -0.000007441717, 0.00007095666, -21051.238, -21051.238, 0.0, 2.5004742, 2.4989402 
1.2627394e+2, 4.6224365e+1, -20961.56, -484320.34, 319.4035, 0.000026593314, -0.0001379316, -20961.34, -20961.34, 0.0, 2.5004745, 2.4989402 
1.2627394e+2, 4.8723304e+1, -20873.86, -484308.34, 352.77448, 0.000057341444, -0.0003484396, -20873.59, -20873.59, 0.0, 2.5004747, 2.49894 
1.2627394e+2, 5.1222324e+1, 19861.004, -399664.78, 56.573776, -0.00010787163, 0.00022558129, 19861.012, 19861.012, 0.0, 2.5004747, 2.4990854 
1.2627394e+2, 5.3721416e+1, 21671.383, -395883.97, 318.1284, -0.000089704416, 0.00009665351, 21671.625, 21671.625, 0.0, 2.5004747, 2.4990919 
1.2627394e+2, 5.622051e+1, 21639.7, -395927.1, 355.59195, -0.00007273432, -0.00004163201, 21640.002, 21640.002, 0.0, 2.5004747, 2.4990919 
1.2627394e+2, 5.87196e+1, 21605.525, -395971.38, 393.3472, -0.000059178183, -0.00018129263, 21605.896, 21605.896, 0.0, 2.5004745, 2.4990916 
1.2627394e+2, 6.121876e+1, 62032.86, -311840.2, 446.52078, -0.00016361629, 0.00047835425, 62033.395, 62033.395, 0.0, 2.5004745, 2.499236 
1.2627394e+2, 6.371801e+1, 64291.906, -307566.75, 366.8576, 0.000030216965, 0.00015067155, 64292.266, 64292.266, 0.0, 2.500475, 2.4992433 
1.2627394e+2, 6.621725e+1, 64540.582, -307469.63, 419.80978, 0.00022364134, -0.00018951914, 64541.055, 64541.055, 0.0, 2.5004754, 2.4992433 
1.2627396e+2, 6.871649e+1, 64786.504, -307373.8, 472.77997, 0.00041390213, -0.0005314046, 64787.105, 64787.105, 0.0, 2.5004756, 2.4992433 
1.2627394e+2, 7.1215814e+1, 105054.73, -223414.83, 895.8023, -0.0003120945, 0.00040559404, 105057.17, 105057.17, 0.0, 2.5004754, 2.4993875 
1.2627394e+2, 7.3715204e+1, 107070.63, -219277.86, 285.83667, -0.00031977982, 0.0002257461, 107070.88, 107070.88, 0.0, 2.5004754, 2.4993947 
1.2627394e+2, 7.62146e+1, 107089.164, -219291.92, 321.14136, -0.0003221899, 0.00002780919, 107089.48, 107089.48, 0.0, 2.5004756, 2.4993944 
1.2627394e+2, 7.871399e+1, 107103.875, -219307.81, 356.3262, -0.00033074484, -0.00017215787, 107104.266, 107104.266, 0.0, 2.5004756, 2.4993944 
1.2627396e+2, 8.121346e+1, 147457.83, -135136.55, 1458.1869, -0.00025390953, 0.00046417944, 147465.36, 147465.36, 0.0, 2.5004752, 2.4995391 
1.2627396e+2, 8.3712995e+1, 149724.08, -131200.39, 285.08237, 0.00030108576, -0.0000032436246, 149724.36, 149724.36, 0.0, 2.5004761, 2.4995456 
1.2627396e+2, 8.621254e+1, 150202.9, -130979.984, 301.4542, 0.00084855454, -0.00048575134, 150203.23, 150203.23, 0.0, 2.5004768, 2.4995456 
1.2627397e+2, 8.8712084e+1, 150676.31, -130762.195, 317.15686, 0.00138572, -0.0009696838, 150676.67, 150676.67, 0.0, 2.5004778, 2.4995453 
1.2627394e+2, 9.1211724e+1, 191445.1, -45630.508, 1835.3379, -0.0015499099, 0.0012938575, 191459.3, 191459.3, 0.0, 2.5004773, 2.499692 
1.2627396e+2, 9.371141e+1, 192924.19, -42645.305, 46.822693, -0.0008623423, 0.000669489, 192924.2, 192924.2, 0.0, 2.5004773, 2.499697 
1.2627396e+2, 9.62111e+1, 192965.67, -42644.5, 65.27818, -0.0001594059, 0.00000012043255, 192965.69, 192965.69, 0.0, 2.5004776, 2.499697 
1.2627396e+2, 9.871079e+1, 192997.13, -42648.523, 83.02027, 0.000503215, -0.0006712682, 192997.16, 192997.16, 0.0, 2.5004776, 2.499697 
1.2877443e+2, 1.2491687e+0, -191337.14, -837415.5, 10.317345, -0.00016263644, -0.0000051868933, -191337.14, -191337.14, 0.0, 2.5004735, 2.498335 
1.2877443e+2, 3.7475058e+0, -191514.66, -837878.3, -61.411484, -0.00009342166, -0.000015357637, -191514.64, -191514.64, 0.0, 2.5004737, 2.4983342 
1.2877443e+2, 6.245843e+0, -191526.23, -837890.2, -65.23789, -0.000034732664, -0.000025256915, -191526.22, -191526.22, 0.0, 2.5004737, 2.4983342 
1.2877443e+2, 8.7441796e+0, -191604.4, -837934.2, -68.57233, 0.000013430553, -0.000034884906, -191604.4, -191604.4, 0.0, 2.5004735, 2.4983342 
1.2877443e+2, 1.1242594e+1, -149239.94, -749993.9, -195.2866, 0.000035531863, 0.000111417154, -149239.88, -149239.88, 0.0, 2.5004735, 2.4984848 
1.2877443e+2, 1.3741082e+1, -148830.0, -749291.75, 51.98482, -0.000057723257, 0.000019906936, -148830.0, -148830.0, 0.0, 2.5004737, 2.498486 
1.2877443e+2, 1.6239569e+1, -148795.42, -749286.0, 39.15682, -0.00015754651, -0.000072275434, -148795.42, -148795.42, 0.0, 2.5004737, 2.4984858 
1.2877443e+2, 1.8738058e+1, -148813.0, -749305.4, 18.783873, -0.0002638284, -0.0001646729, -148813.0, -148813.0, 0.0, 2.5004737, 2.4984858 
1.2877443e+2, 2.1236622e+1, -106982.89, -662574.0, -432.3545, -0.000044782566, 0.00015246074, -106982.555, -106982.555, 0.0, 2.500474, 2.4986346 
1.2877443e+2, 2.373526e+1, -106140.76, -661015.44, -45.917812, -0.0000144043415, 0.00006405088, -106140.76, -106140.76, 0.0, 2.5004742, 2.4986372 
1.2877443e+2, 2.62339e+1, -106091.734, -661014.75, -61.059574, 0.000006555255, -0.000027905156, -106091.73, -106091.73, 0.0, 2.5004742, 2.4986372 
1.2877443e+2, 2.8732538e+1, -106097.24, -661040.4, -82.1507, 0.000019403302, -0.00012141138, -106097.234, -106097.234, 0.0, 2.5004742, 2.498637 
1.2877443e+2, 3.123125e+1, -64409.71, -574593.3, -563.93353, -0.000028657114, 0.00017864518, -64409.09, -64409.09, 0.0, 2.5004745, 2.4987853 
1.2877443e+2, 3.3730042e+1, -63326.164, -572386.7, -118.42043, -0.00010673979, 0.00009688575, -63326.137, -63326.137, 0.0, 2.5004745, 2.498789 
1.2877442e+2, 3.6228833e+1, -63380.035, -572440.3, -141.5357, -0.00019235366, 0.000010627758, -63379.996, -63379.996, 0.0, 2.5004745, 2.4987888 
1.2877442e+2, 3.8727623e+1, -63497.74, -572524.75, -171.51926, -0.00028563855, -0.00007742916, -63497.68, -63497.68, 0.0, 2.5004742, 2.4987888 
1.2877442e+2, 4.122649e+1, -22434.559, -487330.56, -645.1117, -0.00011890656, 0.00037222504, -22433.662, -22433.662, 0.0, 2.5004745, 2.498935 
1.2877443e+2, 4.372543e+1, -20752.195, -484109.38, -238.13461, -0.000029602328, 0.0001126776, -20752.072, -20752.072, 0.0, 2.5004747, 2.4989405 
1.2877443e+2, 4.6224368e+1, -20687.023, -484106.66, -244.437, 0.000047530924, -0.00015469587, -20686.895, -20686.895, 0.0, 2.500475, 2.4989402 
1.2877443e+2, 4.8723304e+1, -20710.03, -484146.44, -256.4245, 0.00011398308, -0.00042424232, -20709.887, -20709.887, 0.0, 2.500475, 2.4989402 
1.2877442e+2, 5.1222324e+1, 19940.64, -399619.13, -675.02716, -0.00011227957, 0.00016940587, 19941.727, 19941.727, 0.0, 2.5004747, 2.4990854 
1.2877442e+2, 5.3721416e+1, 21837.828, -395724.2, -461.15262, -0.00013187918, 0.00013126631, 21838.338, 21838.338, 0.0, 2.500475, 2.499092 
1.2877442e+2, 5.622051e+1, 21757.406, -395790.72, -495.136, -0.00015940175, 0.00008438375, 21757.992, 21757.992, 0.0, 2.5004747, 2.4990919 
1.2877442e+2, 5.87196e+1, 21583.717, -395902.2, -530.8695, -0.00019770615, 0.000036773818, 21584.39, 21584.39, 0.0, 2.5004745, 2.4990919 
1.2877442e+2, 6.121877e+1, 61922.17, -311809.94, -547.3886, -0.0002821794, 0.0007053394, 61922.977, 61922.977, 0.0, 2.5004742, 2.4992363 
1.2877443e+2, 6.371801e+1, 64154.39, -307519.6, -615.4342, -0.000016010872, 0.00030161027, 64155.41, 64155.41, 0.0, 2.5004745, 2.4992435 
1.2877443e+2, 6.6217256e+1, 64264.305, -307489.94, -619.84467, 0.00024327883, -0.000113689435, 64265.34, 64265.34, 0.0, 2.5004747, 2.4992435 
1.2877443e+2, 6.871649e+1, 64278.684, -307506.3, -625.84436, 0.0004931007, -0.0005297836, 64279.74, 64279.74, 0.0, 2.5004747, 2.4992435 
1.2877443e+2, 7.1215814e+1, 104359.38, -223714.33, -440.37354, -0.00029446933, 0.00035908437, 104359.98, 104359.98, 0.0, 2.5004742, 2.4993875 
1.2877443e+2, 7.3715204e+1, 106320.26, -219587.95, -1013.81024, -0.00037015957, 0.00020883107, 106323.414, 106323.414, 0.0, 2.5004742, 2.4993947 
1.2877443e+2, 7.62146e+1, 106164.96, -219687.1, -1043.8989, -0.000446923, 0.000041191928, 106168.305, 106168.305, 0.0, 2.500474, 2.4993947 
1.2877442e+2, 7.871399e+1, 105897.96, -219840.03, -1070.2686, -0.00053692516, -0.00012813117, 105901.48, 105901.48, 0.0, 2.5004735, 2.4993947 
1.2877443e+2, 8.121346e+1, 146010.39, -135801.86, -48.770576, -0.00042098784, 0.00054938364, 146010.4, 146010.4, 0.0, 2.5004728, 2.4995391 
1.2877443e+2, 8.3713007e+1, 148055.08, -131994.61, -1093.4248, 0.00026109492, 0.00014747522, 148059.34, 148059.34, 0.0, 2.5004733, 2.4995456 
1.2877445e+2, 8.6212546e+1, 148194.52, -131937.56, -1099.9252, 0.00092718, -0.00027054324, 148198.84, 148198.84, 0.0, 2.5004735, 2.4995456 
1.2877445e+2, 8.871209e+1, 148196.86, -131946.56, -1108.7079, 0.0015747527, -0.00069116027, 148201.25, 148201.25, 0.0, 2.5004735, 2.4995456 
1.2877443e+2, 9.1211724e+1, 188710.98, -46831.637, 75.910706, -0.001546846, 0.0014560845, 188711.02, 188711.02, 0.0, 2.5004725, 2.4996922 
1.2877443e+2, 9.371141e+1, 189856.23, -44112.254, -1524.1028, -0.00088899996, 0.000737991, 189866.17, 189866.17, 0.0, 2.500472, 2.499697 
1.2877443e+2, 9.6211106e+1, 189352.42, -44375.47, -1507.0143, -0.00022932238, -0.000024884612, 189362.14, 189362.14, 0.0, 2.500471, 2.499697 
1.2877445e+2, 9.8710793e+1, 188562.9, -44776.27, -1480.9288, 0.00037302464, -0.00079121866, 188572.31, 188572.31, 0.0, 2.50047, 2.499697 
1.3127491e+2, 1.2491685e+0, -191490.38, -837490.75, 47.917873, 0.000035526984, -0.0000065066606, -191490.38, -191490.38, 0.0, 2.5004733, 2.498335 
1.3127491e+2, 3.7475055e+0, -191610.63, -837919.94, -22.284262, 0.00005668432, -0.000019781082, -191610.63, -191610.63, 0.0, 2.5004735, 2.4983342 
1.3127491e+2, 6.245843e+0, -191504.66, -837876.7, -19.220203, 0.00009300448, -0.000033402885, -191504.66, -191504.66, 0.0, 2.5004737, 2.4983342 
1.3127491e+2, 8.7441796e+0, -191400.23, -837834.2, -16.00109, 0.00014448748, -0.000047372203, -191400.23, -191400.23, 0.0, 2.5004737, 2.4983342 
1.3127491e+2, 1.1242593e+1, -149007.47, -749910.56, -119.31465, 0.00014930333, 0.00009193799, -149007.44, -149007.44, 0.0, 2.500474, 2.4984848 
1.3127491e+2, 1.374108e+1, -148792.78, -749315.3, 97.097404, 0.000056434572, -0.000009844966, -148792.77, -148792.77, 0.0, 2.5004737, 2.4984858 
1.3127491e+2, 1.6239569e+1, -148904.72, -749396.75, 78.829285, -0.000024256076, -0.0001117139, -148904.72, -148904.72, 0.0, 2.5004737, 2.4984858 
1.3127491e+2, 1.8738057e+1, -149017.6, -749478.6, 60.876945, -0.000092716975, -0.00021320864, -149017.58, -149017.58, 0.0, 2.5004735, 2.4984858 
1.3127491e+2, 2.123662e+1, -107209.5, -662716.8, -275.2799, 0.00014617495, 0.0000889394, -107209.37, -107209.37, 0.0, 2.5004735, 2.4986346 
1.3127491e+2, 2.3735258e+1, -106416.12, -661190.6, 132.36751, 0.00014401415, -0.000006032469, -106416.086, -106416.086, 0.0, 2.5004737, 2.498637 
1.3127491e+2, 2.6233897e+1, -106363.52, -661203.1, 158.07755, 0.00015279654, -0.00009987097, -106363.484, -106363.484, 0.0, 2.500474, 2.498637 
1.3127491e+2, 2.8732535e+1, -106310.91, -661215.6, 183.75839, 0.00017392109, -0.00019060906, -106310.85, -106310.85, 0.0, 2.500474, 2.498637 
1.3127491e+2, 3.1231248e+1, -64590.832, -574790.3, -244.16525, 0.00010536482, 0.00009799072, -64590.72, -64590.72, 0.0, 2.5004742, 2.498785 
1.3127491e+2, 3.3730042e+1, -63578.18, -572625.6, 175.97356, 0.000017316988, 0.000001569613, -63578.12, -63578.12, 0.0, 2.5004742, 2.4987888 
1.3127491e+2, 3.622883e+1, -63647.594, -572703.4, 160.52061, -0.000057533976, -0.00009447288, -63647.543, -63647.543, 0.0, 2.5004742, 2.4987886 
1.3127491e+2, 3.872762e+1, -63719.594, -572782.3, 144.94669, -0.000119468896, -0.00018747915, -63719.555, -63719.555, 0.0, 2.500474, 2.4987886 
1.3127491e+2, 4.1226485e+1, -22636.848, -487544.28, -222.58833, 0.000045017496, 0.000244778, -22636.742, -22636.742, 0.0, 2.5004742, 2.4989347 
1.3127491e+2, 4.3725422e+1, -21068.264, -484386.56, 196.69206, 0.0001184351, -0.000033032968, -21068.18, -21068.18, 0.0, 2.5004742, 2.49894 
1.3127491e+2, 4.6224362e+1, -21036.578, -484414.53, 212.32419, 0.00020824122, -0.00031422055, -21036.48, -21036.48, 0.0, 2.5004745, 2.49894 
1.3127491e+2, 4.87233e+1, -21008.865, -484444.38, 227.75684, 0.00031585366, -0.0005931955, -21008.754, -21008.754, 0.0, 2.5004745, 2.49894 
1.3127491e+2, 5.122232e+1, 19707.287, -399895.8, -118.59295, 0.000090887595, -0.000023421399, 19707.32, 19707.32, 0.0, 2.5004745, 2.499085 
1.3127491e+2, 5.372141e+1, 21665.598, -395976.03, 160.81348, 0.000024490711, -0.00007046921, 21665.66, 21665.66, 0.0, 2.5004747, 2.4990916 
1.3127491e+2, 5.62205e+1, 21730.945, -395982.03, 171.30812, -0.000020394664, -0.00012471076, 21731.016, 21731.016, 0.0, 2.500475, 2.4990916 
1.3127491e+2, 5.8719593e+1, 21792.14, -395990.06, 181.53418, -0.000046587837, -0.00017829747, 21792.22, 21792.22, 0.0, 2.500475, 2.4990914 
1.3127491e+2, 6.121876e+1, 62210.39, -311829.38, 190.43228, -0.0001399519, 0.00046724628, 62210.49, 62210.49, 0.0, 2.5004747, 2.499236 
1.3127491e+2, 6.3718003e+1, 64269.926, -307630.9, 198.74763, 0.00013316114, 0.000062551306, 64270.03, 64270.03, 0.0, 2.500475, 2.4992433 
1.3127491e+2, 6.621724e+1, 64299.86, -307644.56, 202.3973, 0.00042611218, -0.00035244293, 64299.97, 64299.97, 0.0, 2.500475, 2.499243 
1.3127491e+2, 6.8716484e+1, 64324.69, -307660.66, 205.81099, 0.0007360703, -0.0007672158, 64324.805, 64324.805, 0.0, 2.500475, 2.499243 
1.3127491e+2, 7.12158e+1, 104555.31, -223740.4, 357.35596, -0.00007395229, 0.00008627429, 104555.695, 104555.695, 0.0, 2.5004747, 2.4993873 
1.3127491e+2, 7.371519e+1, 106898.055, -219451.06, -50.613567, -0.00022364157, -0.000050490333, 106898.06, 106898.06, 0.0, 2.5004754, 2.4993944 
1.3127491e+2, 7.6214594e+1, 107248.32, -219302.28, -44.575844, -0.00034368935, -0.00020062464, 107248.33, 107248.33, 0.0, 2.500476, 2.4993944 
1.3127491e+2, 7.8713983e+1, 107593.64, -219155.88, -39.090107, -0.00044648457, -0.00034899215, 107593.64, 107593.64, 0.0, 2.5004766, 2.4993942 
1.3127491e+2, 8.1213456e+1, 147937.89, -134830.2, 894.2251, -0.00028440848, 0.000315327, 147940.72, 147940.72, 0.0, 2.500476, 2.4995394 
1.3127491e+2, 8.3712995e+1, 149699.11, -131220.28, 33.917633, 0.00041830906, -0.00006938302, 149699.11, 149699.11, 0.0, 2.5004761, 2.4995456 
1.3127492e+2, 8.6212534e+1, 149723.64, -131220.25, 45.877453, 0.0011444632, -0.00046678647, 149723.66, 149723.66, 0.0, 2.5004761, 2.4995453 
1.3127492e+2, 8.871207e+1, 149741.58, -131223.4, 57.44324, 0.0018922007, -0.00086385506, 149741.58, 149741.58, 0.0, 2.5004761, 2.4995453 
1.3127491e+2, 9.121172e+1, 190533.13, -45758.1, 1069.1927, -0.0014026252, 0.001194611, 190537.97, 190537.97, 0.0, 2.5004754, 2.4996927 
1.3127491e+2, 9.37114e+1, 192485.4, -42763.99, -352.1043, -0.00078507664, 0.0005561814, 192485.94, 192485.94, 0.0, 2.5004766, 2.4996972 
1.3127491e+2, 9.621109e+1, 193133.45, -42464.207, -415.81918, -0.000083684696, -0.00013089228, 193134.19, 193134.19, 0.0, 2.5004776, 2.4996972 
1.3127492e+2, 9.8710775e+1, 193759.2, -42175.16, -481.32443, 0.0006394681, -0.0008275099, 193760.19, 193760.19, 0.0, 2.5004787, 2.4996972 
1.3377537e+2, 1.2491687e+0, -191465.19, -837438.06, 74.95971, 0.00004482131, -0.00000452112, -191465.17, -191465.17, 0.0, 2.5004733, 2.4983351 
1.3377537e+2, 3.7475055e+0, -191580.17, -837855.75, 3.3942294, 0.000026377358, -0.000013395266, -191580.17, -191580.17, 0.0, 2.5004735, 2.4983342 
1.3377537e+2, 6.245843e+0, -191474.72, -837812.9, 8.949076, 0.000015648377, -0.000022044553, -191474.72, -191474.72, 0.0, 2.5004737, 2.4983342 
1.3377537e+2, 8.7441796e+0, -191370.8, -837770.75, 14.6589775, 0.000012634379, -0.000030469115, -191370.8, -191370.8, 0.0, 2.5004737, 2.4983342 
1.3377537e+2, 1.1242594e+1, -149021.86, -749933.2, -127.12231, 0.000020699708, 0.000117399635, -149021.83, -149021.83, 0.0, 2.500474, 2.4984846 
1.3377537e+2, 1.3741082e+1, -148807.08, -749336.4, 69.24697, -0.000015015571, 0.000022638214, -148807.08, -148807.08, 0.0, 2.5004737, 2.4984858 
1.3377537e+2, 1.6239569e+1, -148918.84, -749416.0, 53.306328, -0.00004292225, -0.00007143248, -148918.83, -148918.83, 0.0, 2.5004737, 2.4984858 
1.3377537e+2, 1.8738057e+1, -149031.53, -749496.1, 37.68146, -0.000062951025, -0.00016434342, -149031.53, -149031.53, 0.0, 2.5004735, 2.4984858 
1.3377537e+2, 2.123662e+1, -107121.42, -662512.7, -242.70099, 0.00012819229, 0.000097508295, -107121.31, -107121.31, 0.0, 2.5004735, 2.4986348 
1.3377537e+2, 2.3735258e+1, -106358.83, -661050.3, 147.70448, 0.00009167396, 0.000011273092, -106358.79, -106358.79, 0.0, 2.5004737, 2.4986372 
1.3377537e+2, 2.62339e+1, -106306.62, -661060.4, 176.57022, 0.000061039966, -0.0000741802, -106306.56, -106306.56, 0.0, 2.5004737, 2.4986372 
1.3377537e+2, 2.8732535e+1, -106256.17, -661071.4, 205.88962, 0.000037415404, -0.00015713027, -106256.1, -106256.1, 0.0, 2.500474, 2.4986372 
1.3377537e+2, 3.123125e+1, -64636.992, -574829.6, -224.56317, 0.000013884826, 0.00014823966, -64636.89, -64636.89, 0.0, 2.5004742, 2.498785 
1.3377537e+2, 3.3730042e+1, -63623.344, -572655.06, 166.69948, -0.000025305213, 0.000035946996, -63623.29, -63623.29, 0.0, 2.5004742, 2.4987888 
1.3377537e+2, 3.622883e+1, -63694.777, -572730.9, 157.11818, -0.000057337733, -0.00007739136, -63694.727, -63694.727, 0.0, 2.500474, 2.4987886 
1.3377537e+2, 3.872762e+1, -63767.74, -572807.44, 147.96309, -0.00008216896, -0.00018895212, -63767.695, -63767.695, 0.0, 2.500474, 2.4987886 
1.3377537e+2, 4.1226482e+1, -22616.033, -487411.13, -183.99252, 0.000011219005, 0.00022977684, -22615.96, -22615.96, 0.0, 2.500474, 2.498935 
1.3377537e+2, 4.3725425e+1, -21069.447, -484299.84, 233.5121, 0.000058999198, 0.000025275998, -21069.328, -21069.328, 0.0, 2.5004742, 2.4989402 
1.3377537e+2, 4.6224365e+1, -21034.781, -484324.25, 258.6164, 0.000113769645, -0.00018383427, -21034.637, -21034.637, 0.0, 2.5004742, 2.4989402 
1.3377537e+2, 4.8723304e+1, -21002.945, -484350.0, 284.06903, 0.00017623063, -0.00039234394, -21002.771, -21002.771, 0.0, 2.5004745, 2.49894 
1.3377537e+2, 5.122232e+1, 19728.846, -399763.4, -86.1128, 0.000005095572, 0.00014167195, 19728.863, 19728.863, 0.0, 2.5004745, 2.4990852 
1.3377537e+2, 5.372141e+1, 21652.326, -395921.1, 229.07256, -0.000030766452, 0.000019933046, 21652.453, 21652.453, 0.0, 2.5004747, 2.4990919 
1.3377537e+2, 5.622051e+1, 21722.785, -395924.4, 250.56494, -0.00005701282, -0.00010941491, 21722.936, 21722.936, 0.0, 2.5004747, 2.4990916 
1.3377537e+2, 5.8719593e+1, 21790.191, -395929.2, 272.3976, -0.00007579441, -0.0002388712, 21790.37, 21790.37, 0.0, 2.500475, 2.4990916 
1.3377537e+2, 6.121876e+1, 62223.902, -311757.47, 199.70401, -0.00021789288, 0.00037850393, 62224.01, 62224.01, 0.0, 2.5004747, 2.499236 
1.3377537e+2, 6.3718003e+1, 64268.88, -307597.75, 291.52756, 0.000059627077, 0.00006707323, 64269.11, 64269.11, 0.0, 2.500475, 2.4992433 
1.3377537e+2, 6.621725e+1, 64305.215, -307608.8, 308.4478, 0.00034623125, -0.0002542105, 64305.473, 64305.473, 0.0, 2.500475, 2.4992433 
1.3377537e+2, 6.8716484e+1, 64337.934, -307621.63, 325.49292, 0.00063840934, -0.00057525287, 64338.215, 64338.215, 0.0, 2.500475, 2.499243 
1.3377537e+2, 7.12158e+1, 104638.54, -223597.92, 412.8411, -0.00015325255, 0.00026638465, 104639.055, 104639.055, 0.0, 2.5004747, 2.4993875 
1.3377537e+2, 7.371519e+1, 106949.06, -219391.9, 157.55267, -0.00028279301, 0.00011881736, 106949.14, 106949.14, 0.0, 2.5004754, 2.4993944 
1.3377537e+2, 7.6214594e+1, 107308.36, -219241.39, 175.99973, -0.00039538057, -0.00004169615, 107308.45, 107308.45, 0.0, 2.500476, 2.4993944 
1.3377537e+2, 7.8713983e+1, 107663.336, -219092.95, 194.22116, -0.0005032101, -0.00020075173, 107663.445, 107663.445, 0.0, 2.5004766, 2.4993944 
1.3377537e+2, 8.1213456e+1, 148110.88, -134602.88, 858.61786, -0.00028765568, 0.00037954858, 148113.47, 148113.47, 0.0, 2.5004761, 2.4995396 
1.3377538e+2, 8.3712995e+1, 149824.31, -131111.17, 188.13057, 0.00039807666, -0.000052793603, 149824.44, 149824.44, 0.0, 2.5004761, 2.4995456 
1.3377538e+2, 8.621254e+1, 149859.13, -131108.78, 208.02803, 0.0010905436, -0.00049652095, 149859.28, 149859.28, 0.0, 2.5004764, 2.4995456 
1.3377541e+2, 8.871207e+1, 149887.61, -131109.44, 227.6241, 0.0017888339, -0.00093938416, 149887.8, 149887.8, 0.0, 2.5004764, 2.4995456 
1.3377537e+2, 9.121172e+1, 190730.03, -45646.51, 1113.6084, -0.0016438039, 0.0010034102, 190735.28, 190735.28, 0.0, 2.5004756, 2.4996927 
1.3377537e+2, 9.37114e+1, 192630.98, -42817.47, -10.666937, -0.0009170311, 0.00053594203, 192630.98, 192630.98, 0.0, 2.5004768, 2.499697 
1.3377538e+2, 9.621109e+1, 193323.16, -42498.023, -56.766094, -0.00013193267, 0.000024506797, 193323.17, 193323.17, 0.0, 2.500478, 2.4996967 
1.3377538e+2, 9.871079e+1, 194002.55, -42184.73, -102.8578, 0.0006467957, -0.00049448985, 194002.6, 194002.6, 0.0, 2.5004792, 2.4996967 
1.3627584e+2, 1.2491687e+0, -191440.22, -837385.9, 101.65583, 0.00005402998, -0.0000032299847, -191440.2, -191440.2, 0.0, 2.5004733, 2.4983351 
1.3627584e+2, 3.7475058e+0, -191550.69, -837793.5, 28.985458, -0.0000041865815, -0.000009092669, -191550.69, -191550.69, 0.0, 2.5004735, 2.4983344 
1.3627584e+2, 6.245843e+0, -191445.73, -837751.06, 37.031094, -0.00006213603, -0.000014158253, -191445.73, -191445.73, 0.0, 2.5004737, 2.4983344 
1.3627584e+2, 8.744181e+0, -191342.33, -837709.3, 45.23178, -0.000119818345, -0.000018426872, -191342.33, -191342.33, 0.0, 2.5004737, 2.4983342 
1.3627584e+2, 1.1242594e+1, -149045.08, -749974.2, -135.81305, -0.000107434644, 0.0001444867, -149045.05, -149045.05, 0.0, 2.500474, 2.4984846 
1.3627584e+2, 1.3741082e+1, -148822.6, -749359.9, 41.085735, -0.00008751508, 0.00005252818, -148822.6, -148822.6, 0.0, 2.5004737, 2.4984858 
1.3627584e+2, 1.6239569e+1, -148934.17, -749437.75, 27.472563, -0.0000641589, -0.000037983522, -148934.17, -148934.17, 0.0, 2.5004737, 2.4984858 
1.3627584e+2, 1.8738057e+1, -149046.67, -749516.1, 14.175175, -0.000037276674, -0.00012654993, -149046.67, -149046.67, 0.0, 2.5004735, 2.4984856 
1.3627584e+2, 2.123662e+1, -107049.24, -662341.56, -213.53322, 0.000116711875, 0.000108341344, -107049.164, -107049.164, 0.0, 2.5004735, 2.498635 
1.3627584e+2, 2.3735258e+1, -106302.28, -660911.94, 162.4559, 0.00004361866, 0.000026947926, -106302.234, -106302.234, 0.0, 2.5004737, 2.4986374 
1.3627584e+2, 2.62339e+1, -106248.234, -660918.6, 193.99232, -0.00002870206, -0.000054092612, -106248.164, -106248.164, 0.0, 2.5004737, 2.4986374 
1.3627584e+2, 2.8732535e+1, -106195.95, -660926.1, 225.98242, -0.0000993461, -0.00013322712, -106195.86, -106195.86, 0.0, 2.500474, 2.4986374 
1.3627584e+2, 3.123125e+1, -64682.387, -574885.4, -212.6588, -0.00007489535, 0.00019587587, -64682.297, -64682.297, 0.0, 2.5004742, 2.4987848 
1.3627584e+2, 3.3730042e+1, -63653.332, -572678.6, 151.30092, -0.00006676029, 0.00006468163, -63653.29, -63653.29, 0.0, 2.5004742, 2.4987886 
1.3627584e+2, 3.622883e+1, -63723.03, -572750.7, 144.13687, -0.000057536177, -0.00006905174, -63722.99, -63722.99, 0.0, 2.500474, 2.4987886 
1.3627584e+2, 3.872762e+1, -63794.258, -572823.5, 137.39905, -0.000046825404, -0.00020226673, -63794.22, -63794.22, 0.0, 2.500474, 2.4987886 
1.3627584e+2, 4.1226482e+1, -22581.541, -487287.63, -167.61208, -0.00001529328, 0.00021417972, -22581.48, -22581.48, 0.0, 2.500474, 2.4989352 
1.3627584e+2, 4.3725425e+1, -21047.96, -484203.56, 247.90892, 0.000006682917, 0.000079502504, -21047.83, -21047.83, 0.0, 2.5004742, 2.4989405 
1.3627584e+2, 4.6224365e+1, -21011.777, -484225.1, 277.01282, 0.00002615464, -0.00006113711, -21011.613, -21011.613, 0.0, 2.5004742, 2.4989405 
1.3627584e+2, 4.8723304e+1, -20978.422, -484248.0, 306.46506, 0.00004320067, -0.00020278733, -20978.22, -20978.22, 0.0, 2.5004745, 2.4989402 
1.3627584e+2, 5.122232e+1, 19753.639, -399650.6, -96.23658, -0.00007934094, 0.00030567907, 19753.662, 19753.662, 0.0, 2.5004745, 2.4990854 
1.3627584e+2, 5.372141e+1, 21650.844, -395861.8, 251.3596, -0.000083475315, 0.0001049147, 21650.994, 21650.994, 0.0, 2.5004745, 2.4990919 
1.3627584e+2, 5.622051e+1, 21720.852, -395865.1, 277.4115, -0.00008984216, -0.000104007275, 21721.037, 21721.037, 0.0, 2.5004747, 2.4990919 
1.3627584e+2, 5.8719593e+1, 21787.81, -395869.84, 303.80365, -0.00009997151, -0.00031380085, 21788.031, 21788.031, 0.0, 2.500475, 2.4990916 
1.3627584e+2, 6.121876e+1, 62214.863, -311722.75, 142.42267, -0.0002900726, 0.0002910523, 62214.918, 62214.918, 0.0, 2.5004747, 2.4992363 
1.3627584e+2, 6.3718003e+1, 64254.57, -307572.22, 309.21042, -0.00000598274, 0.000068559224, 64254.83, 64254.83, 0.0, 2.5004747, 2.4992433 
1.3627584e+2, 6.621725e+1, 64289.402, -307584.53, 330.9052, 0.00027643266, -0.00016356865, 64289.695, 64289.695, 0.0, 2.500475, 2.4992433 
1.3627584e+2, 6.8716484e+1, 64320.61, -307598.56, 352.72485, 0.00055298925, -0.00039543555, 64320.945, 64320.945, 0.0, 2.500475, 2.4992433 
1.3627584e+2, 7.12158e+1, 104665.734, -223508.38, 372.0615, -0.00022765379, 0.0004475413, 104666.16, 104666.16, 0.0, 2.5004747, 2.4993877 
1.3627584e+2, 7.3715204e+1, 106949.836, -219357.98, 258.1727, -0.00033407734, 0.00028585663, 106950.04, 106950.04, 0.0, 2.5004754, 2.4993944 
1.3627584e+2, 7.6214594e+1, 107307.695, -219210.77, 281.33884, -0.00043613667, 0.000111439105, 107307.945, 107307.945, 0.0, 2.500476, 2.4993944 
1.3627584e+2, 7.871399e+1, 107661.25, -219065.63, 304.27936, -0.0005459327, -0.00006182923, 107661.53, 107661.53, 0.0, 2.5004766, 2.4993944 
1.3627584e+2, 8.1213456e+1, 148185.95, -134447.06, 698.2862, -0.0002850935, 0.00044369648, 148187.69, 148187.69, 0.0, 2.5004761, 2.4995399 
1.3627586e+2, 8.3712995e+1, 149854.27, -131048.79, 211.70848, 0.00038615873, -0.00003931243, 149854.42, 149854.42, 0.0, 2.5004761, 2.4995456 
1.3627586e+2, 8.621254e+1, 149886.97, -131049.99, 237.2785, 0.0010475775, -0.0005325625, 149887.17, 149887.17, 0.0, 2.5004764, 2.4995456 
1.3627587e+2, 8.8712084e+1, 149913.34, -131054.24, 262.54715, 0.0016990602, -0.0010244194, 149913.6, 149913.6, 0.0, 2.5004764, 2.4995456 
1.3627584e+2, 9.121172e+1, 190758.78, -45655.477, 1031.5453, -0.0018615975, 0.0008262814, 190763.28, 190763.28, 0.0, 2.5004756, 2.4996924 
1.3627584e+2, 9.37114e+1, 192594.14, -42960.375, 188.75243, -0.0010238829, 0.00052283425, 192594.3, 192594.3, 0.0, 2.500477, 2.4996965 
1.3627586e+2, 9.62111e+1, 193283.2, -42644.016, 154.55524, -0.00015350149, 0.00017969623, 193283.31, 193283.31, 0.0, 2.5004783, 2.4996965 
1.3627586e+2, 9.871079e+1, 193959.5, -42333.81, 120.36548, 0.00068237685, -0.0001690192, 193959.56, 193959.56, 0.0, 2.5004792, 2.4996965 
1.3877632e+2, 1.2491687e+0, -191687.9, -837465.94, 126.38436, 0.00006635697, -0.0000026495125, -191687.89, -191687.89, 0.0, 2.5004728, 2.4983351 
1.3877632e+2, 3.7475058e+0, -191697.11, -837818.0, 48.91146, -0.000032250806, -0.000006940268, -191697.1, -191697.1, 0.0, 2.5004733, 2.4983344 
1.3877632e+2, 6.245843e+0, -191564.1, -837762.2, 54.852314, -0.00013773183, -0.000009885974, -191564.1, -191564.1, 0.0, 2.5004735, 2.4983344 
1.3877632e+2, 8.744181e+0, -191501.53, -837740.4, 60.363827, -0.00025008607, -0.000011486788, -191501.53, -191501.53, 0.0, 2.5004735, 2.4983344 
1.3877632e+2, 1.1242594e+1, -149250.94, -750117.9, -169.50008, -0.00023225478, 0.00017288746, -149250.89, -149250.89, 0.0, 2.5004737, 2.4984846 
1.3877632e+2, 1.3741082e+1, -148924.58, -749427.6, -24.61383, -0.00015840112, 0.00007947976, -148924.58, -148924.58, 0.0, 2.5004737, 2.4984858 
1.3877632e+2, 1.6239569e+1, -148989.66, -749481.44, -49.262413, -0.00008534938, -0.000011768604, -148989.66, -148989.66, 0.0, 2.5004735, 2.4984858 
1.3877632e+2, 1.8738057e+1, -149097.86, -749556.0, -73.842224, -0.000012987596, -0.00010030903, -149097.84, -149097.84, 0.0, 2.5004735, 2.4984856 
1.3877632e+2, 2.123662e+1, -106991.31, -662203.44, -269.13718, 0.0001144182, 0.00012090402, -106991.18, -106991.18, 0.0, 2.5004735, 2.4986353 
1.3877632e+2, 2.3735258e+1, -106169.52, -660739.4, 71.55867, 0.0000023931848, 0.000040436753, -106169.516, -106169.516, 0.0, 2.5004737, 2.4986377 
1.3877632e+2, 2.62339e+1, -106070.69, -660721.94, 78.43439, -0.00011389164, -0.000040197727, -106070.68, -106070.68, 0.0, 2.500474, 2.4986377 
1.3877632e+2, 2.8732535e+1, -106006.37, -660721.1, 82.23903, -0.00023369981, -0.00011953668, -106006.36, -106006.36, 0.0, 2.5004742, 2.4986377 
1.3877632e+2, 3.123125e+1, -64577.68, -574886.5, -393.59076, -0.00015830978, 0.00024016981, -64577.375, -64577.375, 0.0, 2.5004745, 2.4987848 
1.3877632e+2, 3.3730042e+1, -63472.008, -572602.6, -72.21852, -0.000104505336, 0.00008693513, -63471.996, -63471.996, 0.0, 2.5004745, 2.4987886 
1.3877632e+2, 3.622883e+1, -63523.445, -572663.06, -100.013725, -0.00005557799, -0.00007038841, -63523.426, -63523.426, 0.0, 2.5004745, 2.4987886 
1.3877632e+2, 3.872762e+1, -63610.813, -572740.9, -130.64464, -0.000010747216, -0.00022844055, -63610.78, -63610.78, 0.0, 2.5004742, 2.4987886 
1.3877632e+2, 4.1226482e+1, -22323.842, -487073.7, -443.76752, -0.000031905136, 0.00019685723, -22323.418, -22323.418, 0.0, 2.5004745, 2.4989355 
1.3877632e+2, 4.3725425e+1, -20756.691, -483979.63, -61.240673, -0.00003608467, 0.00012840114, -20756.684, -20756.684, 0.0, 2.5004745, 2.4989407 
1.3877632e+2, 4.6224365e+1, -20752.93, -484014.72, -66.653275, -0.00005205525, 0.0000525534, -20752.92, -20752.92, 0.0, 2.5004747, 2.4989407 
1.3877632e+2, 4.8723307e+1, -20823.209, -484085.5, -74.615074, -0.00008026357, -0.000025871415, -20823.197, -20823.197, 0.0, 2.5004745, 2.4989405 
1.3877632e+2, 5.1222324e+1, 19874.125, -399513.94, -548.7039, -0.00015948292, 0.00046716264, 19874.842, 19874.842, 0.0, 2.5004745, 2.4990857 
1.3877632e+2, 5.372141e+1, 21810.629, -395727.34, -197.21762, -0.00013117617, 0.00018287086, 21810.723, 21810.723, 0.0, 2.5004747, 2.499092 
1.3877632e+2, 5.622051e+1, 21845.127, -395747.53, -199.78334, -0.00011655186, -0.00011023239, 21845.223, 21845.223, 0.0, 2.500475, 2.4990919 
1.3877632e+2, 5.8719593e+1, 21788.188, -395811.75, -203.75279, -0.000116566924, -0.00040494272, 21788.287, 21788.287, 0.0, 2.5004747, 2.4990919 
1.3877632e+2, 6.121876e+1, 62113.12, -311759.94, -496.12787, -0.00035398055, 0.00020298321, 62113.78, 62113.78, 0.0, 2.5004745, 2.4992363 
1.3877632e+2, 6.371801e+1, 64129.465, -307602.22, -303.63272, -0.00006148802, 0.00006507823, 64129.715, 64129.715, 0.0, 2.5004745, 2.4992435 
1.3877632e+2, 6.621725e+1, 64034.37, -307677.53, -322.5666, 0.00021894126, -0.0000824975, 64034.652, 64034.652, 0.0, 2.5004745, 2.4992433 
1.3877633e+2, 6.871649e+1, 63841.52, -307799.97, -337.92874, 0.00048245443, -0.00022981959, 63841.83, 63841.83, 0.0, 2.5004742, 2.4992433 
1.3877632e+2, 7.1215814e+1, 104059.8, -223750.19, -421.8585, -0.00029458606, 0.00062769395, 104060.336, 104060.336, 0.0, 2.5004735, 2.4993877 
1.3877632e+2, 7.3715204e+1, 106246.414, -219664.67, -437.3987, -0.00037552445, 0.00044867603, 106247.0, 106247.0, 0.0, 2.500474, 2.4993947 
1.3877632e+2, 7.62146e+1, 106413.086, -219612.1, -446.43207, -0.00046418325, 0.0002569018, 106413.695, 106413.695, 0.0, 2.5004745, 2.4993944 
1.3877632e+2, 7.871399e+1, 106471.52, -219611.66, -453.11588, -0.0005726695, 0.00006594173, 106472.16, 106472.16, 0.0, 2.5004745, 2.4993944 
1.3877632e+2, 8.1213456e+1, 146802.05, -135017.78, -351.02814, -0.00027481638, 0.00050606177, 146802.48, 146802.48, 0.0, 2.5004737, 2.49954 
1.3877633e+2, 8.3712995e+1, 148215.19, -131790.38, -668.6726, 0.0003841458, -0.000030465857, 148216.8, 148216.8, 0.0, 2.5004733, 2.4995458 
1.3877633e+2, 8.621254e+1, 147895.95, -131963.48, -639.24384, 0.0010173586, -0.0005763216, 147897.42, 147897.42, 0.0, 2.5004728, 2.4995458 
1.3877635e+2, 8.8712084e+1, 147445.52, -132199.8, -600.51984, 0.0016253943, -0.001120322, 147446.8, 147446.8, 0.0, 2.500472, 2.4995458 
1.3877632e+2, 9.121172e+1, 187859.94, -47111.813, 54.282463, -0.0020535747, 0.00066210056, 187859.95, 187859.95, 0.0, 2.5004709, 2.4996924 
1.3877632e+2, 9.37114e+1, 189242.36, -44699.164, -550.4984, -0.0011039206, 0.0005161434, 189243.64, 189243.64, 0.0, 2.5004714, 2.4996963 
1.3877633e+2, 9.62111e+1, 189288.69, -44693.9, -600.138, -0.00014650007, 0.0003342522, 189290.23, 189290.23, 0.0, 2.5004714, 2.4996963 
1.3877635e+2, 9.871079e+1, 189095.3, -44804.082, -646.29675, 0.00074918364, 0.00014864941, 189097.1, 189097.1, 0.0, 2.500471, 2.4996963 
1.4127679e+2, 1.2491687e+0, -191099.3, -837173.75, 136.31657, 0.0002797697, -0.0000065873537, -191099.28, -191099.28, 0.0, 2.5004737, 2.4983351 
1.4127679e+2, 3.7475055e+0, -191401.08, -837660.94, 36.85645, 0.00015035375, -0.000020428835, -191401.08, -191401.08, 0.0, 2.5004737, 2.4983344 
1.4127679e+2, 6.245843e+0, -191498.58, -837719.56, 23.572308, 0.000038972496, -0.000035158653, -191498.58, -191498.58, 0.0, 2.5004735, 2.4983344 
1.4127679e+2, 8.7441796e+0, -191598.7, -837779.44, 10.800458, -0.00005437402, -0.00005077695, -191598.7, -191598.7, 0.0, 2.5004733, 2.4983344 
1.4127679e+2, 1.1242593e+1, -149412.7, -750192.44, -149.98087, -0.000008532318, 0.00013023561, -149412.67, -149412.67, 0.0, 2.5004735, 2.4984846 
1.4127679e+2, 1.374108e+1, -148959.23, -749443.56, 24.564844, 0.000046624107, 0.000043810374, -148959.23, -148959.23, 0.0, 2.5004735, 2.4984858 
1.4127679e+2, 1.6239569e+1, -148854.55, -749416.75, 42.49124, 0.00011138385, -0.000043738433, -148854.55, -148854.55, 0.0, 2.5004737, 2.4984858 
1.4127679e+2, 1.8738054e+1, -148751.38, -749390.6, 60.694817, 0.00018591905, -0.00013186291, -148751.36, -148751.36, 0.0, 2.500474, 2.4984856 
1.4127679e+2, 2.1236618e+1, -106589.57, -662035.44, -96.80505, 0.000277512, 0.000079215315, -106589.555, -106589.555, 0.0, 2.5004742, 2.4986353 
1.4127679e+2, 2.3735258e+1, -106075.414, -660741.44, 172.23137, 0.00015879101, -0.000008555596, -106075.36, -106075.36, 0.0, 2.500474, 2.4986377 
1.4127679e+2, 2.6233897e+1, -106244.1, -660862.7, 138.39183, 0.000047466612, -0.00009790894, -106244.07, -106244.07, 0.0, 2.5004737, 2.4986377 
1.4127679e+2, 2.8732535e+1, -106414.086, -660984.56, 105.198326, -0.000055901517, -0.00018741476, -106414.06, -106414.06, 0.0, 2.5004735, 2.4986374 
1.4127679e+2, 3.1231248e+1, -65033.5, -575126.75, -276.81894, 0.000053762495, 0.00016611704, -65033.35, -65033.35, 0.0, 2.5004737, 2.4987848 
1.4127679e+2, 3.373004e+1, -63780.563, -572795.4, 77.825516, 0.0000987171, 0.0000019210906, -63780.55, -63780.55, 0.0, 2.500474, 2.4987886 
1.4127679e+2, 3.622883e+1, -63638.477, -572770.3, 106.43681, 0.00014903763, -0.00016514368, -63638.457, -63638.457, 0.0, 2.5004742, 2.4987886 
1.4127679e+2, 3.8727614e+1, -63497.88, -572745.94, 135.60393, 0.00020571821, -0.00033167776, -63497.844, -63497.844, 0.0, 2.5004745, 2.4987884 
1.4127679e+2, 4.1226482e+1, -22171.174, -487044.88, -141.75003, 0.0001584235, 0.00007402865, -22171.13, -22171.13, 0.0, 2.5004747, 2.4989355 
1.4127679e+2, 4.3725422e+1, -20850.078, -484110.6, 221.69737, 0.00013020368, 0.000008401332, -20849.97, -20849.97, 0.0, 2.5004745, 2.4989405 
1.4127679e+2, 4.6224362e+1, -20999.041, -484225.66, 204.06972, 0.00011562263, -0.00005993356, -20998.951, -20998.951, 0.0, 2.5004742, 2.4989405 
1.4127679e+2, 4.8723304e+1, -21150.244, -484341.75, 186.91756, 0.00011410455, -0.00012630907, -21150.168, -21150.168, 0.0, 2.500474, 2.4989402 
1.4127679e+2, 5.122232e+1, 19601.05, -399699.06, -223.19264, 0.000038944265, 0.00034781353, 19601.17, 19601.17, 0.0, 2.500474, 2.4990854 
1.4127679e+2, 5.372141e+1, 21545.963, -395959.66, 155.72276, 0.00004593565, 0.000042821335, 21546.021, 21546.021, 0.0, 2.5004745, 2.4990919 
1.4127679e+2, 5.62205e+1, 21705.537, -395924.2, 157.21025, 0.00006740529, -0.00026686222, 21705.596, 21705.596, 0.0, 2.5004747, 2.4990916 
1.4127679e+2, 5.871959e+1, 21861.893, -395890.3, 158.50688, 0.00010242152, -0.00057420164, 21861.953, 21861.953, 0.0, 2.500475, 2.4990916 
1.4127679e+2, 6.1218756e+1, 62349.14, -311705.63, -145.78766, -0.00013956736, 0.000007987671, 62349.2, 62349.2, 0.0, 2.500475, 2.499236 
1.4127679e+2, 6.3718e+1, 64397.742, -307575.06, 148.38553, 0.00010119477, -0.00011803081, 64397.8, 64397.8, 0.0, 2.5004752, 2.4992433 
1.4127679e+2, 6.621724e+1, 64459.64, -307570.97, 150.50316, 0.0003601094, -0.000253696, 64459.703, 64459.703, 0.0, 2.5004752, 2.499243 
1.412768e+2, 6.8716484e+1, 64518.258, -307568.44, 152.47453, 0.0006323793, -0.00038941426, 64518.32, 64518.32, 0.0, 2.5004754, 2.499243 
1.4127679e+2, 7.12158e+1, 104853.8, -223389.19, 39.513992, -0.00014305647, 0.00043629494, 104853.8, 104853.8, 0.0, 2.500475, 2.4993877 
1.4127679e+2, 7.371519e+1, 106888.414, -219417.86, 179.40886, -0.00024542035, 0.0002620408, 106888.516, 106888.516, 0.0, 2.5004752, 2.4993944 
1.4127679e+2, 7.6214594e+1, 107033.59, -219372.83, 184.72691, -0.0003229461, 0.00007487231, 107033.695, 107033.695, 0.0, 2.5004754, 2.4993944 
1.4127679e+2, 7.8713983e+1, 107175.125, -219329.55, 189.52573, -0.00038761357, -0.00011220034, 107175.234, 107175.234, 0.0, 2.500476, 2.4993944 
1.412768e+2, 8.121345e+1, 147739.72, -134548.19, 90.747604, -0.00007257148, 0.0003225971, 147739.75, 147739.75, 0.0, 2.5004752, 2.49954 
1.412768e+2, 8.371299e+1, 149701.44, -131094.72, -91.84738, 0.00052180246, -0.00017047187, 149701.45, 149701.45, 0.0, 2.500476, 2.4995458 
1.412768e+2, 8.6212534e+1, 150093.61, -130908.72, -138.69284, 0.001133583, -0.00067731796, 150093.69, 150093.69, 0.0, 2.5004766, 2.4995458 
1.4127682e+2, 8.871207e+1, 150480.88, -130725.09, -186.2915, 0.0017637735, -0.0011871798, 150480.98, 150480.98, 0.0, 2.5004773, 2.4995458 
1.4127679e+2, 9.1211706e+1, 191313.9, -45280.266, 278.75864, -0.0019219649, 0.0004931142, 191314.23, 191314.23, 0.0, 2.5004766, 2.4996927 
1.4127679e+2, 9.3711394e+1, 192531.63, -43003.668, -5.0442576, -0.0010006526, 0.00040313276, 192531.63, 192531.63, 0.0, 2.5004768, 2.4996965 
1.412768e+2, 9.621109e+1, 192681.98, -42945.777, -6.9152317, 0.0000016293367, 0.00026847696, 192681.98, 192681.98, 0.0, 2.500477, 2.4996965 
1.4127682e+2, 9.8710775e+1, 192821.33, -42893.188, -8.350762, 0.0010155728, 0.000119047414, 192821.33, 192821.33, 0.0, 2.5004773, 2.4996965 
1.4377727e+2, 1.2491685e+0, -191106.1, -837186.25, 103.12998, 0.00007818986, -0.000009286401, -191106.08, -191106.08, 0.0, 2.5004737, 2.4983351 
1.4377727e+2, 3.7475055e+0, -191402.86, -837659.8, 7.7748857, 0.000031069132, -0.00002772475, -191402.86, -191402.86, 0.0, 2.5004737, 2.4983344 
1.4377727e+2, 6.2458426e+0, -191502.28, -837719.1, -1.1635963, -0.000011135416, -0.000045983157, -191502.28, -191502.28, 0.0, 2.5004735, 2.4983344 
1.4377727e+2, 8.7441796e+0, -191604.31, -837779.75, -9.5897875, -0.00004842378, -0.00006406175, -191604.31, -191604.31, 0.0, 2.5004733, 2.4983344 
1.4377727e+2, 1.1242593e+1, -149342.16, -750043.44, -119.949585, 0.000031169984, 0.00010791323, -149342.14, -149342.14, 0.0, 2.5004735, 2.4984848 
1.4377727e+2, 1.374108e+1, -148904.14, -749324.25, 50.725586, 0.000034800043, 0.000043092306, -148904.14, -148904.14, 0.0, 2.5004735, 2.498486 
1.4377727e+2, 1.6239569e+1, -148800.67, -749297.56, 71.73571, 0.000040812214, -0.000022104578, -148800.67, -148800.67, 0.0, 2.5004737, 2.4984858 
1.4377727e+2, 1.8738057e+1, -148698.73, -749271.56, 93.02302, 0.000049468694, -0.00008717493, -148698.72, -148698.72, 0.0, 2.500474, 2.4984858 
1.4377727e+2, 2.123662e+1, -106636.63, -662102.2, -100.261, 0.0000926457, 0.00013096105, -106636.62, -106636.62, 0.0, 2.5004742, 2.4986353 
1.4377727e+2, 2.3735258e+1, -106139.79, -660840.1, 131.23566, 0.000034880803, 0.000035353598, -106139.76, -106139.76, 0.0, 2.500474, 2.4986374 
1.4377727e+2, 2.6233897e+1, -106310.195, -660961.0, 99.54433, -0.000019407666, -0.000060920334, -106310.18, -106310.18, 0.0, 2.5004737, 2.4986374 
1.4377727e+2, 2.8732535e+1, -106481.91, -661082.5, 68.49903, -0.000069881564, -0.00015642199, -106481.9, -106481.9, 0.0, 2.5004735, 2.4986374 
1.4377727e+2, 3.1231248e+1, -64951.09, -574912.6, -218.53906, 0.000055876084, 0.00018068073, -64950.996, -64950.996, 0.0, 2.5004735, 2.498785 
1.4377727e+2, 3.373004e+1, -63740.004, -572662.4, 120.995155, 0.000065507615, 0.000041102478, -63739.977, -63739.977, 0.0, 2.500474, 2.4987888 
1.4377727e+2, 3.622883e+1, -63600.918, -572636.56, 152.28957, 0.00007714795, -0.00010140744, -63600.87, -63600.87, 0.0, 2.5004742, 2.4987888 
1.4377727e+2, 3.8727614e+1, -63463.016, -572611.4, 184.21774, 0.00009184396, -0.00024363922, -63462.95, -63462.95, 0.0, 2.5004745, 2.4987886 
1.4377727e+2, 4.1226482e+1, -22196.398, -487020.1, -162.5917, 0.000049011192, 0.00013588885, -22196.342, -22196.342, 0.0, 2.5004747, 2.4989355 
1.4377727e+2, 4.3725422e+1, -20917.576, -484164.47, 196.36833, 0.000040889387, 0.000036951064, -20917.492, -20917.492, 0.0, 2.5004745, 2.4989405 
1.4377727e+2, 4.6224362e+1, -21070.85, -484279.84, 183.66893, 0.00003984843, -0.000064849, -21070.775, -21070.775, 0.0, 2.5004742, 2.4989402 
1.4377727e+2, 4.8723304e+1, -21226.031, -484396.16, 171.63493, 0.00004544933, -0.00016503055, -21225.967, -21225.967, 0.0, 2.500474, 2.4989402 
1.4377727e+2, 5.122232e+1, 19596.904, -399599.4, -179.04704, -0.000045761564, 0.00030890072, 19596.98, 19596.98, 0.0, 2.500474, 2.4990857 
1.4377727e+2, 5.372141e+1, 21496.918, -395952.6, 224.96416, -0.000013052314, 0.000083619496, 21497.04, 21497.04, 0.0, 2.5004742, 2.4990919 
1.4377727e+2, 5.62205e+1, 21658.143, -395914.6, 233.75337, 0.000026270876, -0.00014598672, 21658.273, 21658.273, 0.0, 2.5004747, 2.4990919 
1.4377727e+2, 5.871959e+1, 21817.045, -395877.75, 243.00012, 0.00007089611, -0.000373119, 21817.186, 21817.186, 0.0, 2.500475, 2.4990916 
1.4377727e+2, 6.1218756e+1, 62376.695, -311562.25, -176.23384, -0.00013691244, 0.00017021409, 62376.777, 62376.777, 0.0, 2.500475, 2.4992363 
1.4377727e+2, 6.3718e+1, 64361.78, -307565.53, 204.36896, 0.000061613195, -0.0000075968915, 64361.89, 64361.89, 0.0, 2.500475, 2.4992433 
1.4377728e+2, 6.621724e+1, 64424.02, -307563.0, 213.59258, 0.0002702297, -0.00019334238, 64424.14, 64424.14, 0.0, 2.5004752, 2.4992433 
1.4377728e+2, 6.8716484e+1, 64483.938, -307561.6, 223.17572, 0.00048474973, -0.00037806729, 64484.074, 64484.074, 0.0, 2.5004752, 2.499243 
1.4377727e+2, 7.12158e+1, 104892.78, -223276.2, -9.839472, -0.00026699502, 0.0003699043, 104892.78, 104892.78, 0.0, 2.500475, 2.499388 
1.4377727e+2, 7.371519e+1, 106891.6, -219394.64, 278.6625, -0.00031666443, 0.00020771136, 106891.836, 106891.836, 0.0, 2.5004752, 2.4993944 
1.4377727e+2, 7.6214594e+1, 107047.5, -219344.55, 290.55655, -0.0003497157, 0.00003449268, 107047.76, 107047.76, 0.0, 2.5004754, 2.4993944 
1.4377727e+2, 7.8713983e+1, 107200.53, -219295.83, 302.497, -0.00037776423, -0.00013753057, 107200.805, 107200.805, 0.0, 2.500476, 2.4993944 
1.4377728e+2, 8.121345e+1, 147777.52, -134578.1, 36.673153, -0.000053517902, 0.0003255721, 147777.52, 147777.52, 0.0, 2.5004754, 2.49954 
1.4377728e+2, 8.371299e+1, 149712.33, -131201.94, 79.71405, 0.0004900163, -0.000066563334, 149712.34, 149712.34, 0.0, 2.5004761, 2.4995456 
1.4377728e+2, 8.6212534e+1, 150116.03, -131013.95, 38.14886, 0.0010413338, -0.00047081494, 150116.05, 150116.05, 0.0, 2.5004768, 2.4995456 
1.437773e+2, 8.871207e+1, 150516.1, -130827.72, -3.7419026, 0.0016015792, -0.00087679806, 150516.1, 150516.1, 0.0, 2.5004776, 2.4995456 
1.4377727e+2, 9.1211706e+1, 191546.25, -45066.938, 121.2541, -0.0019585197, 0.00061763753, 191546.31, 191546.31, 0.0, 2.5004768, 2.499693 
1.4377727e+2, 9.3711394e+1, 192754.47, -42852.406, 129.1569, -0.0010434109, 0.00040103853, 192754.55, 192754.55, 0.0, 2.5004773, 2.4996967 
1.4377728e+2, 9.621108e+1, 192933.13, -42781.465, 139.15762, -0.0000669671, 0.00014478435, 192933.2, 192933.2, 0.0, 2.5004776, 2.4996967 
1.437773e+2, 9.8710775e+1, 193104.69, -42713.93, 149.22067, 0.0009041392, -0.00012392478, 193104.78, 193104.78, 0.0, 2.5004778, 2.4996965 
1.4627774e+2, 1.2491684e+0, -191113.39, -837199.75, 69.125244, -0.00012317159, -0.000013015847, -191113.38, -191113.38, 0.0, 2.5004737, 2.4983351 
1.4627774e+2, 3.7475052e+0, -191406.22, -837661.9, -21.668222, -0.000087560315, -0.000038111866, -191406.22, -191406.22, 0.0, 2.5004737, 2.4983344 
1.4627774e+2, 6.245842e+0, -191507.53, -837721.94, -26.261045, -0.000060151386, -0.000061959654, -191507.53, -191507.53, 0.0, 2.5004735, 2.4983344 
1.4627774e+2, 8.744179e+0, -191611.48, -837783.25, -30.341578, -0.000040944826, -0.000084559346, -191611.47, -191611.47, 0.0, 2.5004733, 2.4983344 
1.4627774e+2, 1.12425916e+1, -149283.05, -749918.25, -87.6603, 0.00007014688, 0.00008627202, -149283.03, -149283.03, 0.0, 2.5004735, 2.498485 
1.4627774e+2, 1.374108e+1, -148850.63, -749208.25, 76.69725, 0.000022339746, 0.000038926322, -148850.61, -148850.61, 0.0, 2.5004735, 2.498486 
1.4627774e+2, 1.6239569e+1, -148748.39, -749181.6, 100.79111, -0.00003030075, -0.000008072152, -148748.36, -148748.36, 0.0, 2.5004737, 2.498486 
1.4627774e+2, 1.8738057e+1, -148647.66, -749155.75, 125.16214, -0.00008742808, -0.000054241904, -148647.64, -148647.64, 0.0, 2.500474, 2.498486 
1.4627774e+2, 2.123662e+1, -106695.03, -662192.5, -107.32862, -0.000091352624, 0.00017982993, -106695.01, -106695.01, 0.0, 2.5004742, 2.498635 
1.4627774e+2, 2.3735258e+1, -106205.516, -660941.6, 89.78797, -0.00008797989, 0.00007258113, -106205.5, -106205.5, 0.0, 2.500474, 2.4986374 
1.4627774e+2, 2.6233897e+1, -106377.66, -661062.1, 60.244843, -0.00008505666, -0.000034474495, -106377.65, -106377.65, 0.0, 2.5004737, 2.4986372 
1.4627774e+2, 2.8732535e+1, -106551.086, -661183.25, 31.347746, -0.00008246057, -0.00013983306, -106551.086, -106551.086, 0.0, 2.5004735, 2.4986372 
1.4627774e+2, 3.1231248e+1, -64880.875, -574725.3, -160.86752, 0.00006359724, 0.00019142154, -64880.824, -64880.824, 0.0, 2.5004735, 2.4987855 
1.4627774e+2, 3.373004e+1, -63697.547, -572530.1, 162.3604, 0.000037496233, 0.00007379336, -63697.492, -63697.492, 0.0, 2.5004737, 2.498789 
1.4627774e+2, 3.622883e+1, -63558.797, -572502.3, 195.23207, 0.000010016112, -0.00004692543, -63558.72, -63558.72, 0.0, 2.5004742, 2.498789 
1.4627774e+2, 3.872762e+1, -63421.23, -572475.06, 228.73753, -0.000017712808, -0.00016761862, -63421.13, -63421.13, 0.0, 2.5004745, 2.4987888 
1.4627774e+2, 4.1226482e+1, -22221.613, -487012.13, -190.60536, -0.000062192885, 0.00019312826, -22221.535, -22221.535, 0.0, 2.5004745, 2.4989355 
1.4627774e+2, 4.3725422e+1, -20971.705, -484213.5, 163.1352, -0.000050070645, 0.000057310852, -20971.646, -20971.646, 0.0, 2.5004742, 2.4989405 
1.4627774e+2, 4.6224362e+1, -21125.77, -484327.56, 153.19408, -0.00003737409, -0.00008160429, -21125.719, -21125.719, 0.0, 2.5004742, 2.4989402 
1.4627774e+2, 4.87233e+1, -21281.744, -484442.53, 143.91835, -0.000024456605, -0.0002192421, -21281.7, -21281.7, 0.0, 2.500474, 2.4989402 
1.4627774e+2, 5.122232e+1, 19603.846, -399512.1, -152.24442, -0.000119904435, 0.00026623058, 19603.9, 19603.9, 0.0, 2.500474, 2.499086 
1.4627774e+2, 5.372141e+1, 21467.707, -395937.56, 276.14896, -0.00006114838, 0.00011621177, 21467.89, 21467.89, 0.0, 2.5004742, 2.4990919 
1.4627774e+2, 5.62205e+1, 21628.264, -395898.16, 288.5863, -0.000003772919, -0.000037916278, 21628.463, 21628.463, 0.0, 2.5004745, 2.4990919 
1.4627776e+2, 5.8719593e+1, 21786.494, -395859.88, 301.48117, 0.00005065973, -0.00018944072, 21786.713, 21786.713, 0.0, 2.500475, 2.4990919 
1.4627774e+2, 6.1218756e+1, 62393.5, -311460.9, -232.63872, -0.00013519917, 0.00033364256, 62393.645, 62393.645, 0.0, 2.5004747, 2.4992366 
1.4627774e+2, 6.3718003e+1, 64334.684, -307553.47, 228.18826, 0.000022568904, 0.00009905636, 64334.824, 64334.824, 0.0, 2.500475, 2.4992433 
1.4627776e+2, 6.621724e+1, 64394.477, -307553.84, 241.13936, 0.00018252521, -0.00014201779, 64394.633, 64394.633, 0.0, 2.5004752, 2.4992433 
1.4627776e+2, 6.8716484e+1, 64451.953, -307555.34, 254.44998, 0.00034093333, -0.00038099728, 64452.13, 64452.13, 0.0, 2.5004752, 2.499243 
1.4627774e+2, 7.12158e+1, 104913.18, -223196.08, -97.37876, -0.0003807009, 0.0003022228, 104913.2, 104913.2, 0.0, 2.500475, 2.4993882 
1.4627774e+2, 7.371519e+1, 106879.68, -219379.69, 331.9721, -0.00037658802, 0.00014929324, 106880.016, 106880.016, 0.0, 2.5004752, 2.4993944 
1.4627774e+2, 7.621458e+1, 107033.98, -219330.45, 347.0074, -0.00036415792, -0.000012984863, 107034.34, 107034.34, 0.0, 2.5004754, 2.4993944 
1.4627776e+2, 7.8713983e+1, 107185.41, -219282.6, 362.08902, -0.00035458093, -0.00017296818, 107185.805, 107185.805, 0.0, 2.5004756, 2.4993944 
1.4627776e+2, 8.121345e+1, 147743.61, -134672.05, -61.21418, -0.00003318871, 0.00032883536, 147743.63, 147743.63, 0.0, 2.5004754, 2.4995399 
1.4627776e+2, 8.371299e+1, 149656.14, -131342.73, 194.6188, 0.00046167916, 0.000034157063, 149656.27, 149656.27, 0.0, 2.5004761, 2.4995453 
1.4627777e+2, 8.6212534e+1, 150057.31, -131159.53, 156.92148, 0.0009548846, -0.0002711539, 150057.4, 150057.4, 0.0, 2.5004768, 2.4995453 
1.4627777e+2, 8.871207e+1, 150454.84, -130978.086, 118.89858, 0.0014475363, -0.0005769114, 150454.89, 150454.89, 0.0, 2.5004776, 2.499545 
1.4627774e+2, 9.1211706e+1, 191635.63, -44962.41, -91.27489, -0.0019717405, 0.00075627473, 191635.66, 191635.66, 0.0, 2.500477, 2.4996932 
1.4627776e+2, 9.3711394e+1, 192829.86, -42773.68, 195.35077, -0.0010619905, 0.00040740648, 192830.02, 192830.02, 0.0, 2.5004773, 2.4996967 
1.4627776e+2, 9.621108e+1, 193005.56, -42704.727, 212.62726, -0.000110747904, 0.000023474067, 193005.75, 193005.75, 0.0, 2.5004776, 2.4996967 
1.4627777e+2, 9.871077e+1, 193174.19, -42639.184, 229.96608, 0.0008181585, -0.0003705965, 193174.42, 193174.42, 0.0, 2.5004778, 2.4996967 
1.4877822e+2, 1.2491684e+0, -191760.05, -837522.6, 32.623005, -0.00031987642, -0.00001779445, -191760.05, -191760.05, 0.0, 2.5004728, 2.4983351 
1.4877822e+2, 3.747505e+0, -191810.2, -837859.9, -58.14005, -0.000202084, -0.000051643612, -191810.2, -191810.2, 0.0, 2.500473, 2.4983344 
1.4877822e+2, 6.2458414e+0, -191831.84, -837881.4, -63.218945, -0.00010489826, -0.000083172476, -191831.84, -191831.84, 0.0, 2.500473, 2.4983344 
1.4877822e+2, 8.744179e+0, -192014.3, -837980.3, -67.792114, -0.000028319168, -0.00011238115, -192014.3, -192014.3, 0.0, 2.5004725, 2.4983344 
1.4877822e+2, 1.12425916e+1, -149626.66, -750005.6, -74.08045, 0.00011210629, 0.00006519214, -149626.66, -149626.66, 0.0, 2.5004728, 2.4984853 
1.4877822e+2, 1.374108e+1, -149053.14, -749218.44, 75.90806, 0.000012449226, 0.000031193427, -149053.13, -149053.13, 0.0, 2.5004733, 2.4984863 
1.4877822e+2, 1.6239569e+1, -148901.9, -749167.75, 97.949554, -0.0000988557, -0.0000017719419, -148901.89, -148901.89, 0.0, 2.5004735, 2.4984863 
1.4877822e+2, 1.8738057e+1, -148838.8, -749159.5, 120.73694, -0.00022138345, -0.000033219058, -148838.78, -148838.78, 0.0, 2.5004735, 2.4984863 
1.4877822e+2, 2.123662e+1, -106975.71, -662408.4, -161.30034, -0.00027104333, 0.00022563268, -106975.664, -106975.664, 0.0, 2.5004737, 2.4986348 
1.4877822e+2, 2.3735258e+1, -106363.53, -661090.1, -5.480247, -0.0002066764, 0.00010291188, -106363.53, -106363.53, 0.0, 2.5004737, 2.4986372 
1.4877822e+2, 2.6233897e+1, -106476.24, -661180.8, -42.264107, -0.00014644835, -0.000018811546, -106476.24, -106476.24, 0.0, 2.5004735, 2.4986372 
1.4877822e+2, 2.8732535e+1, -106649.13, -661300.44, -77.71253, -0.00009044678, -0.00013791226, -106649.12, -106649.12, 0.0, 2.5004733, 2.498637 
1.4877822e+2, 3.1231248e+1, -64827.49, -574567.5, -182.91454, 0.00008012502, 0.00019801791, -64827.42, -64827.42, 0.0, 2.5004735, 2.4987857 
1.4877822e+2, 3.373004e+1, -63594.383, -572370.6, 113.987785, 0.000017663542, 0.00009958917, -63594.355, -63594.355, 0.0, 2.500474, 2.4987893 
1.4877822e+2, 3.622883e+1, -63425.324, -572326.1, 136.80023, -0.00004944783, -0.0000021781834, -63425.29, -63425.29, 0.0, 2.5004742, 2.4987893 
1.4877822e+2, 3.872762e+1, -63293.06, -572299.4, 158.61191, -0.00011996478, -0.000104165265, -63293.008, -63293.008, 0.0, 2.5004745, 2.498789 
1.4877822e+2, 4.1226482e+1, -22144.537, -486972.13, -348.00314, -0.00017226493, 0.0002451488, -22144.277, -22144.277, 0.0, 2.5004747, 2.4989355 
1.4877822e+2, 4.3725422e+1, -20867.48, -484188.38, -12.125982, -0.00013993119, 0.00006883314, -20867.48, -20867.48, 0.0, 2.5004745, 2.4989402 
1.4877822e+2, 4.6224362e+1, -21022.012, -484300.94, -34.328125, -0.000113280716, -0.00011092037, -21022.008, -21022.008, 0.0, 2.5004742, 2.4989402 
1.4877822e+2, 4.87233e+1, -21224.674, -484436.72, -56.990757, -0.000092632225, -0.00028976158, -21224.666, -21224.666, 0.0, 2.500474, 2.4989402 
1.4877822e+2, 5.122232e+1, 19701.564, -399399.06, -315.4186, -0.00018059216, 0.00021892386, 19701.8, 19701.8, 0.0, 2.500474, 2.4990861 
1.4877822e+2, 5.372141e+1, 21552.93, -395869.34, 126.84947, -0.00009579389, 0.00013968363, 21552.967, 21552.967, 0.0, 2.5004742, 2.4990919 
1.4877822e+2, 5.62205e+1, 21662.67, -395852.7, 129.56116, -0.000020188556, 0.0000563495, 21662.71, 21662.71, 0.0, 2.5004745, 2.4990919 
1.4877823e+2, 5.8719593e+1, 21706.365, -395867.8, 132.2848, 0.000044541164, -0.000024301682, 21706.408, 21706.408, 0.0, 2.5004747, 2.4990919 
1.4877822e+2, 6.121876e+1, 62264.14, -311467.06, -528.96375, -0.0001316332, 0.00049711246, 62264.89, 62264.89, 0.0, 2.5004745, 2.4992368 
1.4877823e+2, 6.3718003e+1, 64156.734, -307616.0, -9.832182, -0.000013581214, 0.00020087318, 64156.734, 64156.734, 0.0, 2.5004747, 2.4992433 
1.4877823e+2, 6.621724e+1, 64127.953, -307660.75, -11.3867235, 0.00009916277, -0.000100712954, 64127.953, 64127.953, 0.0, 2.5004747, 2.4992433 
1.4877823e+2, 6.8716484e+1, 64037.395, -307735.28, -12.232511, 0.00020315484, -0.00039917018, 64037.395, 64037.395, 0.0, 2.5004745, 2.4992433 
1.4877822e+2, 7.12158e+1, 104411.414, -223390.94, -491.27774, -0.00048210056, 0.00023231261, 104412.16, 104412.16, 0.0, 2.500474, 2.4993882 
1.4877822e+2, 7.371519e+1, 106246.47, -219664.48, 66.30335, -0.00042348416, 0.00008588001, 106246.484, 106246.484, 0.0, 2.500474, 2.4993947 
1.4877823e+2, 7.621458e+1, 106210.79, -219706.81, 78.36886, -0.0003646602, -0.00006848655, 106210.805, 106210.805, 0.0, 2.500474, 2.4993944 
1.4877823e+2, 7.8713983e+1, 106097.34, -219786.58, 92.24749, -0.00031627313, -0.00021951055, 106097.37, 106097.37, 0.0, 2.500474, 2.4993944 
1.4877823e+2, 8.121345e+1, 146375.73, -135436.81, -472.84842, -0.00000988752, 0.0003314224, 146376.53, 146376.53, 0.0, 2.500473, 2.4995396 
1.4877823e+2, 8.371299e+1, 148040.84, -132234.48, -4.998971, 0.0004381774, 0.00013089944, 148040.84, 148040.84, 0.0, 2.5004735, 2.499545 
1.4877824e+2, 8.6212534e+1, 148085.72, -132226.42, -27.303268, 0.0008757034, -0.00007897464, 148085.72, 148085.72, 0.0, 2.5004735, 2.4995449 
1.4877824e+2, 8.871207e+1, 148017.08, -132273.03, -49.13958, 0.001303586, -0.00028803336, 148017.08, 148017.08, 0.0, 2.5004735, 2.4995449 
1.4877822e+2, 9.1211706e+1, 188950.84, -46231.86, -580.08203, -0.0019598054, 0.00090876856, 188952.28, 188952.28, 0.0, 2.5004723, 2.4996932 
1.4877823e+2, 9.3711394e+1, 189733.13, -44221.96, -15.909995, -0.0010549073, 0.00042227563, 189733.13, 189733.13, 0.0, 2.5004718, 2.499697 
1.4877824e+2, 9.621108e+1, 189165.64, -44511.313, 28.417503, -0.00012757475, -0.000095280666, 189165.64, 189165.64, 0.0, 2.5004709, 2.4996967 
1.4877824e+2, 9.871077e+1, 188272.0, -44957.723, 84.87855, 0.0007614186, -0.0006208237, 188272.03, 188272.03, 0.0, 2.5004694, 2.4996967 
1.5127869e+2, 1.2491683e+0, -191258.7, -837288.1, 66.6654, -0.00000889673, -0.000018197781, -191258.7, -191258.7, 0.0, 2.5004735, 2.4983351 
1.5127869e+2, 3.747505e+0, -191439.34, -837680.06, -20.32065, 0.00003976965, -0.000052965708, -191439.34, -191439.34, 0.0, 2.5004735, 2.4983344 
1.5127869e+2, 6.2458414e+0, -191439.4, -837690.0, -25.339588, 0.00012277503, -0.00008556281, -191439.4, -191439.4, 0.0, 2.5004735, 2.4983344 
1.5127869e+2, 8.744178e+0, -191443.75, -837702.0, -30.74735, 0.00024011939, -0.0001159892, -191443.75, -191443.75, 0.0, 2.5004735, 2.4983344 
1.512787e+2, 1.1242591e+1, -149037.03, -749713.0, 40.631733, 0.00037342624, 0.000056929446, -149037.03, -149037.03, 0.0, 2.5004737, 2.4984853 
1.5127869e+2, 1.3741079e+1, -148768.28, -749074.5, 120.47326, 0.00023139156, 0.000015221689, -148768.25, -148768.25, 0.0, 2.5004737, 2.4984863 
1.5127869e+2, 1.6239567e+1, -148836.22, -749129.94, 93.584175, 0.00010783294, -0.000026692647, -148836.2, -148836.2, 0.0, 2.5004735, 2.4984863 
1.5127869e+2, 1.8738057e+1, -148907.36, -749186.9, 67.36682, 0.0000031330571, -0.00006833069, -148907.36, -148907.36, 0.0, 2.5004735, 2.4984863 
1.5127869e+2, 2.123662e+1, -107047.84, -662454.44, -150.86778, -0.000023086754, 0.00019294184, -107047.8, -107047.8, 0.0, 2.5004737, 2.4986348 
1.5127869e+2, 2.3735258e+1, -106290.05, -661077.4, 33.436386, 0.00002408138, 0.00006880147, -106290.05, -106290.05, 0.0, 2.500474, 2.4986372 
1.5127869e+2, 2.6233894e+1, -106190.37, -661063.5, 52.981117, 0.00008549669, -0.000054838878, -106190.36, -106190.36, 0.0, 2.5004742, 2.4986372 
1.5127869e+2, 2.8732532e+1, -106092.586, -661050.6, 72.95938, 0.0001611683, -0.0001763109, -106092.58, -106092.58, 0.0, 2.5004742, 2.498637 
1.5127869e+2, 3.1231248e+1, -64291.883, -574298.56, 17.44859, 0.00031373298, 0.00015207089, -64291.883, -64291.883, 0.0, 2.5004745, 2.4987857 
1.512787e+2, 3.373004e+1, -63487.707, -572341.6, 237.13593, 0.0002258519, 0.00005480731, -63487.598, -63487.598, 0.0, 2.5004742, 2.4987893 
1.512787e+2, 3.622883e+1, -63693.92, -572480.56, 206.20651, 0.0001445438, -0.000044797867, -63693.836, -63693.836, 0.0, 2.5004737, 2.498789 
1.512787e+2, 3.8727614e+1, -63900.78, -572619.8, 175.73482, 0.00007091978, -0.00014367655, -63900.723, -63900.723, 0.0, 2.5004735, 2.498789 
1.5127869e+2, 4.1226482e+1, -22693.328, -487232.13, -281.79376, 0.000024170844, 0.00019969484, -22693.156, -22693.156, 0.0, 2.5004737, 2.4989355 
1.5127869e+2, 4.3725422e+1, -21117.11, -484359.8, 69.12839, 0.00005521709, 0.0000068370773, -21117.098, -21117.098, 0.0, 2.5004742, 2.4989402 
1.512787e+2, 4.6224362e+1, -20893.32, -484292.22, 75.81313, 0.000093891715, -0.00019067989, -20893.309, -20893.309, 0.0, 2.5004747, 2.4989402 
1.512787e+2, 4.87233e+1, -20672.1, -484225.84, 83.077156, 0.00013995983, -0.00038850633, -20672.084, -20672.084, 0.0, 2.500475, 2.49894 
1.5127869e+2, 5.122232e+1, 20336.87, -399073.9, -177.59633, 0.000046394194, 0.00010329728, 20336.943, 20336.943, 0.0, 2.5004752, 2.4990861 
1.512787e+2, 5.372141e+1, 21814.46, -395787.06, 278.21997, 0.00009243939, 0.000038557948, 21814.646, 21814.646, 0.0, 2.500475, 2.4990919 
1.512787e+2, 5.62205e+1, 21653.814, -395900.38, 267.3623, 0.00015192624, -0.000033079687, 21653.986, 21653.986, 0.0, 2.5004747, 2.4990919 
1.512787e+2, 5.8719593e+1, 21490.877, -396014.78, 257.29333, 0.0002232246, -0.000105008985, 21491.035, 21491.035, 0.0, 2.5004745, 2.4990916 
1.512787e+2, 6.1218756e+1, 62116.043, -311528.94, -402.15723, 0.000053675358, 0.00040606433, 62116.477, 62116.477, 0.0, 2.5004742, 2.4992368 
1.512787e+2, 6.3718e+1, 64188.2, -307650.44, 184.05052, 0.00014295851, 0.00011352766, 64188.29, 64188.29, 0.0, 2.5004747, 2.4992433 
1.512787e+2, 6.621724e+1, 64434.652, -307561.7, 178.83363, 0.00024353199, -0.00018642603, 64434.74, 64434.74, 0.0, 2.5004752, 2.4992433 
1.512787e+2, 6.871648e+1, 64677.76, -307474.6, 174.02109, 0.00035213935, -0.00048552602, 64677.844, 64677.844, 0.0, 2.5004756, 2.499243 
1.5127869e+2, 7.1215796e+1, 105298.47, -222937.81, -440.80096, -0.00030076108, 0.00011131307, 105299.055, 105299.055, 0.0, 2.5004754, 2.4993882 
1.512787e+2, 7.371519e+1, 107129.75, -219259.17, 216.14032, -0.00027663435, -0.000027517695, 107129.89, 107129.89, 0.0, 2.5004756, 2.4993944 
1.512787e+2, 7.621458e+1, 107197.1, -219247.34, 193.29977, -0.00023419938, -0.00017788532, 107197.22, 107197.22, 0.0, 2.5004756, 2.4993944 
1.512787e+2, 7.871397e+1, 107262.164, -219236.61, 170.00476, -0.00018342136, -0.00032903394, 107262.25, 107262.25, 0.0, 2.500476, 2.4993944 
1.512787e+2, 8.121345e+1, 147768.28, -134712.4, -507.88107, 0.00007118181, 0.00021960307, 147769.2, 147769.2, 0.0, 2.5004754, 2.4995399 
1.512787e+2, 8.371299e+1, 149537.13, -131468.22, 190.3739, 0.00048494205, 0.000057824804, 149537.25, 149537.25, 0.0, 2.500476, 2.499545 
1.5127872e+2, 8.6212534e+1, 149799.1, -131353.6, 207.6201, 0.00091584615, -0.000114892384, 149799.25, 149799.25, 0.0, 2.5004764, 2.499545 
1.5127872e+2, 8.871207e+1, 150053.03, -131242.81, 224.45691, 0.0013642755, -0.00028867793, 150053.2, 150053.2, 0.0, 2.5004768, 2.499545 
1.5127869e+2, 9.12117e+1, 191248.47, -45079.902, -578.07556, -0.0016698135, 0.00082128355, 191249.88, 191249.88, 0.0, 2.5004761, 2.4996934 
1.512787e+2, 9.371139e+1, 192575.97, -42759.637, 157.78397, -0.0008663851, 0.00036427987, 192576.08, 192576.08, 0.0, 2.5004766, 2.499697 
1.512787e+2, 9.6211076e+1, 192846.98, -42628.313, 82.98668, 0.0000298412, -0.00013726206, 192847.0, 192847.0, 0.0, 2.500477, 2.499697 
1.5127872e+2, 9.8710763e+1, 193104.8, -42503.332, 8.488277, 0.0009625883, -0.0006621769, 193104.8, 193104.8, 0.0, 2.5004776, 2.499697 
1.5377916e+2, 1.2491684e+0, -191245.48, -837261.6, 52.739185, -0.000028608294, -0.0000090478725, -191245.48, -191245.48, 0.0, 2.5004735, 2.4983351 
1.5377916e+2, 3.7475052e+0, -191419.48, -837641.6, -22.848148, -0.0000060882244, -0.000026641294, -191419.48, -191419.48, 0.0, 2.5004735, 2.4983344 
1.5377916e+2, 6.245842e+0, -191417.0, -837648.1, -20.916258, 0.000028918901, -0.000043564298, -191416.98, -191416.98, 0.0, 2.5004735, 2.4983344 
1.5377916e+2, 8.744179e+0, -191418.78, -837656.75, -19.373192, 0.000076413075, -0.000059817015, -191418.78, -191418.78, 0.0, 2.5004735, 2.4983344 
1.5377916e+2, 1.12425916e+1, -149067.7, -749757.0, 38.91024, 0.00015666056, 0.000102952996, -149067.7, -149067.7, 0.0, 2.5004737, 2.498485 
1.5377916e+2, 1.3741079e+1, -148809.7, -749137.8, 99.46039, 0.00008519229, 0.000038851722, -148809.69, -148809.69, 0.0, 2.5004735, 2.4984863 
1.5377916e+2, 1.6239567e+1, -148879.56, -749194.25, 77.79377, 0.000018371515, -0.00002553654, -148879.55, -148879.55, 0.0, 2.5004735, 2.4984863 
1.5377916e+2, 1.8738054e+1, -148952.64, -749252.2, 56.79889, -0.000043555356, -0.00008973836, -148952.63, -148952.63, 0.0, 2.5004735, 2.4984863 
1.5377916e+2, 2.1236618e+1, -106991.22, -662313.25, -97.59246, -0.000003295674, 0.0001616359, -106991.195, -106991.195, 0.0, 2.5004737, 2.498635 
1.5377916e+2, 2.3735256e+1, -106251.914, -660972.6, 60.115273, 0.000012658452, 0.00005684925, -106251.91, -106251.91, 0.0, 2.500474, 2.4986374 
1.5377916e+2, 2.6233894e+1, -106151.766, -660955.9, 82.57082, 0.000035147987, -0.00004832718, -106151.75, -106151.75, 0.0, 2.500474, 2.4986372 
1.5377916e+2, 2.8732532e+1, -106053.516, -660940.0, 105.459915, 0.0000645039, -0.00015226209, -106053.5, -106053.5, 0.0, 2.5004742, 2.4986372 
1.5377916e+2, 3.1231248e+1, -64343.645, -574354.44, -11.173928, 0.000165145, 0.0001711851, -64343.645, -64343.645, 0.0, 2.5004745, 2.4987857 
1.5377918e+2, 3.373004e+1, -63564.906, -572447.25, 189.67401, 0.00010597152, 0.000074975906, -63564.836, -63564.836, 0.0, 2.500474, 2.498789 
1.5377918e+2, 3.6228824e+1, -63771.45, -572583.8, 160.6613, 0.00004909084, -0.000023798719, -63771.4, -63771.4, 0.0, 2.5004737, 2.498789 
1.5377918e+2, 3.8727614e+1, -63979.375, -572721.1, 132.32465, -0.000004688131, -0.00012217522, -63979.34, -63979.34, 0.0, 2.5004735, 2.498789 
1.5377916e+2, 4.1226482e+1, -22666.389, -487103.22, -198.6215, -0.000020585196, 0.00022872139, -22666.305, -22666.305, 0.0, 2.5004737, 2.4989357 
1.5377918e+2, 4.3725422e+1, -21141.738, -484332.6, 135.72034, 0.000022928614, 0.000055047083, -21141.697, -21141.697, 0.0, 2.500474, 2.4989402 
1.5377918e+2, 4.6224362e+1, -20919.902, -484263.94, 145.77553, 0.00006791698, -0.00012279702, -20919.857, -20919.857, 0.0, 2.5004745, 2.4989402 
1.5377918e+2, 4.87233e+1, -20699.938, -484196.2, 156.6141, 0.00011426736, -0.00030045898, -20699.885, -20699.885, 0.0, 2.500475, 2.4989402 
1.5377918e+2, 5.122232e+1, 20324.043, -399022.13, -240.46822, 0.000015870812, 0.00015287795, 20324.18, 20324.18, 0.0, 2.500475, 2.4990861 
1.5377918e+2, 5.372141e+1, 21749.898, -395834.0, 247.7438, 0.00002457743, 0.000056468165, 21750.045, 21750.045, 0.0, 2.5004747, 2.4990919 
1.5377918e+2, 5.6220496e+1, 21585.154, -395947.4, 240.46309, 0.000039580817, -0.000044924505, 21585.293, 21585.293, 0.0, 2.5004745, 2.4990919 
1.5377918e+2, 5.871959e+1, 21418.459, -396061.75, 233.95355, 0.00005941675, -0.00014502754, 21418.59, 21418.59, 0.0, 2.5004742, 2.4990916 
1.5377918e+2, 6.1218756e+1, 62116.277, -311442.13, -390.97308, -0.00009065734, 0.00034649906, 62116.688, 62116.688, 0.0, 2.5004742, 2.499237 
1.5377918e+2, 6.3718e+1, 64127.14, -307689.88, 264.8937, 0.00006062453, 0.00010801369, 64127.332, 64127.332, 0.0, 2.5004747, 2.4992433 
1.5377918e+2, 6.621724e+1, 64374.71, -307599.7, 263.15848, 0.00021669907, -0.00013631544, 64374.9, 64374.9, 0.0, 2.5004752, 2.499243 
1.5377918e+2, 6.871648e+1, 64620.313, -307510.4, 261.9032, 0.00037450338, -0.00037859794, 64620.496, 64620.496, 0.0, 2.5004756, 2.499243 
1.5377918e+2, 7.1215796e+1, 105283.05, -222935.23, -533.7132, -0.0002211488, 0.00019885141, 105283.914, 105283.914, 0.0, 2.5004754, 2.4993882 
1.5377918e+2, 7.371519e+1, 107074.84, -219346.31, 256.63263, -0.0002497087, 0.000060338312, 107075.05, 107075.05, 0.0, 2.5004756, 2.4993944 
1.5377918e+2, 7.621458e+1, 107146.68, -219331.92, 238.52147, -0.0002690531, -0.0000889547, 107146.86, 107146.86, 0.0, 2.5004756, 2.4993944 
1.5377918e+2, 7.871397e+1, 107216.02, -219318.73, 220.30807, -0.00028833194, -0.00023889434, 107216.17, 107216.17, 0.0, 2.500476, 2.4993942 
1.5377918e+2, 8.121345e+1, 147864.58, -134564.58, -602.9411, -0.00009468281, 0.0002453632, 147865.86, 147865.86, 0.0, 2.5004756, 2.49954 
1.5377918e+2, 8.371299e+1, 149628.08, -131341.5, 285.81003, 0.000356173, 0.000032883927, 149628.38, 149628.38, 0.0, 2.5004761, 2.4995453 
1.537792e+2, 8.6212534e+1, 149897.83, -131224.1, 309.90744, 0.0008099404, -0.00018870166, 149898.17, 149898.17, 0.0, 2.5004766, 2.4995453 
1.537792e+2, 8.871207e+1, 150163.5, -131108.66, 334.07983, 0.001266306, -0.00041009943, 150163.89, 150163.89, 0.0, 2.5004768, 2.4995453 
1.5377916e+2, 9.12117e+1, 191290.2, -45231.895, -767.39795, -0.0014536022, 0.00061794557, 191292.69, 191292.69, 0.0, 2.5004766, 2.499693 
1.5377918e+2, 9.371139e+1, 192669.38, -42840.016, 265.39548, -0.00077025493, 0.00029503994, 192669.67, 192669.67, 0.0, 2.500477, 2.4996967 
1.537792e+2, 9.6211076e+1, 192963.53, -42700.863, 205.16843, -0.000030652813, -0.0000663016, 192963.7, 192963.7, 0.0, 2.5004776, 2.4996967 
1.537792e+2, 9.8710763e+1, 193247.73, -42566.496, 145.37762, 0.0007146128, -0.00044677907, 193247.83, 193247.83, 0.0, 2.500478, 2.4996967 
1.5627964e+2, 1.2491685e+0, -191232.94, -837236.5, 39.07054, -0.00004899105, -0.0000008903927, -191232.94, -191232.94, 0.0, 2.5004735, 2.4983351 
1.5627964e+2, 3.7475055e+0, -191401.42, -837606.94, -25.336756, -0.000053959688, -0.0000032941628, -191401.42, -191401.42, 0.0, 2.5004735, 2.4983346 
1.5627964e+2, 6.2458426e+0, -191396.38, -837610.0, -16.454037, -0.00006829321, -0.000006527926, -191396.38, -191396.38, 0.0, 2.5004735, 2.4983346 
1.5627964e+2, 8.7441796e+0, -191395.6, -837615.2, -7.9601417, -0.00009199162, -0.0000105918125, -191395.6, -191395.6, 0.0, 2.5004735, 2.4983346 
1.5627964e+2, 1.12425916e+1, -149106.95, -749818.9, 30.832502, -0.000055436536, 0.00014786802, -149106.95, -149106.95, 0.0, 2.5004737, 2.498485 
1.5627964e+2, 1.3741079e+1, -148852.88, -749204.75, 77.959465, -0.000055103785, 0.000057643374, -148852.86, -148852.86, 0.0, 2.5004735, 2.4984863 
1.5627964e+2, 1.6239567e+1, -148924.66, -749262.2, 61.51532, -0.000063977415, -0.00003296891, -148924.64, -148924.64, 0.0, 2.5004735, 2.498486 
1.5627964e+2, 1.8738054e+1, -148999.66, -749321.2, 45.742912, -0.00008192197, -0.0001234846, -148999.66, -148999.66, 0.0, 2.5004735, 2.498486 
1.5627964e+2, 2.1236618e+1, -106947.6, -662199.06, -41.543888, 0.000008772641, 0.00012490002, -106947.59, -106947.59, 0.0, 2.5004737, 2.4986353 
1.5627964e+2, 2.3735256e+1, -106215.22, -660870.94, 86.25236, -0.0000070827414, 0.000036288307, -106215.21, -106215.21, 0.0, 2.5004737, 2.4986374 
1.5627965e+2, 2.6233894e+1, -106114.6, -660851.2, 111.61873, -0.000024031277, -0.000053648695, -106114.58, -106114.58, 0.0, 2.500474, 2.4986374 
1.5627965e+2, 2.8732532e+1, -106015.88, -660832.4, 137.41864, -0.000041503336, -0.00014327097, -106015.85, -106015.85, 0.0, 2.5004742, 2.4986374 
1.5627965e+2, 3.1231248e+1, -64405.242, -574430.8, -46.275326, 0.000023612392, 0.00018562657, -64405.24, -64405.24, 0.0, 2.5004742, 2.4987855 
1.5627965e+2, 3.373004e+1, -63643.29, -572555.3, 141.55592, -0.0000074546488, 0.00008777779, -63643.246, -63643.246, 0.0, 2.500474, 2.498789 
1.5627965e+2, 3.6228824e+1, -63850.16, -572689.56, 114.45992, -0.00004063361, -0.000012949711, -63850.137, -63850.137, 0.0, 2.5004737, 2.4987888 
1.5627965e+2, 3.8727614e+1, -64058.418, -572824.5, 88.03998, -0.000075293225, -0.00011360744, -64058.402, -64058.402, 0.0, 2.5004733, 2.4987888 
1.5627964e+2, 4.122648e+1, -22646.25, -486990.56, -117.513, -0.00006599072, 0.00024839723, -22646.22, -22646.22, 0.0, 2.5004735, 2.498936 
1.5627965e+2, 4.3725422e+1, -21165.064, -484306.5, 200.56468, -0.000010644947, 0.00009064807, -21164.977, -21164.977, 0.0, 2.500474, 2.4989405 
1.5627965e+2, 4.6224362e+1, -20944.297, -484236.34, 213.18974, 0.000040077543, -0.00007082939, -20944.2, -20944.2, 0.0, 2.5004745, 2.4989402 
1.5627965e+2, 4.87233e+1, -20725.396, -484167.13, 226.59819, 0.00008613051, -0.00023163298, -20725.287, -20725.287, 0.0, 2.500475, 2.4989402 
1.5627965e+2, 5.122232e+1, 20297.203, -399006.66, -305.85483, -0.0000105741465, 0.00020168205, 20297.428, 20297.428, 0.0, 2.500475, 2.4990864 
1.5627965e+2, 5.3721404e+1, 21691.008, -395880.1, 212.79779, -0.000039754217, 0.000069107, 21691.117, 21691.117, 0.0, 2.5004747, 2.4990919 
1.5627965e+2, 5.6220496e+1, 21524.184, -395992.66, 208.83849, -0.000069851005, -0.00006675788, 21524.29, 21524.29, 0.0, 2.5004745, 2.4990916 
1.5627965e+2, 5.871959e+1, 21355.406, -396106.13, 205.65039, -0.00010209415, -0.00019975172, 21355.508, 21355.508, 0.0, 2.5004742, 2.4990916 
1.5627965e+2, 6.1218756e+1, 62114.875, -311376.94, -381.10428, -0.00023172141, 0.0002808638, 62115.266, 62115.266, 0.0, 2.500474, 2.499237 
1.5627965e+2, 6.3718e+1, 64076.008, -307725.97, 340.01324, -0.000019365181, 0.000093068855, 64076.316, 64076.316, 0.0, 2.5004745, 2.4992433 
1.5627965e+2, 6.621724e+1, 64322.688, -307635.22, 341.06052, 0.00019127828, -0.00009913441, 64323.0, 64323.0, 0.0, 2.500475, 2.499243 
1.5627965e+2, 6.8716484e+1, 64567.402, -307545.44, 342.5877, 0.00039734738, -0.0002880982, 64567.72, 64567.72, 0.0, 2.5004754, 2.499243 
1.5627965e+2, 7.1215796e+1, 105251.195, -222968.38, -627.9269, -0.00013562241, 0.00028676764, 105252.39, 105252.39, 0.0, 2.5004754, 2.4993882 
1.5627965e+2, 7.371519e+1, 107016.31, -219436.63, 288.69684, -0.00021755902, 0.00014549834, 107016.57, 107016.57, 0.0, 2.5004756, 2.4993942 
1.5627965e+2, 7.621458e+1, 107089.12, -219421.36, 274.0596, -0.00029945132, -0.000006052671, 107089.35, 107089.35, 0.0, 2.5004756, 2.4993942 
1.5627965e+2, 7.871397e+1, 107159.42, -219407.3, 259.32007, -0.00038955544, -0.00015811596, 107159.63, 107159.63, 0.0, 2.500476, 2.4993942 
1.5627965e+2, 8.121345e+1, 147931.0, -134458.36, -701.0518, -0.00025721666, 0.00026897507, 147932.75, 147932.75, 0.0, 2.5004756, 2.49954 
1.5627965e+2, 8.371299e+1, 149698.58, -131225.64, 367.91846, 0.00023178128, 0.0000024123158, 149699.06, 149699.06, 0.0, 2.5004761, 2.4995456 
1.5627967e+2, 8.6212534e+1, 149966.42, -131110.14, 397.58597, 0.0007094622, -0.00027156228, 149966.98, 149966.98, 0.0, 2.5004766, 2.4995453 
1.5627967e+2, 8.871207e+1, 150230.19, -130996.6, 427.32846, 0.0011748141, -0.00054409314, 150230.83, 150230.83, 0.0, 2.500477, 2.4995453 
1.5627964e+2, 9.1211694e+1, 191236.86, -45480.844, -955.0428, -0.0012325154, 0.00043510934, 191240.7, 191240.7, 0.0, 2.5004766, 2.4996924 
1.5627965e+2, 9.371139e+1, 192671.92, -42965.504, 352.1465, -0.0006655972, 0.00024095143, 192672.44, 192672.44, 0.0, 2.500477, 2.4996965 
1.5627967e+2, 9.6211076e+1, 192958.27, -42833.426, 303.70154, -0.00007893917, 0.000013921042, 192958.66, 192958.66, 0.0, 2.5004776, 2.4996965 
1.5627967e+2, 9.871077e+1, 193234.67, -42706.133, 255.6928, 0.00048252338, -0.00022800776, 193234.95, 193234.95, 0.0, 2.500478, 2.4996965 
1.5878011e+2, 1.2491685e+0, -191852.31, -837517.2, 24.107658, -0.000065729415, 0.0000062799404, -191852.31, -191852.31, 0.0, 2.5004725, 2.4983354 
1.5878011e+2, 3.7475055e+0, -191838.84, -837794.9, -35.26886, -0.00010038356, 0.000017117827, -191838.84, -191838.84, 0.0, 2.5004728, 2.4983346 
1.5878011e+2, 6.245843e+0, -191813.52, -837786.0, -27.92438, -0.00016544295, 0.000025660383, -191813.52, -191813.52, 0.0, 2.5004728, 2.4983346 
1.5878011e+2, 8.7441796e+0, -191952.28, -837856.25, -23.500477, -0.00026090766, 0.000031907468, -191952.28, -191952.28, 0.0, 2.5004725, 2.4983346 
1.5878011e+2, 1.1242593e+1, -149727.95, -750175.0, -15.515736, -0.00025860025, 0.00019190973, -149727.95, -149727.95, 0.0, 2.5004728, 2.4984848 
1.5878011e+2, 1.3741079e+1, -149285.0, -749462.1, 25.698807, -0.00018601745, 0.00007177204, -149285.0, -149285.0, 0.0, 2.5004728, 2.498486 
1.5878011e+2, 1.6239567e+1, -149289.42, -749487.2, 16.62254, -0.0001359105, -0.000048817812, -149289.42, -149289.42, 0.0, 2.500473, 2.498486 
1.5878011e+2, 1.8738052e+1, -149413.75, -749570.06, 8.7218, -0.00010822964, -0.0001693446, -149413.75, -149413.75, 0.0, 2.5004728, 2.498486 
1.5878013e+2, 2.1236616e+1, -107274.17, -662284.0, -6.9559684, 0.0000169571, 0.00008294836, -107274.17, -107274.17, 0.0, 2.500473, 2.4986355 
1.5878013e+2, 2.3735256e+1, -106423.97, -660889.8, 83.4286, -0.00003181632, 0.000007255465, -106423.96, -106423.96, 0.0, 2.5004735, 2.4986377 
1.5878013e+2, 2.6233894e+1, -106265.664, -660839.56, 104.51171, -0.00008897948, -0.00007069774, -106265.65, -106265.65, 0.0, 2.5004737, 2.4986377 
1.5878013e+2, 2.8732532e+1, -106165.25, -660817.25, 123.02289, -0.00015380717, -0.00014921666, -106165.22, -106165.22, 0.0, 2.500474, 2.4986377 
1.5878013e+2, 3.1231248e+1, -64626.14, -574599.75, -133.65659, -0.00010784348, 0.00019552321, -64626.105, -64626.105, 0.0, 2.500474, 2.4987855 
1.5878013e+2, 3.373004e+1, -63798.99, -572702.6, 58.23648, -0.000111457855, 0.00009332185, -63798.984, -63798.984, 0.0, 2.5004737, 2.4987888 
1.5878013e+2, 3.6228824e+1, -63984.45, -572824.1, 43.116104, -0.000121478435, -0.0000121443745, -63984.445, -63984.445, 0.0, 2.5004735, 2.4987888 
1.5878013e+2, 3.8727614e+1, -64222.867, -572971.06, 27.472889, -0.00013732754, -0.00011785232, -64222.863, -64222.863, 0.0, 2.5004733, 2.4987886 
1.5878011e+2, 4.122648e+1, -22702.004, -486927.4, -50.75692, -0.00010856514, 0.00025882074, -22701.998, -22701.998, 0.0, 2.5004735, 2.4989362 
1.5878013e+2, 4.372542e+1, -21194.549, -484285.03, 248.65565, -0.000042562977, 0.0001136664, -21194.414, -21194.414, 0.0, 2.500474, 2.4989405 
1.5878013e+2, 4.6224362e+1, -20970.34, -484211.25, 260.38467, 0.000013116079, -0.000034824632, -20970.193, -20970.193, 0.0, 2.5004742, 2.4989405 
1.5878013e+2, 4.87233e+1, -20806.209, -484166.4, 272.63702, 0.000058436737, -0.00018215238, -20806.049, -20806.049, 0.0, 2.5004747, 2.4989402 
1.5878013e+2, 5.122232e+1, 20195.596, -399056.8, -392.54758, -0.000030119856, 0.00024960178, 20195.963, 20195.963, 0.0, 2.5004747, 2.4990864 
1.5878013e+2, 5.3721404e+1, 21619.701, -395934.16, 159.22902, -0.00009806083, 0.00007645352, 21619.762, 21619.762, 0.0, 2.5004745, 2.4990919 
1.5878013e+2, 5.6220496e+1, 21427.438, -396057.1, 162.45636, -0.00017389796, -0.0000985632, 21427.5, 21427.5, 0.0, 2.5004742, 2.4990916 
1.5878013e+2, 5.871959e+1, 21164.87, -396213.9, 165.93909, -0.00025855776, -0.00026917655, 21164.936, 21164.936, 0.0, 2.5004737, 2.4990916 
1.5878011e+2, 6.1218756e+1, 61928.492, -311421.3, -376.16412, -0.000366883, 0.00020916267, 61928.87, 61928.87, 0.0, 2.5004737, 2.4992373 
1.5878013e+2, 6.3718e+1, 63852.68, -307845.94, 408.4887, -0.000094889765, 0.000068724206, 63853.13, 63853.13, 0.0, 2.5004742, 2.499243 
1.5878013e+2, 6.621724e+1, 64024.375, -307790.34, 415.48337, 0.00016922771, -0.00007485792, 64024.84, 64024.84, 0.0, 2.5004745, 2.499243 
1.5878014e+2, 6.8716484e+1, 64119.14, -307771.84, 424.04495, 0.00042281696, -0.00021404146, 64119.625, 64119.625, 0.0, 2.5004747, 2.499243 
1.5878013e+2, 7.1215796e+1, 104711.0, -223273.34, -701.79614, -0.00004222696, 0.00037501962, 104712.51, 104712.51, 0.0, 2.5004745, 2.4993882 
1.5878013e+2, 7.371519e+1, 106398.1, -219797.08, 355.2118, -0.00017869381, 0.00022796291, 106398.49, 106398.49, 0.0, 2.5004745, 2.4993942 
1.5878013e+2, 7.621458e+1, 106287.79, -219869.58, 364.40662, -0.00032382587, 0.0000708946, 106288.195, 106288.195, 0.0, 2.5004745, 2.4993942 
1.5878013e+2, 7.871397e+1, 106058.664, -219999.3, 373.4933, -0.0004849067, -0.00008652076, 106059.086, 106059.086, 0.0, 2.500474, 2.499394 
1.5878013e+2, 8.121344e+1, 146757.5, -134975.17, -691.58856, -0.00041438732, 0.0002906672, 146759.2, 146759.2, 0.0, 2.5004735, 2.4995403 
1.5878013e+2, 8.3712983e+1, 148450.97, -131744.22, 574.88104, 0.000113001544, -0.000033411983, 148452.16, 148452.16, 0.0, 2.5004737, 2.4995456 
1.5878014e+2, 8.621252e+1, 148440.78, -131763.53, 639.8792, 0.00061567675, -0.00036337736, 148442.23, 148442.23, 0.0, 2.5004737, 2.4995456 
1.5878016e+2, 8.8712066e+1, 148244.97, -131872.25, 708.12024, 0.0010919247, -0.0006906736, 148246.75, 148246.75, 0.0, 2.5004735, 2.4995456 
1.5878013e+2, 9.1211694e+1, 188758.47, -46946.53, -892.6093, -0.0010045802, 0.000272747, 188761.84, 188761.84, 0.0, 2.5004728, 2.4996917 
1.5878013e+2, 9.371139e+1, 189935.05, -44409.234, 719.5875, -0.0005511902, 0.00020207166, 189937.25, 189937.25, 0.0, 2.5004725, 2.4996963 
1.5878014e+2, 9.6211076e+1, 189505.16, -44625.33, 737.2481, -0.00011301329, 0.00010349471, 189507.48, 189507.48, 0.0, 2.5004718, 2.4996963 
1.5878014e+2, 9.871077e+1, 188701.33, -45021.508, 758.3507, 0.00027064513, -0.0000057950438, 188703.78, 188703.78, 0.0, 2.5004704, 2.4996963 
1.6128059e+2, 1.2491685e+0, -191517.1, -837356.75, 68.619225, 0.00026146046, 0.0000049754526, -191517.08, -191517.08, 0.0, 2.500473, 2.4983354 
1.6128059e+2, 3.7475055e+0, -191557.31, -837659.75, -9.097297, 0.00014828709, 0.00001543903, -191557.31, -191557.31, 0.0, 2.5004733, 2.4983346 
1.6128059e+2, 6.2458426e+0, -191426.89, -837603.0, -21.042282, 0.00006448874, 0.000026586842, -191426.89, -191426.89, 0.0, 2.5004735, 2.4983346 
1.6128057e+2, 8.7441796e+0, -191299.73, -837547.8, -32.805374, 0.00001006541, 0.000038418755, -191299.73, -191299.73, 0.0, 2.5004737, 2.4983346 
1.6128057e+2, 1.1242593e+1, -148963.9, -749838.8, 34.65098, 0.000010124725, 0.00020090143, -148963.9, -148963.9, 0.0, 2.500474, 2.4984848 
1.6128059e+2, 1.3741079e+1, -148709.6, -749219.75, 61.738422, 0.00004215794, 0.00007618673, -148709.58, -148709.58, 0.0, 2.500474, 2.498486 
1.6128059e+2, 1.6239567e+1, -148782.77, -749276.75, 57.74147, 0.00009746502, -0.000044410204, -148782.77, -148782.77, 0.0, 2.5004737, 2.498486 
1.6128059e+2, 1.8738052e+1, -148858.33, -749334.9, 53.902218, 0.00017607608, -0.00016036586, -148858.33, -148858.33, 0.0, 2.5004737, 2.4984858 
1.6128059e+2, 2.1236616e+1, -106830.445, -662034.44, 126.21512, 0.00031101622, 0.0000902699, -106830.42, -106830.42, 0.0, 2.5004737, 2.4986355 
1.6128059e+2, 2.3735255e+1, -106263.14, -660786.94, 144.49039, 0.0002115141, 0.000008280667, -106263.1, -106263.1, 0.0, 2.5004737, 2.4986377 
1.6128059e+2, 2.6233894e+1, -106326.39, -660846.25, 126.58085, 0.00012182369, -0.00007211114, -106326.36, -106326.36, 0.0, 2.5004735, 2.4986377 
1.6128059e+2, 2.8732532e+1, -106391.266, -660906.44, 109.07143, 0.000042664888, -0.0001492127, -106391.25, -106391.25, 0.0, 2.5004735, 2.4986377 
1.6128059e+2, 3.1231248e+1, -64674.04, -574621.5, -113.01708, 0.000079209196, 0.00019577255, -64674.016, -64674.016, 0.0, 2.500474, 2.4987855 
1.6128059e+2, 3.373004e+1, -63621.355, -572654.56, 64.54069, 0.00008296757, 0.00008393405, -63621.348, -63621.348, 0.0, 2.5004742, 2.4987888 
1.6128059e+2, 3.6228824e+1, -63506.96, -572631.56, 64.743225, 0.00009709312, -0.000029843051, -63506.953, -63506.953, 0.0, 2.5004745, 2.4987886 
1.6128059e+2, 3.8727614e+1, -63394.543, -572609.44, 65.64025, 0.00012212618, -0.00014251145, -63394.535, -63394.535, 0.0, 2.5004747, 2.4987886 
1.6128059e+2, 4.122648e+1, -21930.98, -486508.03, 22.840534, 0.00015877317, 0.00023604806, -21930.98, -21930.98, 0.0, 2.5004747, 2.4989362 
1.6128059e+2, 4.372542e+1, -20913.146, -484151.3, 284.93646, 0.00017417439, 0.000099541794, -20912.973, -20912.973, 0.0, 2.5004745, 2.4989405 
1.6128059e+2, 4.622436e+1, -21087.36, -484267.53, 268.59064, 0.00020486473, -0.000040279592, -21087.205, -21087.205, 0.0, 2.5004742, 2.4989405 
1.6128059e+2, 4.87233e+1, -21263.42, -484384.63, 252.97028, 0.00025094094, -0.00017890988, -21263.283, -21263.283, 0.0, 2.500474, 2.4989402 
1.6128059e+2, 5.122232e+1, 19839.633, -399205.94, -394.51028, 0.00016156242, 0.00025336773, 19840.004, 19840.004, 0.0, 2.500474, 2.4990864 
1.6128059e+2, 5.3721404e+1, 21564.777, -395994.63, 153.01906, 0.000069953516, 0.00007000302, 21564.834, 21564.834, 0.0, 2.5004745, 2.4990916 
1.6128059e+2, 5.6220496e+1, 21776.281, -395922.28, 140.46767, -0.000009118265, -0.00011936887, 21776.328, 21776.328, 0.0, 2.500475, 2.4990916 
1.6128059e+2, 5.871959e+1, 21985.404, -395851.1, 128.44579, -0.00007649106, -0.00030848288, 21985.443, 21985.443, 0.0, 2.5004752, 2.4990916 
1.6128059e+2, 6.1218756e+1, 62897.402, -310904.53, -451.8717, -0.00017401791, 0.00015621675, 62897.95, 62897.95, 0.0, 2.5004754, 2.4992373 
1.6128059e+2, 6.3718e+1, 64442.68, -307569.72, 365.36545, 0.00004854006, 0.00003598852, 64443.04, 64443.04, 0.0, 2.5004752, 2.499243 
1.6128059e+2, 6.621724e+1, 64348.16, -307639.0, 347.9493, 0.00028728755, -0.00008973283, 64348.49, 64348.49, 0.0, 2.5004752, 2.499243 
1.612806e+2, 6.871648e+1, 64251.504, -307709.34, 330.79547, 0.0005399063, -0.00021356954, 64251.797, 64251.797, 0.0, 2.500475, 2.499243 
1.6128059e+2, 7.1215796e+1, 104920.67, -223131.36, -863.4656, 0.000118268865, 0.0003627301, 104922.945, 104922.945, 0.0, 2.500475, 2.4993882 
1.6128059e+2, 7.3715186e+1, 106818.22, -219576.14, 288.84406, -0.000049148883, 0.0002182948, 106818.48, 106818.48, 0.0, 2.5004752, 2.4993942 
1.6128059e+2, 7.621458e+1, 107049.06, -219481.42, 287.31195, -0.00018719315, 0.00006674042, 107049.32, 107049.32, 0.0, 2.5004756, 2.4993942 
1.6128059e+2, 7.871397e+1, 107276.77, -219388.22, 285.91174, -0.00030227937, -0.000082532606, 107277.02, 107277.02, 0.0, 2.5004761, 2.4993942 
1.6128059e+2, 8.121344e+1, 148219.34, -134238.7, -922.9851, -0.00027130957, 0.00027524558, 148222.36, 148222.36, 0.0, 2.500476, 2.4995403 
1.6128059e+2, 8.3712983e+1, 149832.53, -131019.086, 378.6805, 0.00015777827, -0.000053299776, 149833.03, 149833.03, 0.0, 2.5004761, 2.4995458 
1.612806e+2, 8.621252e+1, 149906.8, -130990.61, 322.17206, 0.0006198691, -0.00039037986, 149907.16, 149907.16, 0.0, 2.5004764, 2.4995458 
1.6128062e+2, 8.8712066e+1, 149973.84, -130965.61, 265.23242, 0.0011130929, -0.0007277762, 149974.1, 149974.1, 0.0, 2.5004764, 2.4995458 
1.6128059e+2, 9.1211694e+1, 190781.67, -45992.83, -1512.6267, -0.0007091627, 0.00019825785, 190791.33, 190791.33, 0.0, 2.5004761, 2.4996917 
1.6128059e+2, 9.371139e+1, 192395.63, -43087.58, 299.2454, -0.00038615856, 0.00017082592, 192396.0, 192396.0, 0.0, 2.5004766, 2.4996965 
1.612806e+2, 9.6211076e+1, 192656.92, -42963.566, 293.1559, 0.000024018556, 0.000112185946, 192657.28, 192657.28, 0.0, 2.500477, 2.4996965 
1.612806e+2, 9.871077e+1, 192896.25, -42850.133, 288.96915, 0.00048749667, 0.00003869306, 192896.61, 192896.61, 0.0, 2.5004776, 2.4996965 
1.6378106e+2, 1.2491684e+0, -191522.08, -837366.8, 89.81618, 0.00013194406, -0.0000030958754, -191522.06, -191522.06, 0.0, 2.500473, 2.4983351 
1.6378106e+2, 3.7475052e+0, -191560.16, -837664.9, 21.336548, 0.00005864699, -0.000008943873, -191560.16, -191560.16, 0.0, 2.5004733, 2.4983346 
1.6378106e+2, 6.245842e+0, -191429.9, -837608.0, 14.626485, -0.0000017422295, -0.000014332869, -191429.9, -191429.9, 0.0, 2.5004735, 2.4983346 
1.6378106e+2, 8.744179e+0, -191302.92, -837552.7, 8.098314, -0.000049223614, -0.000019262992, -191302.92, -191302.92, 0.0, 2.5004737, 2.4983346 
1.6378106e+2, 1.12425916e+1, -148953.1, -749806.94, 40.591312, -0.00004545329, 0.00014623879, -148953.1, -148953.1, 0.0, 2.500474, 2.4984848 
1.6378106e+2, 1.3741079e+1, -148706.3, -749204.4, 40.3876, -0.000020151954, 0.000056453693, -148706.3, -148706.3, 0.0, 2.500474, 2.498486 
1.6378106e+2, 1.6239567e+1, -148777.55, -749258.2, 40.33007, 0.000018344384, -0.000030915908, -148777.53, -148777.53, 0.0, 2.5004737, 2.498486 
1.6378106e+2, 1.8738052e+1, -148851.16, -749313.2, 40.43024, 0.00007008735, -0.00011536073, -148851.16, -148851.16, 0.0, 2.5004737, 2.4984858 
1.6378106e+2, 2.1236616e+1, -106859.97, -662065.44, 127.88612, 0.00019021289, 0.00013610926, -106859.945, -106859.945, 0.0, 2.5004737, 2.4986355 
1.6378106e+2, 2.3735255e+1, -106303.51, -660840.0, 130.18298, 0.000118847376, 0.000045443066, -106303.48, -106303.48, 0.0, 2.5004737, 2.4986377 
1.6378106e+2, 2.6233894e+1, -106365.16, -660895.75, 114.822014, 0.000051517763, -0.000045231234, -106365.13, -106365.13, 0.0, 2.5004735, 2.4986377 
1.6378106e+2, 2.8732532e+1, -106428.44, -660952.25, 99.861176, -0.0000111284, -0.00013426162, -106428.42, -106428.42, 0.0, 2.5004735, 2.4986377 
1.6378106e+2, 3.1231248e+1, -64658.05, -574535.06, -33.401237, 0.000017902477, 0.00019349772, -64658.047, -64658.047, 0.0, 2.5004737, 2.4987857 
1.6378106e+2, 3.3730033e+1, -63644.32, -572646.4, 98.15312, 0.000022841275, 0.000073454874, -63644.3, -63644.3, 0.0, 2.500474, 2.4987888 
1.6378106e+2, 3.6228824e+1, -63530.008, -572621.0, 100.80455, 0.000032542026, -0.00004877111, -63529.99, -63529.99, 0.0, 2.5004742, 2.4987886 
1.6378106e+2, 3.872761e+1, -63417.67, -572596.5, 104.150475, 0.000047437275, -0.00017016758, -63417.65, -63417.65, 0.0, 2.5004745, 2.4987886 
1.6378106e+2, 4.122648e+1, -21966.16, -486516.78, -17.822838, 0.00010530088, 0.00020673974, -21966.16, -21966.16, 0.0, 2.5004747, 2.4989364 
1.6378106e+2, 4.372542e+1, -20978.293, -484217.06, 245.84198, 0.000107399384, 0.000088186054, -20978.162, -20978.162, 0.0, 2.5004742, 2.4989405 
1.6378106e+2, 4.622436e+1, -21154.34, -484331.8, 232.13104, 0.00011764838, -0.000032796077, -21154.223, -21154.223, 0.0, 2.500474, 2.4989402 
1.6378106e+2, 4.87233e+1, -21332.234, -484447.44, 219.14555, 0.0001364546, -0.00015174235, -21332.13, -21332.13, 0.0, 2.5004737, 2.4989402 
1.6378106e+2, 5.122232e+1, 19840.29, -399127.06, -331.9062, 0.000045551576, 0.00027339536, 19840.553, 19840.553, 0.0, 2.500474, 2.4990866 
1.6378106e+2, 5.3721404e+1, 21501.277, -396046.6, 216.70537, 0.00000920894, 0.0000955567, 21501.39, 21501.39, 0.0, 2.5004745, 2.4990916 
1.6378106e+2, 5.6220496e+1, 21712.094, -395973.2, 207.34044, -0.00002251954, -0.000088042085, 21712.197, 21712.197, 0.0, 2.5004747, 2.4990916 
1.6378106e+2, 5.871959e+1, 21920.502, -395900.94, 198.51613, -0.000050645704, -0.0002713382, 21920.598, 21920.598, 0.0, 2.5004752, 2.4990916 
1.6378106e+2, 6.1218756e+1, 62876.313, -310893.38, -520.2725, -0.00012622432, 0.00017302262, 62877.035, 62877.035, 0.0, 2.5004752, 2.4992373 
1.6378106e+2, 6.3718e+1, 64381.58, -307640.34, 350.96536, 0.00003149866, 0.000040778195, 64381.91, 64381.91, 0.0, 2.5004752, 2.499243 
1.6378106e+2, 6.621724e+1, 64286.85, -307708.38, 336.7912, 0.00019732518, -0.000096890544, 64287.156, 64287.156, 0.0, 2.500475, 2.499243 
1.6378108e+2, 6.871648e+1, 64189.99, -307777.44, 322.89377, 0.00036938413, -0.00023279268, 64190.27, 64190.27, 0.0, 2.500475, 2.499243 
1.6378106e+2, 7.1215796e+1, 104942.98, -223072.22, -889.08044, -0.000002452435, 0.00030786605, 104945.39, 104945.39, 0.0, 2.500475, 2.4993885 
1.6378106e+2, 7.3715186e+1, 106818.414, -219562.23, 360.7461, -0.000091530164, 0.00016938879, 106818.81, 106818.81, 0.0, 2.5004752, 2.4993942 
1.6378106e+2, 7.621458e+1, 107047.94, -219469.19, 363.48782, -0.00016353412, 0.000024158675, 107048.34, 107048.34, 0.0, 2.5004756, 2.4993942 
1.6378108e+2, 7.871397e+1, 107274.414, -219377.6, 366.33127, -0.00022419728, -0.000118860684, 107274.83, 107274.83, 0.0, 2.5004761, 2.4993942 
1.6378106e+2, 8.121344e+1, 148180.08, -134384.72, -1037.8956, -0.00018807952, 0.00024164232, 148183.89, 148183.89, 0.0, 2.5004761, 2.49954 
1.6378108e+2, 8.3712983e+1, 149799.45, -131155.11, 406.7742, 0.00015308976, -0.000033312084, 149800.05, 149800.05, 0.0, 2.5004761, 2.4995456 
1.6378108e+2, 8.621252e+1, 149874.66, -131127.25, 358.9815, 0.00050420366, -0.00031743507, 149875.11, 149875.11, 0.0, 2.5004764, 2.4995456 
1.6378109e+2, 8.8712066e+1, 149943.3, -131102.55, 310.84543, 0.0008636155, -0.00060287013, 149943.64, 149943.64, 0.0, 2.5004764, 2.4995456 
1.6378106e+2, 9.1211694e+1, 190867.48, -45993.51, -1640.5812, -0.0006990664, 0.0002652535, 190878.84, 190878.84, 0.0, 2.5004764, 2.4996917 
1.6378106e+2, 9.371138e+1, 192588.36, -42889.36, 381.724, -0.00038198862, 0.00018716622, 192588.97, 192588.97, 0.0, 2.5004768, 2.4996967 
1.6378108e+2, 9.6211076e+1, 192876.8, -42752.598, 386.48276, -0.00001563421, 0.00007733389, 192877.44, 192877.44, 0.0, 2.5004773, 2.4996967 
1.6378108e+2, 9.8710763e+1, 193156.1, -42620.242, 391.5293, 0.0003712311, -0.000048751717, 193156.75, 193156.75, 0.0, 2.5004778, 2.4996967 
1.6628154e+2, 1.2491683e+0, -191527.69, -837378.25, 111.508995, 0.0000025110294, -0.000012023563, -191527.67, -191527.67, 0.0, 2.500473, 2.4983351 
1.6628154e+2, 3.747505e+0, -191564.52, -837673.25, 51.61844, -0.000030742973, -0.000035895857, -191564.5, -191564.5, 0.0, 2.5004733, 2.4983346 
1.6628154e+2, 6.2458414e+0, -191434.44, -837616.25, 50.143295, -0.00006755629, -0.000059534377, -191434.44, -191434.44, 0.0, 2.5004735, 2.4983346 
1.6628154e+2, 8.744178e+0, -191307.64, -837560.8, 48.850044, -0.00010792895, -0.00008293925, -191307.64, -191307.64, 0.0, 2.5004737, 2.4983346 
1.6628154e+2, 1.1242591e+1, -148950.56, -749792.25, 45.126793, -0.00010203397, 0.00009070987, -148950.56, -148950.56, 0.0, 2.500474, 2.4984848 
1.6628154e+2, 1.3741079e+1, -148704.66, -749192.4, 18.669134, -0.00008448429, 0.00003204119, -148704.66, -148704.66, 0.0, 2.500474, 2.498486 
1.6628154e+2, 1.6239567e+1, -148773.95, -749243.06, 22.551025, -0.00006381476, -0.000025932233, -148773.95, -148773.95, 0.0, 2.5004737, 2.498486 
1.6628154e+2, 1.8738052e+1, -148845.64, -749294.9, 26.59062, -0.000039955958, -0.00008269738, -148845.64, -148845.64, 0.0, 2.5004737, 2.498486 
1.6628154e+2, 2.1236616e+1, -106902.92, -662124.3, 123.638054, 0.00007297024, 0.00017986944, -106902.89, -106902.89, 0.0, 2.5004737, 2.4986355 
1.6628154e+2, 2.3735255e+1, -106345.336, -660896.1, 115.28572, 0.000028312827, 0.00007668674, -106345.31, -106345.31, 0.0, 2.5004735, 2.4986377 
1.6628154e+2, 2.6233894e+1, -106405.39, -660948.25, 102.47332, -0.000018126631, -0.000028172472, -106405.37, -106405.37, 0.0, 2.5004735, 2.4986377 
1.6628154e+2, 2.873253e+1, -106467.07, -661001.1, 90.06106, -0.00006573081, -0.00013303407, -106467.055, -106467.055, 0.0, 2.5004735, 2.4986374 
1.6628154e+2, 3.1231248e+1, -64653.42, -574472.2, 41.421276, -0.000043579817, 0.00018515608, -64653.418, -64653.418, 0.0, 2.5004737, 2.4987857 
1.6628154e+2, 3.3730033e+1, -63668.492, -572640.7, 130.99506, -0.00003843258, 0.00005393622, -63668.46, -63668.46, 0.0, 2.500474, 2.4987888 
1.6628154e+2, 3.6228824e+1, -63554.258, -572612.94, 136.09537, -0.000034133092, -0.00007978058, -63554.223, -63554.223, 0.0, 2.5004742, 2.4987888 
1.6628154e+2, 3.872761e+1, -63442.004, -572586.06, 141.89018, -0.00003035212, -0.00021294704, -63441.96, -63441.96, 0.0, 2.5004745, 2.4987886 
1.6628154e+2, 4.122648e+1, -22011.111, -486545.84, -59.485012, 0.00005323264, 0.00017078526, -22011.104, -22011.104, 0.0, 2.5004745, 2.4989362 
1.6628154e+2, 4.372542e+1, -21044.506, -484285.0, 206.03848, 0.000041455052, 0.000067377754, -21044.414, -21044.414, 0.0, 2.5004742, 2.4989402 
1.6628154e+2, 4.622436e+1, -21222.387, -484398.28, 194.96242, 0.000030645988, -0.000037670157, -21222.305, -21222.305, 0.0, 2.500474, 2.4989402 
1.6628154e+2, 4.8723298e+1, -21402.115, -484512.47, 184.61182, 0.000021565518, -0.00013983746, -21402.041, -21402.041, 0.0, 2.5004737, 2.4989402 
1.6628154e+2, 5.122231e+1, 19831.252, -399068.3, -268.5231, -0.00007044218, 0.00028556498, 19831.424, 19831.424, 0.0, 2.500474, 2.4990866 
1.6628154e+2, 5.3721404e+1, 21436.865, -396100.44, 279.83667, -0.00005190407, 0.000110400535, 21437.053, 21437.053, 0.0, 2.5004742, 2.4990916 
1.6628154e+2, 5.6220496e+1, 21646.994, -396025.97, 273.6582, -0.000036676716, -0.000070373746, 21647.174, 21647.174, 0.0, 2.5004747, 2.4990916 
1.6628154e+2, 5.871959e+1, 21854.715, -395952.66, 268.02036, -0.000025943726, -0.00025080063, 21854.887, 21854.887, 0.0, 2.5004752, 2.4990914 
1.6628154e+2, 6.1218756e+1, 62842.418, -310908.97, -583.51294, -0.00007868907, 0.00018528168, 62843.33, 62843.33, 0.0, 2.5004752, 2.4992373 
1.6628154e+2, 6.3718e+1, 64319.66, -307712.8, 336.2767, 0.000013907974, 0.000037709357, 64319.96, 64319.96, 0.0, 2.5004752, 2.499243 
1.6628154e+2, 6.621724e+1, 64224.688, -307779.56, 325.34457, 0.00010650537, -0.00011539, 64224.973, 64224.973, 0.0, 2.500475, 2.4992428 
1.6628155e+2, 6.871648e+1, 64127.58, -307847.34, 314.68918, 0.00019769634, -0.0002668408, 64127.844, 64127.844, 0.0, 2.5004747, 2.4992428 
1.6628154e+2, 7.1215796e+1, 104950.375, -223044.63, -906.07733, -0.00012583812, 0.00025155637, 104952.88, 104952.88, 0.0, 2.5004747, 2.4993885 
1.6628154e+2, 7.3715186e+1, 106818.39, -219549.42, 432.6864, -0.0001350002, 0.00011633688, 106818.96, 106818.96, 0.0, 2.5004752, 2.4993942 
1.6628155e+2, 7.6214576e+1, 107046.44, -219458.11, 439.71637, -0.00013936921, -0.000025480393, 107047.03, 107047.03, 0.0, 2.5004756, 2.4993942 
1.6628155e+2, 7.871397e+1, 107271.44, -219368.25, 446.8481, -0.00014401466, -0.0001651575, 107272.05, 107272.05, 0.0, 2.5004761, 2.4993942 
1.6628154e+2, 8.121344e+1, 148121.61, -134569.16, -1137.2104, -0.00011239504, 0.00020629413, 148126.19, 148126.19, 0.0, 2.5004761, 2.4995396 
1.6628155e+2, 8.3712983e+1, 149763.52, -131293.63, 435.14355, 0.00014338513, -0.000018515122, 149764.19, 149764.19, 0.0, 2.5004764, 2.4995453 
1.6628155e+2, 8.621252e+1, 149837.89, -131267.25, 395.89398, 0.00038618792, -0.00025327117, 149838.45, 149838.45, 0.0, 2.5004764, 2.4995453 
1.6628157e+2, 8.8712066e+1, 149905.69, -131244.02, 356.30103, 0.0006144535, -0.00049033505, 149906.14, 149906.14, 0.0, 2.5004766, 2.499545 
1.6628154e+2, 9.1211694e+1, 190913.06, -46060.055, -1752.6224, -0.0006989193, 0.00035077476, 190926.02, 190926.02, 0.0, 2.5004766, 2.4996915 
1.6628155e+2, 9.371138e+1, 192754.5, -42705.305, 463.12067, -0.00038492391, 0.00021698416, 192755.4, 192755.4, 0.0, 2.500477, 2.499697 
1.6628155e+2, 9.6211076e+1, 193041.66, -42569.49, 479.81586, -0.000059391103, 0.00005039242, 193042.64, 193042.64, 0.0, 2.5004776, 2.499697 
1.6628157e+2, 9.8710763e+1, 193319.67, -42438.08, 496.7988, 0.0002538615, -0.0001338532, 193320.72, 193320.72, 0.0, 2.500478, 2.499697 
1.68782e+2, 1.2491683e+0, -192100.11, -837664.1, 130.9902, -0.00012316307, -0.000021772315, -192100.08, -192100.08, 0.0, 2.500472, 2.4983351 
1.6878201e+2, 3.7475047e+0, -192055.45, -837918.7, 75.59115, -0.00011671785, -0.00006531325, -192055.45, -192055.45, 0.0, 2.5004725, 2.4983346 
1.6878201e+2, 6.245841e+0, -191921.61, -837859.7, 76.57911, -0.0001298234, -0.000108848595, -191921.61, -191921.61, 0.0, 2.5004728, 2.4983346 
1.6878201e+2, 8.744178e+0, -191868.2, -837839.44, 78.951164, -0.00016247973, -0.00015237847, -191868.2, -191868.2, 0.0, 2.5004728, 2.4983346 
1.6878201e+2, 1.1242591e+1, -149510.84, -750062.06, 36.194, -0.00015594182, 0.000034562818, -149510.84, -149510.84, 0.0, 2.500473, 2.4984848 
1.6878201e+2, 1.3741079e+1, -149160.47, -749403.5, -20.091234, -0.0001476053, 0.00000319978, -149160.47, -149160.47, 0.0, 2.500473, 2.498486 
1.6878201e+2, 1.6239566e+1, -149174.39, -749425.3, -18.173016, -0.00014601478, -0.000029173907, -149174.39, -149174.39, 0.0, 2.500473, 2.498486 
1.6878201e+2, 1.8738052e+1, -149235.98, -749470.06, -17.387697, -0.00015108686, -0.000062023464, -149235.98, -149235.98, 0.0, 2.500473, 2.498486 
1.6878201e+2, 2.1236618e+1, -107323.03, -662386.4, 82.497925, -0.00003778111, 0.00022196032, -107323.016, -107323.016, 0.0, 2.500473, 2.4986353 
1.6878201e+2, 2.3735256e+1, -106691.75, -661101.5, 73.16884, -0.00005721217, 0.00010248871, -106691.74, -106691.74, 0.0, 2.500473, 2.4986374 
1.6878201e+2, 2.6233894e+1, -106722.555, -661136.6, 66.27145, -0.00008409734, -0.00002034409, -106722.55, -106722.55, 0.0, 2.500473, 2.4986374 
1.6878201e+2, 2.873253e+1, -106787.95, -661188.44, 58.796406, -0.00011780739, -0.00014477914, -106787.945, -106787.945, 0.0, 2.500473, 2.4986374 
1.6878201e+2, 3.1231245e+1, -64922.137, -574559.0, 92.32455, -0.00010193379, 0.00017155318, -64922.12, -64922.12, 0.0, 2.5004733, 2.498786 
1.6878201e+2, 3.3730033e+1, -63912.203, -572742.5, 145.4309, -0.000097944525, 0.000026103486, -63912.16, -63912.16, 0.0, 2.5004735, 2.4987888 
1.6878201e+2, 3.6228824e+1, -63790.47, -572708.75, 154.2506, -0.00010021003, -0.00012222305, -63790.42, -63790.42, 0.0, 2.5004737, 2.4987888 
1.6878201e+2, 3.872761e+1, -63706.785, -572693.25, 163.54614, -0.00010849987, -0.00027027537, -63706.73, -63706.73, 0.0, 2.500474, 2.4987888 
1.6878201e+2, 4.122648e+1, -22275.725, -486696.2, -110.91426, 0.0000052332543, 0.0001288177, -22275.697, -22275.697, 0.0, 2.500474, 2.4989362 
1.6878201e+2, 4.372542e+1, -21251.701, -484422.47, 168.0014, -0.000021137765, 0.000037921996, -21251.64, -21251.64, 0.0, 2.500474, 2.4989402 
1.6878201e+2, 4.622436e+1, -21422.037, -484529.78, 170.74895, -0.00005351853, -0.00005396732, -21421.975, -21421.975, 0.0, 2.5004737, 2.4989402 
1.6878201e+2, 4.8723298e+1, -21654.81, -484667.16, 174.16841, -0.00009075275, -0.00014217399, -21654.746, -21654.746, 0.0, 2.5004733, 2.49894 
1.6878201e+2, 5.122231e+1, 19632.188, -399116.34, -172.71698, -0.00018357422, 0.00029091194, 19632.258, 19632.258, 0.0, 2.5004735, 2.4990869 
1.6878201e+2, 5.3721404e+1, 21250.213, -396214.38, 377.06152, -0.000111094756, 0.000115568095, 21250.553, 21250.553, 0.0, 2.500474, 2.4990916 
1.6878201e+2, 5.6220496e+1, 21458.049, -396139.53, 378.5288, -0.000049478745, -0.000065302396, 21458.393, 21458.393, 0.0, 2.5004745, 2.4990914 
1.6878201e+2, 5.871959e+1, 21602.854, -396095.1, 381.9936, -0.000000078586574, -0.00024575097, 21603.203, 21603.203, 0.0, 2.5004747, 2.4990914 
1.6878201e+2, 6.1218756e+1, 62581.465, -311054.0, -581.61334, -0.00002918989, 0.00019415116, 62582.37, 62582.37, 0.0, 2.5004747, 2.4992373 
1.6878201e+2, 6.3718e+1, 64049.797, -307886.3, 404.066, -0.000002461609, 0.000027952055, 64050.234, 64050.234, 0.0, 2.5004747, 2.4992428 
1.6878201e+2, 6.621723e+1, 63900.957, -307977.63, 419.26526, 0.000016439764, -0.000144033, 63901.43, 63901.43, 0.0, 2.5004745, 2.4992428 
1.6878203e+2, 6.871648e+1, 63689.25, -308099.22, 434.8268, 0.00002658858, -0.00031447178, 63689.758, 63689.758, 0.0, 2.500474, 2.4992428 
1.6878201e+2, 7.1215796e+1, 104507.88, -223257.16, -762.04443, -0.00025030188, 0.00019503395, 104509.65, 104509.65, 0.0, 2.500474, 2.4993885 
1.6878201e+2, 7.3715186e+1, 106355.484, -219759.42, 686.29974, -0.00017838772, 0.00006030049, 106356.93, 106356.93, 0.0, 2.5004745, 2.4993942 
1.6878203e+2, 7.6214576e+1, 106456.11, -219730.34, 734.2992, -0.000113545575, -0.0000810838, 106457.766, 106457.766, 0.0, 2.5004747, 2.4993942 
1.6878203e+2, 7.871397e+1, 106455.375, -219750.1, 789.8559, -0.000060200142, -0.00022039616, 106457.29, 106457.29, 0.0, 2.5004747, 2.4993942 
1.6878201e+2, 8.121344e+1, 147108.5, -135240.8, -913.66943, -0.000042997726, 0.00017014243, 147111.45, 147111.45, 0.0, 2.5004745, 2.4995394 
1.6878203e+2, 8.3712983e+1, 148718.28, -131917.52, 813.3971, 0.00012940483, -0.000008043887, 148720.64, 148720.64, 0.0, 2.5004747, 2.4995449 
1.6878203e+2, 8.621252e+1, 148537.33, -132015.02, 830.06946, 0.000267077, -0.00019705817, 148539.78, 148539.78, 0.0, 2.5004742, 2.4995449 
1.6878204e+2, 8.8712066e+1, 148167.47, -132203.48, 851.53265, 0.00036841002, -0.00038933556, 148170.06, 148170.06, 0.0, 2.5004737, 2.4995449 
1.6878201e+2, 9.121168e+1, 188972.23, -47127.383, -1321.5658, -0.0007059766, 0.00045551622, 188979.63, 188979.63, 0.0, 2.5004733, 2.4996912 
1.6878203e+2, 9.371138e+1, 190755.1, -43563.19, 1164.6608, -0.00039359543, 0.00026077745, 190760.89, 190760.89, 0.0, 2.5004735, 2.4996972 
1.6878203e+2, 9.621107e+1, 190451.94, -43712.0, 1285.9103, -0.000105598985, 0.000031809373, 190459.0, 190459.0, 0.0, 2.500473, 2.4996972 
1.6878204e+2, 9.8710763e+1, 189765.06, -44045.594, 1404.881, 0.00013898693, -0.00021606639, 189773.5, 189773.5, 0.0, 2.5004718, 2.4996972 
1.7128249e+2, 1.24916814e+0, -190977.53, -837150.6, 133.53413, 0.00007883305, -0.000019139541, -190977.52, -190977.52, 0.0, 2.500474, 2.4983351 
1.7128249e+2, 3.7475047e+0, -191334.08, -837595.44, 73.54256, 0.00007804248, -0.000057651567, -191334.08, -191334.08, 0.0, 2.5004737, 2.4983344 
1.7128249e+2, 6.245841e+0, -191523.44, -837690.5, 65.186226, 0.000089534275, -0.00009647352, -191523.42, -191523.42, 0.0, 2.5004735, 2.4983344 
1.7128249e+2, 8.744178e+0, -191714.25, -837786.3, 56.952488, 0.00011330842, -0.00013560553, -191714.25, -191714.25, 0.0, 2.500473, 2.4983344 
1.7128249e+2, 1.1242591e+1, -149442.63, -750012.4, 87.9834, 0.00013654205, 0.00004850616, -149442.63, -149442.63, 0.0, 2.500473, 2.498485 
1.7128249e+2, 1.3741079e+1, -149004.27, -749316.44, 9.075216, 0.000095405565, 0.000013568083, -149004.27, -149004.27, 0.0, 2.5004733, 2.498486 
1.7128249e+2, 1.6239566e+1, -148881.42, -749273.9, 10.938105, 0.000060707483, -0.000019803661, -148881.42, -148881.42, 0.0, 2.5004735, 2.498486 
1.7128249e+2, 1.8738052e+1, -148759.69, -749231.94, 12.9234295, 0.00003254696, -0.000051078445, -148759.69, -148759.69, 0.0, 2.5004737, 2.498486 
1.7128249e+2, 2.1236618e+1, -106687.94, -662101.56, 145.8276, 0.000121679506, 0.0002363379, -106687.9, -106687.9, 0.0, 2.5004742, 2.4986353 
1.7128249e+2, 2.3735255e+1, -106131.836, -660874.2, 108.15083, 0.00011281163, 0.00012383943, -106131.82, -106131.82, 0.0, 2.500474, 2.4986374 
1.7128249e+2, 2.6233894e+1, -106192.35, -660924.3, 96.01624, 0.00010952782, 0.000011523361, -106192.33, -106192.33, 0.0, 2.500474, 2.4986374 
1.7128249e+2, 2.873253e+1, -106254.34, -660975.2, 84.25412, 0.00011236889, -0.00009885429, -106254.33, -106254.33, 0.0, 2.500474, 2.4986374 
1.7128249e+2, 3.1231245e+1, -64510.293, -574310.44, 165.45857, 0.00014894591, 0.00022531487, -64510.24, -64510.24, 0.0, 2.500474, 2.498786 
1.7128249e+2, 3.3730033e+1, -63713.625, -572627.56, 176.60594, 0.00011854352, 0.000073957366, -63713.563, -63713.563, 0.0, 2.500474, 2.4987888 
1.7128249e+2, 3.6228824e+1, -63748.086, -572667.94, 171.5771, 0.00009639384, -0.000080005455, -63748.027, -63748.027, 0.0, 2.500474, 2.4987888 
1.7128249e+2, 3.872761e+1, -63784.074, -572709.1, 167.12523, 0.000082865736, -0.00023339529, -63784.02, -63784.02, 0.0, 2.5004737, 2.4987888 
1.7128249e+2, 4.122648e+1, -22224.844, -486633.44, -85.97908, 0.00018068746, 0.00016189225, -22224.828, -22224.828, 0.0, 2.5004742, 2.4989364 
1.7128249e+2, 4.372542e+1, -21038.29, -484339.38, 161.92883, 0.00013424843, 0.00007708556, -21038.232, -21038.232, 0.0, 2.5004742, 2.4989402 
1.7128249e+2, 4.622436e+1, -20949.486, -484320.9, 145.26717, 0.00009886663, -0.000012736407, -20949.44, -20949.44, 0.0, 2.5004745, 2.4989402 
1.7128249e+2, 4.8723298e+1, -20862.672, -484303.38, 129.08759, 0.00007568092, -0.00010294665, -20862.635, -20862.635, 0.0, 2.5004747, 2.49894 
1.7128249e+2, 5.122231e+1, 20468.627, -398653.56, -180.3904, 0.0000013884356, 0.00033277503, 20468.703, 20468.703, 0.0, 2.500475, 2.4990869 
1.7128249e+2, 5.3721404e+1, 21692.35, -396004.5, 353.7611, 0.000051200317, 0.00017082274, 21692.648, 21692.648, 0.0, 2.5004747, 2.4990916 
1.7128249e+2, 5.6220496e+1, 21609.697, -396064.1, 343.85764, 0.000117235315, 0.0000057409443, 21609.98, 21609.98, 0.0, 2.5004747, 2.4990914 
1.712825e+2, 5.871959e+1, 21524.934, -396124.66, 334.10126, 0.00019841055, -0.00015652597, 21525.201, 21525.201, 0.0, 2.5004745, 2.4990914 
1.7128249e+2, 6.1218756e+1, 62584.207, -311025.84, -660.7986, 0.00016580078, 0.0002883568, 62585.375, 62585.375, 0.0, 2.5004747, 2.4992373 
1.712825e+2, 6.3718e+1, 64233.7, -307802.16, 318.765, 0.00011591069, 0.00010857849, 64233.973, 64233.973, 0.0, 2.500475, 2.4992428 
1.712825e+2, 6.621724e+1, 64348.0, -307763.06, 304.105, 0.00007848043, -0.00007596715, 64348.25, 64348.25, 0.0, 2.5004752, 2.4992428 
1.712825e+2, 6.871648e+1, 64460.434, -307724.84, 289.5991, 0.000052774056, -0.0002579167, 64460.66, 64460.66, 0.0, 2.5004754, 2.4992428 
1.7128249e+2, 7.1215796e+1, 105433.79, -222780.16, -951.87384, -0.00016937764, 0.00024079773, 105436.555, 105436.555, 0.0, 2.5004756, 2.4993885 
1.7128249e+2, 7.3715186e+1, 107090.41, -219357.89, 486.7821, -0.00008854342, 0.00010803682, 107091.13, 107091.13, 0.0, 2.5004756, 2.4993944 
1.712825e+2, 7.6214576e+1, 107096.414, -219360.27, 457.39246, 0.0000107831365, -0.00003160748, 107097.055, 107097.055, 0.0, 2.5004756, 2.4993944 
1.712825e+2, 7.871397e+1, 107100.09, -219363.77, 428.09204, 0.00012513516, -0.00016949559, 107100.66, 107100.66, 0.0, 2.5004756, 2.4993944 
1.712825e+2, 8.121344e+1, 147719.61, -134953.13, -1374.6688, 0.000098931116, 0.00021638424, 147726.28, 147726.28, 0.0, 2.5004756, 2.4995394 
1.712825e+2, 8.3712983e+1, 149515.55, -131453.53, 438.90067, 0.00015922321, 0.000043151605, 149516.23, 149516.23, 0.0, 2.500476, 2.499545 
1.712825e+2, 8.621252e+1, 149660.69, -131379.7, 437.59085, 0.00025576417, -0.00013654976, 149661.38, 149661.38, 0.0, 2.5004761, 2.499545 
1.7128251e+2, 8.8712066e+1, 149801.98, -131307.73, 436.36264, 0.00038688484, -0.00031522245, 149802.67, 149802.67, 0.0, 2.5004764, 2.499545 
1.7128249e+2, 9.1211694e+1, 190942.78, -46243.457, -1828.5756, -0.0004183491, 0.0005064182, 190956.88, 190956.88, 0.0, 2.5004768, 2.499691 
1.712825e+2, 9.371138e+1, 192770.39, -42466.766, 560.18317, -0.0002393623, 0.00027488684, 192771.73, 192771.73, 0.0, 2.5004768, 2.4996974 
1.712825e+2, 9.6211076e+1, 192766.7, -42471.707, 469.42444, 0.000018283883, 0.000021110929, 192767.64, 192767.64, 0.0, 2.5004768, 2.4996974 
1.7128251e+2, 9.8710763e+1, 192744.75, -42485.434, 380.1541, 0.00034075146, -0.00023966981, 192745.38, 192745.38, 0.0, 2.5004768, 2.4996974 
1.7378296e+2, 1.2491683e+0, -190989.23, -837174.6, 75.677795, -0.000051346284, -0.000010260933, -190989.22, -190989.22, 0.0, 2.500474, 2.4983351 
1.7378296e+2, 3.7475047e+0, -191345.25, -837617.7, 21.68326, -0.000014287271, -0.000030826883, -191345.25, -191345.25, 0.0, 2.5004737, 2.4983344 
1.7378296e+2, 6.2458414e+0, -191535.33, -837713.6, 15.713329, 0.000027608685, -0.00005145095, -191535.33, -191535.33, 0.0, 2.5004735, 2.4983344 
1.7378296e+2, 8.744178e+0, -191726.86, -837810.25, 9.866002, 0.000074341566, -0.00007213326, -191726.86, -191726.86, 0.0, 2.500473, 2.4983344 
1.7378296e+2, 1.1242591e+1, -149428.98, -749980.6, 131.37794, 0.00011115453, 0.00009211028, -149428.97, -149428.97, 0.0, 2.500473, 2.498485 
1.7378296e+2, 1.3741079e+1, -148997.84, -749298.94, 39.85077, 0.00006283575, 0.0000243335, -148997.84, -148997.84, 0.0, 2.5004733, 2.498486 
1.7378296e+2, 1.6239566e+1, -148874.84, -749255.4, 44.01027, 0.00001686851, -0.00004206888, -148874.84, -148874.84, 0.0, 2.5004735, 2.498486 
1.7378296e+2, 1.8738052e+1, -148752.95, -749212.3, 48.292206, -0.000026632712, -0.000106595864, -148752.95, -148752.95, 0.0, 2.5004737, 2.498486 
1.7378296e+2, 2.1236616e+1, -106683.97, -662078.75, 166.84749, 0.000018123206, 0.00016080578, -106683.92, -106683.92, 0.0, 2.5004742, 2.4986353 
1.7378296e+2, 2.3735255e+1, -106161.31, -660918.94, 92.29439, 0.000019697085, 0.00006817792, -106161.3, -106161.3, 0.0, 2.500474, 2.4986374 
1.7378296e+2, 2.6233894e+1, -106222.28, -660968.1, 82.11122, 0.00002295879, -0.000024223917, -106222.27, -106222.27, 0.0, 2.500474, 2.4986374 
1.7378296e+2, 2.873253e+1, -106284.734, -661018.06, 72.30053, 0.000028249624, -0.000114706854, -106284.73, -106284.73, 0.0, 2.500474, 2.4986372 
1.7378296e+2, 3.1231245e+1, -64520.504, -574288.9, 173.99985, 0.000116135365, 0.00021371046, -64520.445, -64520.445, 0.0, 2.500474, 2.498786 
1.7378296e+2, 3.3730033e+1, -63748.703, -572653.06, 169.93288, 0.00008983527, 0.0000793744, -63748.65, -63748.65, 0.0, 2.500474, 2.4987888 
1.7378296e+2, 3.6228824e+1, -63785.05, -572693.0, 167.04759, 0.000066585344, -0.000056623718, -63784.996, -63784.996, 0.0, 2.5004737, 2.4987888 
1.7378296e+2, 3.872761e+1, -63822.93, -572733.6, 164.73927, 0.000047100766, -0.00019117714, -63822.875, -63822.875, 0.0, 2.5004737, 2.4987888 
1.7378296e+2, 4.122648e+1, -22218.537, -486571.0, -36.07949, 0.000097519536, 0.00017597462, -22218.533, -22218.533, 0.0, 2.500474, 2.4989364 
1.7378296e+2, 4.372542e+1, -21090.77, -484396.44, 189.12022, 0.000059032718, 0.00006035854, -21090.691, -21090.691, 0.0, 2.5004742, 2.49894 
1.7378296e+2, 4.622436e+1, -21002.646, -484376.63, 175.17838, 0.000025138665, -0.000060111463, -21002.58, -21002.58, 0.0, 2.5004745, 2.49894 
1.7378296e+2, 4.8723298e+1, -20916.514, -484357.78, 161.71861, -0.0000034624147, -0.0001810125, -20916.457, -20916.457, 0.0, 2.5004747, 2.49894 
1.7378296e+2, 5.122231e+1, 20451.953, -398623.47, -193.43692, -0.00001967923, 0.00025247605, 20452.041, 20452.041, 0.0, 2.500475, 2.499087 
1.7378296e+2, 5.3721404e+1, 21637.75, -396053.2, 336.60587, 0.000031431417, 0.000118846874, 21638.021, 21638.021, 0.0, 2.5004747, 2.4990914 
1.7378297e+2, 5.6220496e+1, 21555.982, -396110.97, 329.34952, 0.0000911037, -0.00001930202, 21556.242, 21556.242, 0.0, 2.5004747, 2.4990914 
1.7378297e+2, 5.871959e+1, 21472.104, -396169.75, 322.24023, 0.00015890479, -0.00015602092, 21472.352, 21472.352, 0.0, 2.5004745, 2.4990914 
1.7378296e+2, 6.1218756e+1, 62573.355, -311016.75, -632.4882, 0.00011519651, 0.00028801113, 62574.426, 62574.426, 0.0, 2.5004747, 2.4992375 
1.7378297e+2, 6.3718e+1, 64195.05, -307850.22, 356.79465, 0.00006229765, 0.000102365884, 64195.395, 64195.395, 0.0, 2.500475, 2.4992428 
1.7378297e+2, 6.621723e+1, 64309.836, -307809.13, 344.36127, 0.000016934333, -0.00008888664, 64310.156, 64310.156, 0.0, 2.5004752, 2.4992428 
1.7378297e+2, 6.871648e+1, 64422.754, -307768.9, 332.08197, -0.000021679198, -0.00027849711, 64423.05, 64423.05, 0.0, 2.5004754, 2.4992428 
1.7378296e+2, 7.1215796e+1, 105415.27, -222840.05, -988.71, -0.00015952592, 0.00021002328, 105418.26, 105418.26, 0.0, 2.5004756, 2.4993885 
1.7378297e+2, 7.3715186e+1, 107065.58, -219429.25, 494.44058, -0.00006698054, 0.00009105322, 107066.32, 107066.32, 0.0, 2.5004756, 2.4993942 
1.7378297e+2, 7.6214576e+1, 107068.95, -219434.64, 468.06186, 0.000036376347, -0.000034492285, 107069.625, 107069.625, 0.0, 2.5004756, 2.4993942 
1.7378297e+2, 7.871397e+1, 107070.0, -219441.16, 441.77243, 0.00014822147, -0.00015812228, 107070.6, 107070.6, 0.0, 2.5004756, 2.4993942 
1.7378297e+2, 8.121344e+1, 147754.55, -134972.92, -1428.9556, 0.00009985217, 0.00022351966, 147761.78, 147761.78, 0.0, 2.5004756, 2.4995391 
1.7378297e+2, 8.3712983e+1, 149601.47, -131365.38, 482.4039, 0.00011447114, 0.000031686093, 149602.3, 149602.3, 0.0, 2.500476, 2.4995453 
1.7378297e+2, 8.621252e+1, 149743.25, -131295.31, 485.60864, 0.00015379749, -0.0001664035, 149744.1, 149744.1, 0.0, 2.5004761, 2.4995453 
1.7378299e+2, 8.8712066e+1, 149881.19, -131227.1, 488.8949, 0.00021610301, -0.0003632393, 149882.03, 149882.03, 0.0, 2.5004764, 2.4995453 
1.7378296e+2, 9.121168e+1, 190913.31, -46514.223, -1891.3466, -0.000298541, 0.0004308955, 190928.38, 190928.38, 0.0, 2.500477, 2.4996905 
1.7378297e+2, 9.371138e+1, 192831.67, -42545.223, 565.4855, -0.00015389116, 0.00022738108, 192833.03, 192833.03, 0.0, 2.500477, 2.4996972 
1.7378297e+2, 9.6211076e+1, 192825.39, -42549.633, 485.88358, 0.000036673577, 0.00000086458823, 192826.39, 192826.39, 0.0, 2.500477, 2.4996972 
1.7378299e+2, 9.8710763e+1, 192807.39, -42559.688, 406.71964, 0.0002645108, -0.00023382044, 192808.1, 192808.1, 0.0, 2.500477, 2.4996972 
1.7628343e+2, 1.2491683e+0, -191001.47, -837199.75, 18.085154, -0.00018128732, -0.0000021951582, -191001.47, -191001.47, 0.0, 2.500474, 2.4983351 
1.7628343e+2, 3.747505e+0, -191357.88, -837642.94, -30.19463, -0.000105902145, -0.000006440703, -191357.88, -191357.88, 0.0, 2.5004737, 2.4983344 
1.7628343e+2, 6.2458414e+0, -191548.66, -837739.75, -33.778156, -0.000033125438, -0.000010492551, -191548.66, -191548.66, 0.0, 2.5004735, 2.4983344 
1.7628343e+2, 8.744178e+0, -191740.92, -837837.25, -37.23908, 0.000037042773, -0.000014350836, -191740.92, -191740.92, 0.0, 2.500473, 2.4983344 
1.7628343e+2, 1.1242591e+1, -149423.69, -749966.1, 174.90366, 0.00008490287, 0.00013452239, -149423.64, -149423.64, 0.0, 2.500473, 2.498485 
1.7628343e+2, 1.3741077e+1, -148993.13, -749284.94, 70.495476, 0.000029028854, 0.000029479927, -148993.11, -148993.11, 0.0, 2.5004733, 2.498486 
1.7628343e+2, 1.6239566e+1, -148869.97, -749240.4, 76.951584, -0.000028574215, -0.00007439582, -148869.95, -148869.95, 0.0, 2.5004735, 2.498486 
1.7628343e+2, 1.8738052e+1, -148747.9, -749196.25, 83.530136, -0.0000877828, -0.00017661776, -148747.89, -148747.89, 0.0, 2.5004737, 2.498486 
1.7628343e+2, 2.1236616e+1, -106696.86, -662091.0, 185.96658, -0.00008293639, 0.00008604267, -106696.8, -106696.8, 0.0, 2.500474, 2.4986353 
1.7628343e+2, 2.3735255e+1, -106192.08, -660966.3, 76.01884, -0.000071534356, 0.000009843389, -106192.06, -106192.06, 0.0, 2.500474, 2.4986372 
1.7628343e+2, 2.6233894e+1, -106253.5, -661014.6, 67.787094, -0.00006236269, -0.000066175926, -106253.49, -106253.49, 0.0, 2.500474, 2.4986372 
1.7628343e+2, 2.873253e+1, -106316.41, -661063.6, 59.927837, -0.000055257646, -0.00014029587, -106316.41, -106316.41, 0.0, 2.5004737, 2.4986372 
1.7628343e+2, 3.1231245e+1, -64539.375, -574285.3, 179.66077, 0.00008200788, 0.00019439566, -64539.313, -64539.313, 0.0, 2.5004737, 2.498786 
1.7628343e+2, 3.3730033e+1, -63784.918, -572680.94, 162.64503, 0.000059553786, 0.00007399271, -63784.867, -63784.867, 0.0, 2.5004737, 2.4987888 
1.7628343e+2, 3.622882e+1, -63823.152, -572720.4, 161.9033, 0.00003496129, -0.00004715969, -63823.1, -63823.1, 0.0, 2.5004737, 2.4987888 
1.7628343e+2, 3.872761e+1, -63862.918, -572760.5, 161.73854, 0.000009277883, -0.00016599569, -63862.863, -63862.863, 0.0, 2.5004737, 2.4987888 
1.7628343e+2, 4.122648e+1, -22226.336, -486537.88, 15.674474, 0.000013962388, 0.00018670932, -22226.336, -22226.336, 0.0, 2.500474, 2.4989367 
1.7628343e+2, 4.372542e+1, -21144.26, -484455.6, 215.68903, -0.000016967626, 0.00003737222, -21144.16, -21144.16, 0.0, 2.5004742, 2.49894 
1.7628343e+2, 4.622436e+1, -21056.818, -484434.47, 204.46701, -0.000049779872, -0.00011680038, -21056.729, -21056.729, 0.0, 2.5004745, 2.49894 
1.7628343e+2, 4.8723298e+1, -20971.367, -484414.3, 193.72705, -0.000084202264, -0.00027144677, -20971.287, -20971.287, 0.0, 2.5004745, 2.49894 
1.7628343e+2, 5.122231e+1, 20424.535, -398615.7, -207.02963, -0.000045333887, 0.00016683563, 20424.639, 20424.639, 0.0, 2.5004747, 2.499087 
1.7628343e+2, 5.3721404e+1, 21582.287, -396103.7, 319.10193, 0.0000064162223, 0.000058863956, 21582.531, 21582.531, 0.0, 2.5004747, 2.4990914 
1.7628345e+2, 5.6220496e+1, 21501.404, -396159.63, 314.4927, 0.00005909499, -0.000055114488, 21501.64, 21501.64, 0.0, 2.5004745, 2.4990914 
1.7628345e+2, 5.871959e+1, 21418.41, -396216.63, 310.03055, 0.000112891146, -0.00016904781, 21418.64, 21418.64, 0.0, 2.5004745, 2.4990914 
1.7628345e+2, 6.1218756e+1, 62551.742, -311030.0, -599.65643, 0.0000646948, 0.0002829486, 62552.703, 62552.703, 0.0, 2.5004747, 2.4992375 
1.7628345e+2, 6.3718e+1, 64155.62, -307899.94, 394.41608, 0.000008470386, 0.00008870917, 64156.04, 64156.04, 0.0, 2.500475, 2.4992428 
1.7628345e+2, 6.621723e+1, 64270.89, -307856.8, 384.20935, -0.000045226378, -0.000112104484, 64271.285, 64271.285, 0.0, 2.5004752, 2.4992425 
1.7628345e+2, 6.871648e+1, 64384.293, -307814.6, 374.15668, -0.000097147466, -0.0003122301, 64384.668, 64384.668, 0.0, 2.5004754, 2.4992425 
1.7628343e+2, 7.121579e+1, 105380.72, -222933.27, -1013.95447, -0.00016157606, 0.00017879192, 105383.85, 105383.85, 0.0, 2.5004756, 2.4993882 
1.7628345e+2, 7.3715186e+1, 107039.94, -219502.28, 502.11243, -0.000055329772, 0.00006982053, 107040.71, 107040.71, 0.0, 2.5004756, 2.4993942 
1.7628345e+2, 7.6214576e+1, 107040.69, -219510.69, 478.7447, 0.00005419258, -0.000045615536, 107041.39, 107041.39, 0.0, 2.5004756, 2.499394 
1.7628345e+2, 7.871397e+1, 107039.11, -219520.22, 455.4662, 0.00016566593, -0.00015897678, 107039.74, 107039.74, 0.0, 2.5004756, 2.499394 
1.7628345e+2, 8.121344e+1, 147767.97, -135037.47, -1467.5057, 0.00009090352, 0.00023258892, 147775.58, 147775.58, 0.0, 2.500476, 2.4995391 
1.7628345e+2, 8.3712983e+1, 149686.78, -131278.48, 525.9959, 0.00006362429, 0.000018242763, 149687.77, 149687.77, 0.0, 2.5004761, 2.4995453 
1.7628345e+2, 8.621252e+1, 149825.2, -131212.17, 533.71515, 0.000049585127, -0.00020238117, 149826.22, 149826.22, 0.0, 2.5004764, 2.4995453 
1.7628346e+2, 8.8712066e+1, 149959.78, -131147.72, 541.5159, 0.000046924593, -0.0004215262, 149960.81, 149960.81, 0.0, 2.5004766, 2.4995453 
1.7628345e+2, 9.121168e+1, 190856.67, -46841.43, -1926.7378, -0.00021051383, 0.00036830647, 190872.28, 190872.28, 0.0, 2.5004773, 2.4996898 
1.7628345e+2, 9.371138e+1, 192891.97, -42625.69, 570.4419, -0.000097766446, 0.00018717276, 192893.36, 192893.36, 0.0, 2.5004773, 2.499697 
1.7628346e+2, 9.621107e+1, 192883.13, -42629.57, 501.99683, 0.000028681488, -0.000018105959, 192884.19, 192884.19, 0.0, 2.5004773, 2.499697 
1.7628346e+2, 9.8710763e+1, 192862.55, -42639.094, 433.9897, 0.00016485293, -0.00023271695, 192863.34, 192863.34, 0.0, 2.5004773, 2.499697 
1.7878391e+2, 1.2491684e+0, -191691.06, -837552.3, -40.60514, -0.00030789027, 0.000005088681, -191691.06, -191691.06, 0.0, 2.5004728, 2.498335 
1.7878391e+2, 3.7475052e+0, -191959.86, -837954.7, -85.662254, -0.00019412967, 0.000015588304, -191959.84, -191959.84, 0.0, 2.5004728, 2.4983344 
1.7878391e+2, 6.245842e+0, -192125.34, -838039.75, -88.03326, -0.00009004165, 0.000026518288, -192125.33, -192125.33, 0.0, 2.5004725, 2.4983344 
1.7878391e+2, 8.744179e+0, -192355.2, -838155.9, -89.15528, 0.000004373728, 0.000037878486, -192355.19, -192355.19, 0.0, 2.500472, 2.4983344 
1.7878391e+2, 1.1242591e+1, -150009.98, -750250.2, 211.16472, 0.000060794813, 0.00017597534, -150009.9, -150009.9, 0.0, 2.500472, 2.498485 
1.7878391e+2, 1.3741077e+1, -149486.94, -749514.06, 86.9556, -0.0000033908848, 0.00002941177, -149486.92, -149486.92, 0.0, 2.5004725, 2.498486 
1.7878391e+2, 1.6239566e+1, -149317.8, -749446.3, 89.619675, -0.00007317583, -0.000116231946, -149317.78, -149317.78, 0.0, 2.5004728, 2.498486 
1.7878391e+2, 1.8738051e+1, -149190.33, -749398.7, 92.97745, -0.00014843378, -0.00026046686, -149190.31, -149190.31, 0.0, 2.500473, 2.498486 
1.7878391e+2, 2.1236615e+1, -107147.54, -662340.94, 174.66272, -0.00017908291, 0.0000128142865, -107147.484, -107147.484, 0.0, 2.5004733, 2.4986353 
1.7878391e+2, 2.3735252e+1, -106605.9, -661200.3, 31.254112, -0.00015856007, -0.000050355153, -106605.89, -106605.89, 0.0, 2.5004733, 2.4986372 
1.7878391e+2, 2.623389e+1, -106677.47, -661252.3, 27.697063, -0.00014393692, -0.000113534945, -106677.47, -106677.47, 0.0, 2.5004733, 2.4986372 
1.7878391e+2, 2.873253e+1, -106799.4, -661328.56, 26.784807, -0.00013520494, -0.00017488944, -106799.4, -106799.4, 0.0, 2.500473, 2.4986372 
1.7878391e+2, 3.1231245e+1, -64990.78, -574504.1, 161.98914, 0.000049481954, 0.00016818967, -64990.73, -64990.73, 0.0, 2.500473, 2.498786 
1.7878391e+2, 3.3730033e+1, -64140.867, -572864.8, 126.77244, 0.000030128465, 0.000058884925, -64140.836, -64140.836, 0.0, 2.5004733, 2.4987888 
1.7878391e+2, 3.622882e+1, -64136.77, -572882.44, 121.915146, 0.000003770187, -0.000050334485, -64136.742, -64136.742, 0.0, 2.5004733, 2.4987888 
1.7878391e+2, 3.872761e+1, -64195.27, -572930.2, 118.89764, -0.000028226938, -0.00015641337, -64195.242, -64195.242, 0.0, 2.5004733, 2.4987888 
1.7878391e+2, 4.122648e+1, -22526.59, -486668.28, 27.862885, -0.00006766476, 0.00019561939, -22526.588, -22526.588, 0.0, 2.5004735, 2.4989367 
1.7878391e+2, 4.3725413e+1, -21426.57, -484626.78, 198.94574, -0.00009171696, 0.000009726652, -21426.486, -21426.486, 0.0, 2.5004737, 2.49894 
1.7878391e+2, 4.6224353e+1, -21343.389, -484606.1, 188.39824, -0.00012384211, -0.0001810969, -21343.313, -21343.313, 0.0, 2.500474, 2.49894 
1.7878391e+2, 4.8723292e+1, -21316.314, -484612.44, 177.55678, -0.00016418572, -0.00037240746, -21316.248, -21316.248, 0.0, 2.500474, 2.4989398 
1.7878391e+2, 5.1222306e+1, 20109.424, -398763.53, -265.5959, -0.00007330584, 0.00007776048, 20109.592, 20109.592, 0.0, 2.5004742, 2.499087 
1.7878392e+2, 5.3721404e+1, 21323.256, -396253.6, 263.0166, -0.000022027734, -0.000007176505, 21323.422, 21323.422, 0.0, 2.5004742, 2.4990914 
1.7878392e+2, 5.6220496e+1, 21248.455, -396305.3, 263.58725, 0.000022919878, -0.000099614546, 21248.623, 21248.623, 0.0, 2.5004742, 2.4990914 
1.7878392e+2, 5.871959e+1, 21102.492, -396391.34, 260.64462, 0.00006231882, -0.000193303, 21102.654, 21102.654, 0.0, 2.500474, 2.4990914 
1.7878392e+2, 6.121875e+1, 62230.758, -311204.03, -587.91614, 0.0000162513, 0.00027547413, 62231.684, 62231.684, 0.0, 2.5004742, 2.4992373 
1.7878392e+2, 6.371799e+1, 63858.344, -308074.47, 431.08994, -0.000043976903, 0.000069667105, 63858.844, 63858.844, 0.0, 2.5004745, 2.4992425 
1.7878392e+2, 6.621723e+1, 63961.926, -308035.22, 446.57602, -0.00010656906, -0.0001437427, 63962.465, 63962.465, 0.0, 2.5004747, 2.4992425 
1.7878392e+2, 6.871648e+1, 64019.914, -308017.97, 460.60837, -0.00017215985, -0.0003573537, 64020.484, 64020.484, 0.0, 2.5004747, 2.4992425 
1.7878392e+2, 7.121579e+1, 104963.14, -223235.52, -951.7722, -0.00017423555, 0.00014887156, 104965.91, 104965.91, 0.0, 2.500475, 2.499388 
1.7878392e+2, 7.3715186e+1, 106621.4, -219764.72, 628.2254, -0.000052704312, 0.000046163867, 106622.61, 106622.61, 0.0, 2.500475, 2.499394 
1.7878392e+2, 7.6214576e+1, 106551.45, -219808.9, 651.55096, 0.00006492921, -0.00006313867, 106552.75, 106552.75, 0.0, 2.500475, 2.499394 
1.7878394e+2, 7.8713965e+1, 106436.195, -219874.89, 676.05316, 0.00017819204, -0.00017025041, 106437.6, 106437.6, 0.0, 2.5004747, 2.499394 
1.7878392e+2, 8.121344e+1, 147088.08, -135468.39, -1233.5223, 0.0000727645, 0.00024524573, 147093.45, 147093.45, 0.0, 2.5004747, 2.499539 
1.7878392e+2, 8.3712983e+1, 149003.56, -131560.7, 882.8705, 0.000007242764, 0.00000424017, 149006.34, 149006.34, 0.0, 2.500475, 2.4995456 
1.7878392e+2, 8.621252e+1, 148989.94, -131569.7, 954.5934, -0.00005620315, -0.00024329664, 148993.19, 148993.19, 0.0, 2.500475, 2.4995456 
1.7878394e+2, 8.8712066e+1, 148919.9, -131605.84, 1029.4893, -0.00011964165, -0.00048912724, 148923.69, 148923.69, 0.0, 2.5004747, 2.4995453 
1.7878392e+2, 9.121168e+1, 189478.64, -47845.64, -1412.165, -0.0001533676, 0.00031950304, 189487.05, 189487.05, 0.0, 2.5004752, 2.499689 
1.7878392e+2, 9.371138e+1, 191419.53, -43443.14, 1208.0701, -0.00007025744, 0.00015511575, 191425.73, 191425.73, 0.0, 2.500475, 2.4996967 
1.7878394e+2, 9.621107e+1, 190989.64, -43648.023, 1261.8517, -0.000004307238, -0.000034987996, 190996.42, 190996.42, 0.0, 2.5004742, 2.4996967 
1.7878394e+2, 9.8710763e+1, 190367.06, -43945.69, 1316.7157, 0.00004464009, -0.00023563126, 190374.47, 190374.47, 0.0, 2.500473, 2.4996967 
1.8128438e+2, 1.2491684e+0, -191650.22, -837549.25, -20.783499, -0.000060682185, 0.0000053989384, -191650.22, -191650.22, 0.0, 2.500473, 2.498335 
1.8128438e+2, 3.7475052e+0, -191616.67, -837805.75, -60.759808, 0.0000011677016, 0.000016055543, -191616.67, -191616.67, 0.0, 2.5004733, 2.4983344 
1.8128438e+2, 6.245842e+0, -191417.1, -837713.94, -61.489346, 0.00007642381, 0.000026524465, -191417.08, -191417.08, 0.0, 2.5004737, 2.4983344 
1.8128438e+2, 8.744179e+0, -191219.56, -837623.2, -62.100388, 0.00016508612, 0.000036805566, -191219.55, -191219.55, 0.0, 2.500474, 2.4983344 
1.8128438e+2, 1.1242591e+1, -148850.97, -749725.1, 266.91162, 0.00021443608, 0.00018346339, -148850.84, -148850.84, 0.0, 2.5004742, 2.498485 
1.8128438e+2, 1.3741077e+1, -148701.23, -749173.06, 105.27977, 0.00014898415, 0.000056901525, -148701.22, -148701.22, 0.0, 2.500474, 2.498486 
1.8128438e+2, 1.6239566e+1, -148862.23, -749263.6, 84.3742, 0.00008849873, -0.000070324255, -148862.22, -148862.22, 0.0, 2.5004737, 2.498486 
1.8128438e+2, 1.8738051e+1, -149024.94, -749355.0, 63.422203, 0.000033082008, -0.00019772777, -149024.94, -149024.94, 0.0, 2.5004733, 2.498486 
1.8128438e+2, 2.1236615e+1, -107061.18, -662284.44, 195.1837, 0.000005128667, 0.000078340265, -107061.11, -107061.11, 0.0, 2.5004735, 2.4986353 
1.8128438e+2, 2.3735252e+1, -106419.85, -661112.75, 29.723446, 0.0000113759015, 0.000006733252, -106419.84, -106419.84, 0.0, 2.5004737, 2.4986372 
1.8128438e+2, 2.623389e+1, -106331.16, -661085.06, 33.27012, 0.000028954995, -0.00006868954, -106331.16, -106331.16, 0.0, 2.5004737, 2.4986372 
1.8128438e+2, 2.873253e+1, -106244.49, -661058.4, 37.134415, 0.000057887217, -0.00014610242, -106244.484, -106244.484, 0.0, 2.500474, 2.4986372 
1.8128438e+2, 3.1231245e+1, -64367.582, -574205.94, 214.198, 0.00023123324, 0.00019582077, -64367.492, -64367.492, 0.0, 2.5004742, 2.498786 
1.8128438e+2, 3.3730033e+1, -63634.344, -572655.75, 155.40865, 0.00017725717, 0.00011541796, -63634.297, -63634.297, 0.0, 2.5004742, 2.4987888 
1.8128438e+2, 3.622882e+1, -63664.54, -572687.2, 136.32423, 0.00013621144, 0.00003089738, -63664.504, -63664.504, 0.0, 2.500474, 2.4987886 
1.8128438e+2, 3.872761e+1, -63697.063, -572719.75, 117.452545, 0.00010944282, -0.00005473568, -63697.035, -63697.035, 0.0, 2.500474, 2.4987886 
1.8128438e+2, 4.122648e+1, -22047.191, -486416.9, 84.55184, 0.00007247284, 0.00031332206, -22047.176, -22047.176, 0.0, 2.5004742, 2.4989367 
1.812844e+2, 4.372542e+1, -21120.621, -484502.6, 228.78613, 0.000042805248, 0.00012657096, -21120.508, -21120.508, 0.0, 2.5004742, 2.49894 
1.812844e+2, 4.622436e+1, -21129.504, -484525.16, 226.05899, 0.000023666738, -0.00006349469, -21129.393, -21129.393, 0.0, 2.5004742, 2.4989398 
1.812844e+2, 4.8723292e+1, -21141.086, -484549.03, 223.43146, 0.000014917633, -0.00025234936, -21140.979, -21140.979, 0.0, 2.5004742, 2.4989398 
1.812844e+2, 5.122231e+1, 20371.84, -398608.56, -192.16501, 0.00010404733, 0.00019456723, 20371.928, 20371.928, 0.0, 2.5004747, 2.499087 
1.812844e+2, 5.3721404e+1, 21573.629, -396154.28, 296.51364, 0.000096488206, 0.00010647595, 21573.84, 21573.84, 0.0, 2.5004747, 2.4990914 
1.812844e+2, 5.6220496e+1, 21582.701, -396170.7, 278.3988, 0.0001054878, 0.000016532496, 21582.887, 21582.887, 0.0, 2.5004747, 2.4990914 
1.812844e+2, 5.871959e+1, 21589.057, -396188.38, 260.5021, 0.00013198938, -0.00006901531, 21589.219, 21589.219, 0.0, 2.5004747, 2.4990911 
1.812844e+2, 6.1218756e+1, 62843.715, -310859.1, -534.12573, 0.00010075594, 0.00040484447, 62844.477, 62844.477, 0.0, 2.5004752, 2.4992375 
1.812844e+2, 6.3718e+1, 64310.68, -307828.44, 443.71902, 0.000039327362, 0.00019185376, 64311.207, 64311.207, 0.0, 2.5004752, 2.4992428 
1.812844e+2, 6.621723e+1, 64311.27, -307836.3, 439.11438, -0.000012821171, -0.000025009209, 64311.79, 64311.79, 0.0, 2.5004752, 2.4992425 
1.812844e+2, 6.871648e+1, 64309.44, -307845.3, 434.26126, -0.00005612728, -0.00023828764, 64309.95, 64309.95, 0.0, 2.5004752, 2.4992425 
1.812844e+2, 7.121579e+1, 105258.47, -223112.11, -1013.98846, -0.0000265872, 0.00028389625, 105261.59, 105261.59, 0.0, 2.5004756, 2.499388 
1.812844e+2, 7.3715186e+1, 106978.07, -219565.75, 529.1874, 0.000040409443, 0.00017557292, 106978.93, 106978.93, 0.0, 2.5004756, 2.499394 
1.812844e+2, 7.6214576e+1, 106985.56, -219567.92, 511.789, 0.000114987975, 0.000057846948, 106986.37, 106986.37, 0.0, 2.5004756, 2.499394 
1.8128441e+2, 7.871397e+1, 106990.266, -219571.44, 494.49176, 0.00019735607, -0.000060251765, 106991.016, 106991.016, 0.0, 2.5004756, 2.499394 
1.812844e+2, 8.121344e+1, 147770.13, -135162.48, -1473.372, 0.00005010113, 0.00034088563, 147777.8, 147777.8, 0.0, 2.500476, 2.4995387 
1.812844e+2, 8.3712983e+1, 149799.05, -131049.305, 586.97864, -0.000015373525, 0.00007519847, 149800.28, 149800.28, 0.0, 2.5004761, 2.4995458 
1.8128441e+2, 8.621252e+1, 149862.69, -131009.24, 564.3059, -0.00006679436, -0.00019699385, 149863.83, 149863.83, 0.0, 2.5004761, 2.4995458 
1.8128441e+2, 8.8712066e+1, 149922.31, -130971.11, 541.66626, -0.00010660421, -0.00046740263, 149923.36, 149923.36, 0.0, 2.5004764, 2.4995458 
1.812844e+2, 9.121168e+1, 190389.89, -47502.383, -1967.346, 0.00007236267, 0.00036041738, 190406.16, 190406.16, 0.0, 2.5004768, 2.4996889 
1.812844e+2, 9.371138e+1, 192718.5, -42695.973, 573.9276, 0.000052417483, 0.0001933544, 192719.9, 192719.9, 0.0, 2.5004768, 2.499697 
1.8128441e+2, 9.6211076e+1, 192725.8, -42690.125, 548.4901, 0.00005697051, -0.00000057039114, 192727.06, 192727.06, 0.0, 2.500477, 2.499697 
1.8128441e+2, 9.8710763e+1, 192724.56, -42688.38, 523.8837, 0.00009025538, -0.00020563533, 192725.72, 192725.72, 0.0, 2.5004768, 2.499697 
1.8378486e+2, 1.2491683e+0, -191650.7, -837549.94, 24.573776, 0.000009423447, -0.0000064321107, -191650.7, -191650.7, 0.0, 2.500473, 2.498335 
1.8378486e+2, 3.7475047e+0, -191618.77, -837809.1, -10.800284, 0.000009044116, -0.000019084668, -191618.77, -191618.77, 0.0, 2.5004733, 2.4983344 
1.8378486e+2, 6.245841e+0, -191420.31, -837719.1, -8.286829, 0.000012637551, -0.000031454336, -191420.31, -191420.31, 0.0, 2.5004737, 2.4983344 
1.8378486e+2, 8.744178e+0, -191223.92, -837630.06, -5.65488, 0.000020203746, -0.00004354125, -191223.92, -191223.92, 0.0, 2.500474, 2.4983344 
1.8378486e+2, 1.124259e+1, -148876.88, -749783.44, 234.70923, 0.00003716783, 0.00011419084, -148876.78, -148876.78, 0.0, 2.5004742, 2.4984848 
1.8378486e+2, 1.3741077e+1, -148738.08, -749252.94, 60.21159, 0.000031885473, 0.00003775468, -148738.08, -148738.08, 0.0, 2.500474, 2.498486 
1.8378486e+2, 1.6239566e+1, -148899.5, -749343.06, 42.15131, 0.000024730038, -0.000038892682, -148899.48, -148899.48, 0.0, 2.5004737, 2.4984858 
1.8378486e+2, 1.8738052e+1, -149062.63, -749434.06, 24.044594, 0.000015746078, -0.00011526782, -149062.63, -149062.63, 0.0, 2.5004733, 2.4984858 
1.8378486e+2, 2.1236616e+1, -107030.586, -662212.4, 241.09969, 0.000039867675, 0.00013313774, -107030.484, -107030.484, 0.0, 2.5004735, 2.4986355 
1.8378486e+2, 2.3735252e+1, -106418.09, -661097.4, 51.444286, 0.000030158952, 0.000025500038, -106418.086, -106418.086, 0.0, 2.5004737, 2.4986372 
1.8378486e+2, 2.623389e+1, -106332.125, -661072.1, 58.139893, 0.000024163806, -0.00008426255, -106332.125, -106332.125, 0.0, 2.5004737, 2.4986372 
1.8378486e+2, 2.873253e+1, -106248.19, -661047.9, 65.15312, 0.000022088463, -0.00019448744, -106248.18, -106248.18, 0.0, 2.500474, 2.4986372 
1.8378486e+2, 3.1231242e+1, -64369.957, -574207.9, 218.64063, 0.00012298198, 0.00012970007, -64369.863, -64369.863, 0.0, 2.5004742, 2.498786 
1.8378486e+2, 3.3730033e+1, -63667.37, -572719.06, 146.34538, 0.00007787989, 0.000052188698, -63667.33, -63667.33, 0.0, 2.5004742, 2.4987886 
1.8378486e+2, 3.622882e+1, -63698.367, -572749.75, 130.4268, 0.000037862534, -0.00002891349, -63698.332, -63698.332, 0.0, 2.500474, 2.4987886 
1.8378486e+2, 3.872761e+1, -63731.688, -572781.56, 114.720955, 0.000003846996, -0.00011062518, -63731.664, -63731.664, 0.0, 2.500474, 2.4987886 
1.8378487e+2, 4.122648e+1, -22046.566, -486376.25, 111.000626, 0.00003829363, 0.00027269838, -22046.541, -22046.541, 0.0, 2.5004742, 2.4989367 
1.8378487e+2, 4.372542e+1, -21144.137, -484512.63, 226.71367, 0.000041955085, 0.000108593995, -21144.027, -21144.027, 0.0, 2.5004742, 2.49894 
1.8378487e+2, 4.6224353e+1, -21151.355, -484532.5, 227.52774, 0.00004600004, -0.000059868136, -21151.242, -21151.242, 0.0, 2.5004742, 2.4989398 
1.8378487e+2, 4.8723292e+1, -21161.271, -484553.7, 228.44144, 0.000050807816, -0.00022812553, -21161.16, -21161.16, 0.0, 2.5004742, 2.4989398 
1.8378487e+2, 5.122231e+1, 20373.404, -398590.03, -156.55856, 0.00009678831, 0.0001938462, 20373.463, 20373.463, 0.0, 2.5004747, 2.499087 
1.8378487e+2, 5.3721404e+1, 21541.566, -396207.2, 302.80032, 0.000054887998, 0.000072489216, 21541.787, 21541.787, 0.0, 2.5004747, 2.4990911 
1.8378487e+2, 5.6220496e+1, 21552.645, -396220.75, 288.1469, 0.000020824142, -0.000051619725, 21552.842, 21552.842, 0.0, 2.5004747, 2.4990911 
1.8378487e+2, 5.871959e+1, 21561.006, -396235.6, 273.71164, -0.000004781614, -0.00017241486, 21561.184, 21561.184, 0.0, 2.5004747, 2.4990911 
1.8378487e+2, 6.121875e+1, 62857.13, -310830.9, -501.41876, -0.0000015154769, 0.00030079926, 62857.8, 62857.8, 0.0, 2.5004752, 2.4992375 
1.8378487e+2, 6.371799e+1, 64313.05, -307827.38, 446.16, -0.0000009065413, 0.00012034909, 64313.586, 64313.586, 0.0, 2.5004752, 2.4992428 
1.8378487e+2, 6.621723e+1, 64318.19, -307829.75, 444.66852, 0.0000019051786, -0.00006611391, 64318.723, 64318.723, 0.0, 2.5004752, 2.4992428 
1.8378487e+2, 6.871648e+1, 64320.91, -307833.3, 442.92853, 0.000006855599, -0.00025109312, 64321.438, 64321.438, 0.0, 2.5004752, 2.4992425 
1.8378487e+2, 7.121579e+1, 105249.945, -223183.7, -1000.3461, 0.0000762929, 0.00028972502, 105252.99, 105252.99, 0.0, 2.5004756, 2.4993877 
1.8378487e+2, 7.3715186e+1, 106996.98, -219582.69, 536.4998, 0.000084126536, 0.00016687684, 106997.86, 106997.86, 0.0, 2.5004756, 2.499394 
1.8378489e+2, 7.6214576e+1, 107006.46, -219582.5, 521.5965, 0.000092527946, 0.000033656706, 107007.29, 107007.29, 0.0, 2.5004756, 2.499394 
1.8378489e+2, 7.871397e+1, 107013.15, -219583.66, 506.79428, 0.00010234253, -0.000100685575, 107013.93, 107013.93, 0.0, 2.5004756, 2.499394 
1.8378487e+2, 8.121344e+1, 147752.92, -135322.44, -1468.9883, -0.00007990984, 0.0002745159, 147760.53, 147760.53, 0.0, 2.5004761, 2.4995384 
1.8378487e+2, 8.3712983e+1, 149859.89, -131048.19, 606.2756, -0.00008949745, 0.000028435543, 149861.2, 149861.2, 0.0, 2.5004761, 2.4995456 
1.8378489e+2, 8.621252e+1, 149925.38, -131004.4, 586.83746, -0.0000917656, -0.00022413065, 149926.61, 149926.61, 0.0, 2.5004764, 2.4995458 
1.8378489e+2, 8.8712066e+1, 149986.84, -130962.54, 567.4325, -0.000089541856, -0.00047529652, 149988.0, 149988.0, 0.0, 2.5004764, 2.4995458 
1.8378489e+2, 9.121168e+1, 190433.61, -47633.84, -1966.8796, 0.00032597364, 0.0004013659, 190449.86, 190449.86, 0.0, 2.500477, 2.4996884 
1.8378489e+2, 9.371138e+1, 192886.84, -42562.945, 585.25073, 0.00016491766, 0.00022409056, 192888.3, 192888.3, 0.0, 2.500477, 2.4996972 
1.8378489e+2, 9.6211076e+1, 192889.02, -42560.62, 566.30414, 0.000008265482, 0.000020941585, 192890.39, 192890.39, 0.0, 2.500477, 2.4996972 
1.8378489e+2, 9.8710763e+1, 192882.67, -42562.4, 548.18866, -0.00013544963, -0.00019157794, 192883.95, 192883.95, 0.0, 2.500477, 2.4996972 
1.8628532e+2, 1.24916814e+0, -191651.66, -837551.6, 70.379265, 0.00007989427, -0.000019166642, -191651.64, -191651.64, 0.0, 2.500473, 2.498335 
1.8628532e+2, 3.7475044e+0, -191622.28, -837815.5, 39.231083, 0.000018016102, -0.00005693533, -191622.28, -191622.28, 0.0, 2.5004733, 2.4983344 
1.8628532e+2, 6.245841e+0, -191424.97, -837727.25, 44.987534, -0.000049322756, -0.00009395055, -191424.97, -191424.97, 0.0, 2.5004737, 2.4983344 
1.8628532e+2, 8.7441766e+0, -191229.72, -837639.94, 50.862473, -0.0001221223, -0.00013021244, -191229.72, -191229.72, 0.0, 2.500474, 2.4983344 
1.8628532e+2, 1.124259e+1, -148911.95, -749860.8, 204.88704, -0.0001429763, 0.000045138142, -148911.89, -148911.89, 0.0, 2.5004742, 2.4984848 
1.8628532e+2, 1.3741077e+1, -148776.25, -749335.5, 15.125174, -0.00008838338, 0.000015620524, -148776.25, -148776.25, 0.0, 2.500474, 2.4984858 
1.8628532e+2, 1.6239566e+1, -148938.08, -749425.3, -0.08982153, -0.000042487798, -0.000013675498, -148938.08, -148938.08, 0.0, 2.5004737, 2.4984858 
1.8628532e+2, 1.8738052e+1, -149101.63, -749515.94, -15.35125, -0.000005317951, -0.000042249343, -149101.63, -149101.63, 0.0, 2.5004733, 2.4984858 
1.8628532e+2, 2.1236616e+1, -107010.24, -662161.56, 285.2951, 0.0000783382, 0.00018448681, -107010.09, -107010.09, 0.0, 2.5004735, 2.4986355 
1.8628532e+2, 2.3735252e+1, -106417.53, -661084.4, 72.97449, 0.000053667947, 0.000037272646, -106417.516, -106417.516, 0.0, 2.5004737, 2.4986372 
1.8628532e+2, 2.623389e+1, -106334.29, -661061.6, 82.81903, 0.000025055308, -0.000110415596, -106334.27, -106334.27, 0.0, 2.5004737, 2.4986372 
1.8628532e+2, 2.8732526e+1, -106253.07, -661039.8, 92.98119, -0.000007070858, -0.00025703834, -106253.055, -106253.055, 0.0, 2.500474, 2.4986372 
1.8628532e+2, 3.1231242e+1, -64387.97, -574242.3, 229.55946, 0.0000053772505, 0.00006239136, -64387.867, -64387.867, 0.0, 2.5004742, 2.498786 
1.8628532e+2, 3.373003e+1, -63701.277, -572784.25, 136.88437, -0.000031670337, -0.000014857994, -63701.24, -63701.24, 0.0, 2.5004742, 2.4987886 
1.8628532e+2, 3.622882e+1, -63733.066, -572814.2, 124.13164, -0.000071355535, -0.000095280906, -63733.04, -63733.04, 0.0, 2.500474, 2.4987886 
1.8628532e+2, 3.872761e+1, -63767.188, -572845.25, 111.59164, -0.000113314185, -0.00017581036, -63767.164, -63767.164, 0.0, 2.500474, 2.4987884 
1.8628535e+2, 4.1226473e+1, -22056.854, -486358.28, 131.2977, 0.000009600342, 0.00022918414, -22056.816, -22056.816, 0.0, 2.5004742, 2.4989367 
1.8628535e+2, 4.3725413e+1, -21168.457, -484524.34, 224.2404, 0.00004499702, 0.000084883664, -21168.35, -21168.35, 0.0, 2.5004742, 2.49894 
1.8628535e+2, 4.6224353e+1, -21174.01, -484541.53, 228.5957, 0.00007046827, -0.00006489074, -21173.896, -21173.896, 0.0, 2.5004742, 2.4989398 
1.8628535e+2, 4.8723292e+1, -21182.262, -484560.0, 233.05063, 0.000087075736, -0.00021546663, -21182.145, -21182.145, 0.0, 2.5004742, 2.4989398 
1.8628535e+2, 5.122231e+1, 20363.266, -398595.8, -116.44309, 0.000080783495, 0.0001902094, 20363.297, 20363.297, 0.0, 2.5004747, 2.499087 
1.8628535e+2, 5.3721404e+1, 21508.625, -396261.94, 308.63696, 0.0000024576407, 0.00003242523, 21508.852, 21508.852, 0.0, 2.5004747, 2.4990911 
1.8628535e+2, 5.6220496e+1, 21521.707, -396272.63, 297.445, -0.00007664699, -0.00012911978, 21521.92, 21521.92, 0.0, 2.5004747, 2.4990911 
1.8628535e+2, 5.871958e+1, 21532.074, -396284.63, 286.47116, -0.00015633741, -0.00028843284, 21532.271, 21532.271, 0.0, 2.5004747, 2.4990911 
1.8628535e+2, 6.121875e+1, 62851.816, -310841.63, -469.5163, -0.00010158633, 0.00019884796, 62852.406, 62852.406, 0.0, 2.5004752, 2.4992375 
1.8628535e+2, 6.371799e+1, 64314.32, -307828.56, 448.30057, -0.000042130807, 0.0000468684, 64314.86, 64314.86, 0.0, 2.5004752, 2.4992428 
1.8628535e+2, 6.621723e+1, 64324.008, -307825.5, 449.9222, 0.000012222213, -0.00011347506, 64324.55, 64324.55, 0.0, 2.5004752, 2.4992428 
1.8628536e+2, 6.871648e+1, 64331.277, -307823.63, 451.29535, 0.00006201021, -0.0002744354, 64331.824, 64331.824, 0.0, 2.5004752, 2.4992428 
1.8628535e+2, 7.121579e+1, 105226.39, -223286.55, -980.8219, 0.0001734149, 0.00029477978, 105229.32, 105229.32, 0.0, 2.5004756, 2.4993875 
1.8628536e+2, 7.3715186e+1, 107015.1, -219601.27, 543.37744, 0.00011975268, 0.00015463721, 107016.01, 107016.01, 0.0, 2.5004756, 2.499394 
1.8628536e+2, 7.6214576e+1, 107026.57, -219598.72, 530.9692, 0.00005960819, 0.000003000306, 107027.43, 107027.43, 0.0, 2.5004756, 2.499394 
1.8628536e+2, 7.8713965e+1, 107035.24, -219597.5, 518.662, -0.0000054995303, -0.00015050813, 107036.06, 107036.06, 0.0, 2.5004756, 2.499394 
1.8628535e+2, 8.121343e+1, 147719.02, -135517.05, -1453.9325, -0.00021460273, 0.00020748013, 147726.48, 147726.48, 0.0, 2.5004761, 2.499538 
1.8628536e+2, 8.3712983e+1, 149919.63, -131049.37, 625.08826, -0.00017049692, -0.000023265377, 149921.02, 149921.02, 0.0, 2.5004764, 2.4995456 
1.8628536e+2, 8.621252e+1, 149986.97, -131001.85, 608.8848, -0.00012594275, -0.00026063505, 149988.28, 149988.28, 0.0, 2.5004764, 2.4995456 
1.8628536e+2, 8.8712066e+1, 150050.28, -130956.27, 592.71454, -0.00008401579, -0.0004969876, 150051.53, 150051.53, 0.0, 2.5004766, 2.4995456 
1.8628536e+2, 9.121168e+1, 190450.61, -47820.79, -1950.9851, 0.0005600699, 0.00045463766, 190466.58, 190466.58, 0.0, 2.5004773, 2.4996881 
1.8628536e+2, 9.371138e+1, 193054.45, -42431.44, 596.30457, 0.00026034858, 0.0002631307, 193055.97, 193055.97, 0.0, 2.5004773, 2.4996972 
1.8628536e+2, 9.6211076e+1, 193051.52, -42432.637, 583.8489, -0.000054960045, 0.00004629826, 193052.97, 193052.97, 0.0, 2.5004773, 2.4996972 
1.8628536e+2, 9.8710763e+1, 193040.06, -42437.938, 572.2243, -0.0003731264, -0.00017813512, 193041.45, 193041.45, 0.0, 2.5004773, 2.4996972 
1.8878579e+2, 1.2491681e+0, -192492.4, -837959.06, 113.12764, 0.00015357886, -0.000032762946, -192492.38, -192492.38, 0.0, 2.5004716, 2.498335 
1.8878579e+2, 3.747504e+0, -192325.53, -838161.7, 80.306435, 0.000030132636, -0.00009737823, -192325.53, -192325.53, 0.0, 2.500472, 2.4983344 
1.8878579e+2, 6.24584e+0, -192074.42, -838048.6, 85.20152, -0.00010770709, -0.0001607787, -192074.4, -192074.4, 0.0, 2.5004725, 2.4983344 
1.8878579e+2, 8.744176e+0, -191911.48, -837978.06, 91.98035, -0.0002599403, -0.00022296446, -191911.47, -191911.47, 0.0, 2.5004728, 2.4983344 
1.8878579e+2, 1.1242589e+1, -149614.69, -750274.56, 160.92918, -0.00032406242, -0.000023358396, -149614.64, -149614.64, 0.0, 2.500473, 2.4984846 
1.8878579e+2, 1.3741076e+1, -149398.1, -749701.44, -48.19456, -0.00021014949, -0.000009059036, -149398.1, -149398.1, 0.0, 2.500473, 2.4984856 
1.8878579e+2, 1.6239566e+1, -149554.02, -749787.8, -61.289207, -0.00011125342, 0.000005826028, -149554.0, -149554.0, 0.0, 2.5004725, 2.4984856 
1.8878579e+2, 1.8738052e+1, -149781.42, -749908.56, -73.45467, -0.000027491002, 0.000021834467, -149781.42, -149781.42, 0.0, 2.5004723, 2.4984856 
1.8878579e+2, 2.1236616e+1, -107607.82, -662425.1, 308.8813, 0.00012318004, 0.00023296989, -107607.65, -107607.65, 0.0, 2.5004723, 2.4986355 
1.8878579e+2, 2.3735252e+1, -106897.23, -661305.0, 74.34458, 0.00008377968, 0.00004277255, -106897.22, -106897.22, 0.0, 2.5004728, 2.4986372 
1.8878579e+2, 2.623389e+1, -106762.05, -661258.3, 88.69316, 0.000033128075, -0.00014634668, -106762.03, -106762.03, 0.0, 2.500473, 2.4986372 
1.8878579e+2, 2.8732526e+1, -106702.85, -661248.25, 105.7994, -0.000028085316, -0.0003329311, -106702.83, -106702.83, 0.0, 2.5004733, 2.4986372 
1.8878579e+2, 3.1231242e+1, -64846.46, -574514.2, 226.1917, -0.00012006063, -0.0000051768484, -64846.36, -64846.36, 0.0, 2.5004735, 2.498786 
1.8878579e+2, 3.373003e+1, -64097.14, -573025.6, 86.095184, -0.0001499077, -0.000084560816, -64097.125, -64097.125, 0.0, 2.5004735, 2.4987884 
1.8878579e+2, 3.622882e+1, -64132.547, -573056.25, 54.989536, -0.00018963258, -0.00016683456, -64132.543, -64132.543, 0.0, 2.5004735, 2.4987884 
1.8878579e+2, 3.8727608e+1, -64236.86, -573120.06, 22.74812, -0.00023954737, -0.00024873563, -64236.86, -64236.86, 0.0, 2.5004733, 2.4987884 
1.887858e+2, 4.1226473e+1, -22483.902, -486559.1, 45.50707, -0.000011228243, 0.00018439622, -22483.896, -22483.896, 0.0, 2.5004735, 2.4989367 
1.887858e+2, 4.3725413e+1, -21489.578, -484681.06, 111.77613, 0.000053570922, 0.00005707728, -21489.553, -21489.553, 0.0, 2.5004737, 2.49894 
1.887858e+2, 4.6224353e+1, -21475.766, -484687.13, 105.7719, 0.000098582095, -0.00007682664, -21475.742, -21475.742, 0.0, 2.5004737, 2.4989398 
1.887858e+2, 4.8723292e+1, -21556.81, -484738.94, 95.62356, 0.0001257122, -0.00021246012, -21556.791, -21556.791, 0.0, 2.5004735, 2.4989398 
1.887858e+2, 5.1222306e+1, 19991.81, -398794.75, -230.39471, 0.000058115365, 0.00018571422, 19991.938, 19991.938, 0.0, 2.500474, 2.499087 
1.887858e+2, 5.3721404e+1, 21223.18, -396440.2, 140.36226, -0.00005926132, -0.000011617028, 21223.229, 21223.229, 0.0, 2.5004742, 2.4990911 
1.887858e+2, 5.622049e+1, 21259.969, -396437.63, 115.31124, -0.00018556693, -0.00021383862, 21260.0, 21260.0, 0.0, 2.5004742, 2.499091 
1.887858e+2, 5.871958e+1, 21217.748, -396473.13, 88.24435, -0.00032114386, -0.00041492144, 21217.768, 21217.768, 0.0, 2.5004742, 2.499091 
1.887858e+2, 6.121875e+1, 62540.29, -311029.53, -648.05206, -0.00019802994, 0.000101178775, 62541.41, 62541.41, 0.0, 2.5004747, 2.4992375 
1.887858e+2, 6.371799e+1, 64070.3, -307949.66, 257.383, -0.00008321309, -0.00002626194, 64070.477, 64070.477, 0.0, 2.5004747, 2.4992428 
1.8878582e+2, 6.621723e+1, 64037.97, -307963.78, 271.0028, 0.000019465166, -0.00016456078, 64038.164, 64038.164, 0.0, 2.5004747, 2.4992428 
1.8878582e+2, 6.871648e+1, 63913.332, -308022.38, 276.3851, 0.00011137208, -0.00030551007, 63913.54, 63913.54, 0.0, 2.5004745, 2.4992428 
1.8878582e+2, 7.121579e+1, 104732.12, -223638.94, -1118.65, 0.0002666767, 0.00030183117, 104735.93, 104735.93, 0.0, 2.500475, 2.4993873 
1.8878582e+2, 7.3715186e+1, 106656.87, -219801.31, 427.1844, 0.00014821504, 0.0001413212, 106657.43, 106657.43, 0.0, 2.5004752, 2.4993937 
1.8878582e+2, 7.6214576e+1, 106648.94, -219806.8, 452.41663, 0.000016778922, -0.00003183328, 106649.56, 106649.56, 0.0, 2.5004752, 2.4993937 
1.8878582e+2, 7.8713965e+1, 106536.695, -219862.53, 472.29865, -0.00012540237, -0.00020748352, 106537.38, 106537.38, 0.0, 2.500475, 2.4993937 
1.887858e+2, 8.121343e+1, 147073.52, -136030.88, -1443.8058, -0.00035320592, 0.00014199674, 147080.88, 147080.88, 0.0, 2.5004754, 2.4995375 
1.8878582e+2, 8.371298e+1, 149341.34, -131357.81, 680.27167, -0.00025787827, -0.000077803146, 149342.98, 149342.98, 0.0, 2.5004754, 2.4995456 
1.8878582e+2, 8.621252e+1, 149240.45, -131388.7, 711.9361, -0.00016854337, -0.000304576, 149242.25, 149242.25, 0.0, 2.5004752, 2.4995456 
1.8878582e+2, 8.8712066e+1, 149007.44, -131483.22, 735.81226, -0.00008838859, -0.00053076784, 149009.36, 149009.36, 0.0, 2.5004747, 2.4995456 
1.8878582e+2, 9.121168e+1, 189272.86, -48622.773, -1714.9323, 0.00077589747, 0.0005216861, 189285.22, 189285.22, 0.0, 2.5004756, 2.4996874 
1.8878582e+2, 9.371138e+1, 192084.13, -42846.074, 957.553, 0.00033910928, 0.0003116821, 192088.03, 192088.03, 0.0, 2.5004756, 2.4996974 
1.8878582e+2, 9.621107e+1, 191749.97, -43007.79, 1101.8024, -0.00013140783, 0.000076434095, 191755.14, 191755.14, 0.0, 2.5004752, 2.4996974 
1.8878582e+2, 9.8710763e+1, 191050.22, -43345.563, 1251.374, -0.0006188316, -0.00016467327, 191056.9, 191056.9, 0.0, 2.500474, 2.4996974 
1.9128627e+2, 1.2491681e+0, -191062.83, -837314.56, 137.8325, 0.00031764826, -0.000027698372, -191062.8, -191062.8, 0.0, 2.500474, 2.498335 
1.9128627e+2, 3.747504e+0, -191379.92, -837750.56, 84.290215, 0.00015835227, -0.00008280934, -191379.92, -191379.92, 0.0, 2.5004737, 2.4983342 
1.9128627e+2, 6.24584e+0, -191524.66, -837825.44, 66.787056, 0.00001412507, -0.00013753862, -191524.64, -191524.64, 0.0, 2.5004735, 2.4983342 
1.9128627e+2, 8.744176e+0, -191671.31, -837901.2, 49.15193, -0.0001150333, -0.00019188633, -191671.3, -191671.3, 0.0, 2.5004733, 2.4983342 
1.9128627e+2, 1.1242589e+1, -149402.08, -750189.25, 162.90196, -0.00019242325, 0.000011316308, -149402.03, -149402.03, 0.0, 2.5004735, 2.4984846 
1.9128627e+2, 1.3741076e+1, -148991.28, -749527.44, -51.69544, -0.00010119078, 0.000022644912, -148991.28, -148991.28, 0.0, 2.5004737, 2.4984856 
1.9128627e+2, 1.6239566e+1, -148879.03, -749482.5, -49.98566, 0.000006306004, 0.00003134461, -148879.03, -148879.03, 0.0, 2.5004737, 2.4984856 
1.9128627e+2, 1.8738052e+1, -148768.61, -749438.44, -48.311554, 0.00012991758, 0.000037953716, -148768.61, -148768.61, 0.0, 2.500474, 2.4984856 
1.9128627e+2, 2.1236616e+1, -106609.734, -661971.94, 390.89728, 0.0002893974, 0.00025195788, -106609.46, -106609.46, 0.0, 2.5004742, 2.4986355 
1.9128627e+2, 2.3735252e+1, -106211.02, -661017.56, 98.73364, 0.00020522386, 0.00009174574, -106211.01, -106211.01, 0.0, 2.500474, 2.4986372 
1.9128627e+2, 2.623389e+1, -106302.1, -661076.7, 71.29214, 0.0001324221, -0.00007179662, -106302.09, -106302.09, 0.0, 2.500474, 2.4986372 
1.9128627e+2, 2.8732526e+1, -106395.305, -661136.94, 43.758816, 0.000071721646, -0.00023724699, -106395.3, -106395.3, 0.0, 2.5004737, 2.4986372 
1.9128628e+2, 3.1231242e+1, -64550.652, -574391.2, 229.77162, -0.0000459478, 0.00010161024, -64550.547, -64550.547, 0.0, 2.500474, 2.4987857 
1.9128628e+2, 3.373003e+1, -63835.094, -572944.94, 78.17933, -0.000069369205, 0.00001584603, -63835.082, -63835.082, 0.0, 2.500474, 2.4987884 
1.9128628e+2, 3.622882e+1, -63823.676, -572956.3, 75.596, -0.0000813233, -0.000074806056, -63823.664, -63823.664, 0.0, 2.500474, 2.4987884 
1.9128628e+2, 3.8727608e+1, -63814.367, -572968.75, 72.99113, -0.00008233779, -0.00016704942, -63814.36, -63814.36, 0.0, 2.500474, 2.498788 
1.9128628e+2, 4.1226473e+1, -21994.76, -486348.25, 177.96985, 0.00015296853, 0.00026065554, -21994.693, -21994.693, 0.0, 2.5004745, 2.4989367 
1.9128628e+2, 4.3725413e+1, -21136.406, -484569.34, 205.54826, 0.00015653421, 0.00014618781, -21136.314, -21136.314, 0.0, 2.5004745, 2.4989398 
1.9128628e+2, 4.6224353e+1, -21150.908, -484596.2, 190.99825, 0.0001786782, 0.000029533912, -21150.83, -21150.83, 0.0, 2.5004745, 2.4989398 
1.9128628e+2, 4.8723292e+1, -21168.79, -484624.66, 176.51868, 0.00022148818, -0.000084473315, -21168.723, -21168.723, 0.0, 2.5004742, 2.4989398 
1.9128628e+2, 5.122231e+1, 20427.734, -398600.22, -50.309547, 0.00015006705, 0.00034116354, 20427.74, 20427.74, 0.0, 2.5004747, 2.499087 
1.9128628e+2, 5.3721404e+1, 21506.691, -396334.88, 292.0061, 0.00001850801, 0.00014075515, 21506.896, 21506.896, 0.0, 2.5004747, 2.499091 
1.9128628e+2, 5.622049e+1, 21475.2, -396367.78, 294.94794, -0.00010085213, -0.00006638895, 21475.406, 21475.406, 0.0, 2.5004747, 2.499091 
1.9128628e+2, 5.871958e+1, 21440.955, -396402.0, 297.66968, -0.00020849457, -0.00027405543, 21441.168, 21441.168, 0.0, 2.5004747, 2.499091 
1.9128628e+2, 6.121875e+1, 62784.156, -310937.28, -363.11502, -0.000079043995, 0.00024501345, 62784.508, 62784.508, 0.0, 2.5004752, 2.4992373 
1.912863e+2, 6.371799e+1, 64238.145, -307893.1, 453.73315, -0.000013813356, 0.000112244685, 64238.7, 64238.7, 0.0, 2.5004752, 2.4992425 
1.912863e+2, 6.621723e+1, 64209.777, -307917.28, 429.02988, 0.00006928254, -0.000027792054, 64210.273, 64210.273, 0.0, 2.5004752, 2.4992425 
1.912863e+2, 6.871648e+1, 64177.59, -307943.34, 404.29956, 0.00017187117, -0.00016673558, 64178.027, 64178.027, 0.0, 2.500475, 2.4992425 
1.912863e+2, 7.121579e+1, 105076.93, -223467.08, -926.9586, 0.00034905842, 0.00045214224, 105079.55, 105079.55, 0.0, 2.5004756, 2.4993873 
1.912863e+2, 7.3715186e+1, 107002.66, -219562.92, 554.0013, 0.00019441576, 0.0002786876, 107003.6, 107003.6, 0.0, 2.5004756, 2.499394 
1.912863e+2, 7.6214576e+1, 107049.72, -219547.92, 557.7711, 0.00006239972, 0.00009924401, 107050.67, 107050.67, 0.0, 2.5004756, 2.499394 
1.912863e+2, 7.8713965e+1, 107091.83, -219535.31, 561.238, -0.00004429551, -0.00007578718, 107092.8, 107092.8, 0.0, 2.500476, 2.499394 
1.912863e+2, 8.121343e+1, 147673.63, -135829.44, -1319.0908, -0.00027341154, 0.0002716949, 147679.75, 147679.75, 0.0, 2.5004764, 2.4995375 
1.912863e+2, 8.371298e+1, 149958.06, -131005.25, 690.7328, -0.0002368674, 0.00003361275, 149959.77, 149959.77, 0.0, 2.5004764, 2.4995456 
1.912863e+2, 8.621252e+1, 149900.9, -131027.336, 655.71155, -0.00017651022, -0.00021500565, 149902.44, 149902.44, 0.0, 2.5004764, 2.4995456 
1.9128631e+2, 8.8712066e+1, 149837.38, -131052.49, 621.08295, -0.00009541649, -0.0004665731, 149838.75, 149838.75, 0.0, 2.5004761, 2.4995458 
1.912863e+2, 9.121168e+1, 189875.44, -48431.055, -1810.2847, 0.00088583754, 0.00064109714, 189889.19, 189889.19, 0.0, 2.5004768, 2.4996872 
1.912863e+2, 9.371138e+1, 192876.05, -42277.758, 641.76404, 0.00039763213, 0.00039548185, 192877.8, 192877.8, 0.0, 2.5004768, 2.499698 
1.912863e+2, 9.6211076e+1, 192908.48, -42256.73, 583.27264, -0.000031228567, 0.00012117449, 192909.92, 192909.92, 0.0, 2.5004768, 2.499698 
1.9128631e+2, 9.871077e+1, 192924.67, -42243.516, 525.14374, -0.00038139487, -0.00016106546, 192925.84, 192925.84, 0.0, 2.5004768, 2.499698 
1.9378674e+2, 1.24916814e+0, -191094.4, -837380.5, 96.096146, 0.00012280901, -0.00001372103, -191094.39, -191094.39, 0.0, 2.500474, 2.4983346 
1.9378674e+2, 3.7475044e+0, -191411.97, -837818.1, 43.76372, 0.00006538262, -0.00004105965, -191411.97, -191411.97, 0.0, 2.5004737, 2.4983342 
1.9378674e+2, 6.245841e+0, -191555.86, -837891.9, 29.268291, 0.00001403436, -0.00006825972, -191555.86, -191555.86, 0.0, 2.5004735, 2.4983342 
1.9378674e+2, 8.7441766e+0, -191701.69, -837966.5, 14.640903, -0.00003123574, -0.00009532135, -191701.69, -191701.69, 0.0, 2.5004733, 2.4983342 
1.9378674e+2, 1.1242589e+1, -149384.52, -750154.2, 207.1069, -0.00008292647, 0.00007325675, -149384.45, -149384.45, 0.0, 2.5004735, 2.4984846 
1.9378674e+2, 1.3741076e+1, -148988.2, -749522.56, -24.372293, -0.000047437643, 0.000017464514, -148988.2, -148988.2, 0.0, 2.5004737, 2.4984856 
1.9378674e+2, 1.6239563e+1, -148876.39, -749478.7, -19.62996, -0.0000029666394, -0.00004048549, -148876.39, -148876.39, 0.0, 2.5004737, 2.4984856 
1.9378674e+2, 1.8738051e+1, -148766.4, -749435.7, -14.923301, 0.000050375176, -0.000100089375, -148766.4, -148766.4, 0.0, 2.500474, 2.4984856 
1.9378674e+2, 2.1236615e+1, -106635.305, -662037.06, 377.0051, 0.00015038655, 0.00011967853, -106635.05, -106635.05, 0.0, 2.5004742, 2.4986353 
1.9378676e+2, 2.3735252e+1, -106248.984, -661107.75, 70.50306, 0.00010433758, 0.00003314132, -106248.98, -106248.98, 0.0, 2.500474, 2.498637 
1.9378676e+2, 2.623389e+1, -106340.41, -661166.9, 46.200714, 0.000062462575, -0.000055942583, -106340.4, -106340.4, 0.0, 2.500474, 2.498637 
1.9378676e+2, 2.8732526e+1, -106433.945, -661227.0, 21.806559, 0.000025268337, -0.00014612987, -106433.94, -106433.94, 0.0, 2.5004737, 2.498637 
1.9378676e+2, 3.1231242e+1, -64513.016, -574321.7, 270.5902, -0.000023724158, 0.00018787084, -64512.87, -64512.87, 0.0, 2.500474, 2.498786 
1.9378676e+2, 3.373003e+1, -63826.6, -572935.9, 79.43496, -0.000029945608, 0.00005434531, -63826.59, -63826.59, 0.0, 2.500474, 2.4987884 
1.9378676e+2, 3.622882e+1, -63815.32, -572947.44, 79.81882, -0.00003248296, -0.00008323022, -63815.31, -63815.31, 0.0, 2.500474, 2.4987884 
1.9378676e+2, 3.8727608e+1, -63806.145, -572960.0, 80.18112, -0.000031512885, -0.00022168319, -63806.133, -63806.133, 0.0, 2.500474, 2.4987884 
1.9378676e+2, 4.1226473e+1, -21974.709, -486326.1, 208.60873, 0.000118281, 0.00016144673, -21974.615, -21974.615, 0.0, 2.5004745, 2.4989367 
1.9378676e+2, 4.3725413e+1, -21140.063, -484597.25, 201.61821, 0.0000873054, 0.00005309629, -21139.975, -21139.975, 0.0, 2.5004745, 2.4989398 
1.9378676e+2, 4.6224353e+1, -21153.404, -484622.38, 191.09933, 0.00006550526, -0.000056963097, -21153.324, -21153.324, 0.0, 2.5004745, 2.4989398 
1.9378676e+2, 4.8723292e+1, -21170.125, -484649.13, 180.65091, 0.00005435287, -0.00016409378, -21170.055, -21170.055, 0.0, 2.5004745, 2.4989395 
1.9378676e+2, 5.1222306e+1, 20461.646, -398559.0, 0.23265247, 0.000042545464, 0.00030830663, 20461.646, 20461.646, 0.0, 2.5004747, 2.499087 
1.9378676e+2, 5.3721404e+1, 21545.195, -396286.84, 283.36972, 0.000008346567, 0.0001321292, 21545.387, 21545.387, 0.0, 2.5004747, 2.4990911 
1.9378676e+2, 5.622049e+1, 21516.549, -396316.4, 290.01007, -0.000023035083, -0.000051441682, 21516.75, 21516.75, 0.0, 2.5004747, 2.499091 
1.9378677e+2, 5.871958e+1, 21485.152, -396347.34, 296.43036, -0.000051648556, -0.00023582045, 21485.361, 21485.361, 0.0, 2.5004747, 2.499091 
1.9378676e+2, 6.121875e+1, 62798.72, -310964.66, -316.30212, 0.000029368626, 0.00025690888, 62798.99, 62798.99, 0.0, 2.5004752, 2.4992373 
1.9378677e+2, 6.371799e+1, 64250.07, -307929.3, 449.91266, -0.0000068794807, 0.00007900143, 64250.613, 64250.613, 0.0, 2.5004752, 2.4992425 
1.9378677e+2, 6.621723e+1, 64224.03, -307951.78, 429.4141, -0.000035617893, -0.0001063653, 64224.527, 64224.527, 0.0, 2.5004752, 2.4992425 
1.9378677e+2, 6.8716466e+1, 64194.17, -307976.1, 408.88855, -0.000055638706, -0.00029099532, 64194.62, 64194.62, 0.0, 2.5004752, 2.4992425 
1.9378677e+2, 7.121579e+1, 105136.336, -223447.9, -863.67084, 0.00014657227, 0.00032501563, 105138.61, 105138.61, 0.0, 2.5004756, 2.4993873 
1.9378677e+2, 7.3715186e+1, 107102.84, -219462.98, 567.4385, 0.00012502549, 0.00019139815, 107103.83, 107103.83, 0.0, 2.5004756, 2.4993942 
1.9378677e+2, 7.6214576e+1, 107154.28, -219442.34, 576.16455, 0.000112560716, 0.000050744555, 107155.3, 107155.3, 0.0, 2.500476, 2.4993942 
1.9378679e+2, 7.8713965e+1, 107200.766, -219424.08, 584.5876, 0.000112153015, -0.00008651699, 107201.81, 107201.81, 0.0, 2.500476, 2.4993942 
1.9378677e+2, 8.121343e+1, 147659.28, -136014.89, -1272.1008, -0.000096313546, 0.0002778157, 147664.98, 147664.98, 0.0, 2.5004766, 2.499537 
1.9378677e+2, 8.371298e+1, 150029.44, -131011.57, 678.8526, -0.00017761388, 0.000021483316, 150031.08, 150031.08, 0.0, 2.5004766, 2.4995456 
1.9378677e+2, 8.621252e+1, 149970.7, -131035.28, 648.82495, -0.00025111483, -0.00024456918, 149972.19, 149972.19, 0.0, 2.5004764, 2.4995456 
1.9378679e+2, 8.8712066e+1, 149905.58, -131062.07, 619.19, -0.00031947074, -0.00051261176, 149906.94, 149906.94, 0.0, 2.5004764, 2.4995456 
1.9378679e+2, 9.121168e+1, 189896.36, -48657.902, -1773.5187, 0.0007066464, 0.000643231, 189909.55, 189909.55, 0.0, 2.500477, 2.4996867 
1.9378679e+2, 9.371138e+1, 193058.13, -42168.605, 662.1432, 0.00036318944, 0.00038966167, 193059.98, 193059.98, 0.0, 2.500477, 2.499698 
1.9378679e+2, 9.6211076e+1, 193088.58, -42148.61, 616.8551, 0.00004397102, 0.000106699845, 193090.2, 193090.2, 0.0, 2.500477, 2.499698 
1.9378679e+2, 9.871077e+1, 193102.81, -42136.434, 571.92957, -0.00023102883, -0.00018391541, 193104.2, 193104.2, 0.0, 2.5004773, 2.499698 
1.9628721e+2, 1.24916814e+0, -191126.22, -837446.9, 54.89414, -0.000072346425, -0.00000038235626, -191126.22, -191126.22, 0.0, 2.500474, 2.4983346 
1.9628721e+2, 3.7475044e+0, -191444.95, -837887.56, 3.239975, -0.00002853556, -0.0000012259685, -191444.95, -191444.95, 0.0, 2.5004737, 2.498334 
1.9628721e+2, 6.245841e+0, -191588.02, -837960.2, -8.247722, 0.00001236276, -0.0000021741564, -191588.02, -191588.02, 0.0, 2.5004735, 2.498334 
1.9628721e+2, 8.744178e+0, -191733.0, -838033.8, -19.867376, 0.00005034856, -0.0000032270493, -191733.0, -191733.0, 0.0, 2.5004733, 2.498334 
1.9628721e+2, 1.124259e+1, -149374.3, -750134.4, 250.65735, 0.000028291352, 0.00013635882, -149374.19, -149374.19, 0.0, 2.5004735, 2.4984846 
1.9628721e+2, 1.3741076e+1, -148986.08, -749519.7, 2.9951181, 0.000008095463, 0.000010410846, -148986.08, -148986.08, 0.0, 2.5004737, 2.4984856 
1.9628721e+2, 1.6239563e+1, -148874.7, -749476.9, 10.770008, -0.0000104106175, -0.00011724164, -148874.7, -148874.7, 0.0, 2.5004737, 2.4984856 
1.9628721e+2, 1.873805e+1, -148765.16, -749434.9, 18.509222, -0.000027289863, -0.00024611127, -148765.16, -148765.16, 0.0, 2.500474, 2.4984856 
1.9628723e+2, 2.1236612e+1, -106673.76, -662129.0, 366.3843, 0.0000074509685, -0.000012352951, -106673.516, -106673.516, 0.0, 2.5004742, 2.4986353 
1.9628723e+2, 2.373525e+1, -106287.79, -661199.7, 42.20859, -0.00000119588, -0.000028478597, -106287.79, -106287.79, 0.0, 2.500474, 2.498637 
1.9628723e+2, 2.6233888e+1, -106379.55, -661258.75, 21.045412, -0.000012835822, -0.000046416233, -106379.55, -106379.55, 0.0, 2.500474, 2.498637 
1.9628723e+2, 2.873253e+1, -106473.42, -661318.9, -0.20957932, -0.000027215556, -0.000064652624, -106473.42, -106473.42, 0.0, 2.5004737, 2.4986367 
1.9628723e+2, 3.1231242e+1, -64487.145, -574276.56, 311.17978, 0.00000094655763, 0.00027525364, -64486.957, -64486.957, 0.0, 2.500474, 2.498786 
1.9628723e+2, 3.373003e+1, -63818.848, -572928.3, 80.56852, 0.000011030005, 0.00009075429, -63818.836, -63818.836, 0.0, 2.500474, 2.4987884 
1.9628723e+2, 3.622882e+1, -63807.7, -572940.06, 83.91957, 0.000016953662, -0.00009704868, -63807.684, -63807.684, 0.0, 2.500474, 2.4987884 
1.9628723e+2, 3.8727608e+1, -63798.656, -572952.8, 87.249054, 0.000018952582, -0.00028501527, -63798.64, -63798.64, 0.0, 2.500474, 2.4987884 
1.9628723e+2, 4.122647e+1, -21967.791, -486331.22, 242.50056, 0.00007758399, 0.00006238685, -21967.664, -21967.664, 0.0, 2.5004745, 2.4989367 
1.9628723e+2, 4.3725413e+1, -21144.438, -484626.66, 197.38937, 0.000009883889, -0.00004337408, -21144.354, -21144.354, 0.0, 2.5004745, 2.4989398 
1.9628723e+2, 4.6224353e+1, -21156.62, -484650.06, 190.90164, -0.00005798954, -0.00015046637, -21156.541, -21156.541, 0.0, 2.5004745, 2.4989395 
1.9628723e+2, 4.8723292e+1, -21172.182, -484675.1, 184.48436, -0.00012523345, -0.00025434792, -21172.107, -21172.107, 0.0, 2.5004745, 2.4989395 
1.9628723e+2, 5.1222306e+1, 20478.18, -398553.84, 50.41788, -0.00006153644, 0.000277976, 20478.186, 20478.186, 0.0, 2.500475, 2.499087 
1.9628724e+2, 5.3721404e+1, 21582.912, -396240.4, 274.6155, -0.0000012683338, 0.00012190051, 21583.092, 21583.092, 0.0, 2.5004747, 2.4990911 
1.9628724e+2, 5.622049e+1, 21557.113, -396266.7, 284.9544, 0.000052256513, -0.00004239279, 21557.307, 21557.307, 0.0, 2.5004747, 2.4990911 
1.9628724e+2, 5.871958e+1, 21528.563, -396294.3, 295.0732, 0.000099600016, -0.0002077795, 21528.771, 21528.771, 0.0, 2.5004747, 2.4990911 
1.9628724e+2, 6.121875e+1, 62798.516, -311022.72, -266.7735, 0.00013469577, 0.00026946628, 62798.707, 62798.707, 0.0, 2.5004752, 2.499237 
1.9628724e+2, 6.371799e+1, 64261.3, -307967.0, 445.90424, -0.000005576152, 0.000042988027, 64261.832, 64261.832, 0.0, 2.5004752, 2.4992423 
1.9628724e+2, 6.621723e+1, 64237.59, -307987.72, 429.61044, -0.00014873181, -0.00019129676, 64238.086, 64238.086, 0.0, 2.5004752, 2.4992423 
1.9628724e+2, 6.8716466e+1, 64210.06, -308010.28, 413.28967, -0.000293945, -0.00042520135, 64210.516, 64210.516, 0.0, 2.5004752, 2.4992423 
1.9628724e+2, 7.121579e+1, 105181.13, -223459.1, -795.7346, -0.000058319067, 0.00020011012, 105183.055, 105183.055, 0.0, 2.500476, 2.4993873 
1.9628724e+2, 7.371518e+1, 107202.27, -219364.61, 580.54785, 0.000049406706, 0.00010311262, 107203.305, 107203.305, 0.0, 2.500476, 2.4993942 
1.9628726e+2, 7.6214576e+1, 107258.086, -219338.33, 594.2301, 0.00015253248, -0.0000021617639, 107259.164, 107259.164, 0.0, 2.500476, 2.4993942 
1.9628726e+2, 7.8713965e+1, 107308.945, -219314.4, 607.6094, 0.00025445156, -0.000105064464, 107310.08, 107310.08, 0.0, 2.5004761, 2.4993942 
1.9628724e+2, 8.121343e+1, 147630.39, -136230.56, -1220.3911, 0.00008433161, 0.00028437786, 147635.64, 147635.64, 0.0, 2.5004768, 2.4995365 
1.9628724e+2, 8.371298e+1, 150100.27, -131019.0, 666.66473, -0.00011466839, 0.0000074866825, 150101.84, 150101.84, 0.0, 2.5004766, 2.4995456 
1.9628726e+2, 8.6212516e+1, 150039.94, -131044.35, 641.6307, -0.00032216287, -0.00027845355, 150041.4, 150041.4, 0.0, 2.5004766, 2.4995456 
1.9628726e+2, 8.8712066e+1, 149973.25, -131072.78, 616.9893, -0.00054010376, -0.0005654249, 149974.61, 149974.61, 0.0, 2.5004766, 2.4995456 
1.9628726e+2, 9.121168e+1, 189899.73, -48921.18, -1711.765, 0.00049262604, 0.0006527903, 189912.0, 189912.0, 0.0, 2.5004773, 2.4996862 
1.9628726e+2, 9.371138e+1, 193239.39, -42061.137, 682.28815, 0.00029442794, 0.00038644695, 193241.36, 193241.36, 0.0, 2.5004773, 2.499698 
1.9628726e+2, 9.6211076e+1, 193267.88, -42042.18, 650.2034, 0.00008594486, 0.000089768786, 193269.67, 193269.67, 0.0, 2.5004776, 2.499698 
1.9628726e+2, 9.8710763e+1, 193280.14, -42031.043, 618.48126, -0.000112795446, -0.0002142837, 193281.77, 193281.77, 0.0, 2.5004776, 2.499698 
1.9878769e+2, 1.2491683e+0, -192048.78, -837943.25, 12.894418, -0.0002662089, 0.0000123296495, -192048.78, -192048.78, 0.0, 2.5004725, 2.4983344 
1.9878769e+2, 3.747505e+0, -192309.03, -838359.44, -41.952465, -0.00012220857, 0.000036730566, -192309.03, -192309.03, 0.0, 2.5004723, 2.498334 
1.9878769e+2, 6.2458414e+0, -192438.86, -838425.0, -54.68659, 0.000010245534, 0.000060787595, -192438.86, -192438.86, 0.0, 2.500472, 2.498334 
1.9878769e+2, 8.744178e+0, -192618.56, -838514.6, -68.3415, 0.00013115347, 0.000084500614, -192618.55, -192618.55, 0.0, 2.5004718, 2.498334 
1.9878769e+2, 1.124259e+1, -150206.11, -750532.25, 278.44925, 0.00014270662, 0.00020070288, -150205.98, -150205.98, 0.0, 2.500472, 2.4984846 
1.9878769e+2, 1.3741076e+1, -149741.7, -749883.7, 18.672018, 0.00006656511, 0.000001498632, -149741.7, -149741.7, 0.0, 2.5004723, 2.4984856 
1.9878769e+2, 1.6239561e+1, -149596.23, -749825.25, 34.405937, -0.000014970047, -0.00019895424, -149596.23, -149596.23, 0.0, 2.5004725, 2.4984856 
1.9878769e+2, 1.8738046e+1, -149496.02, -749788.56, 51.662857, -0.000101903155, -0.00040016705, -149496.0, -149496.0, 0.0, 2.5004728, 2.4984856 
1.987877e+2, 2.123661e+1, -107423.195, -662584.25, 360.1027, -0.00013824925, -0.00014415628, -107422.96, -107422.96, 0.0, 2.500473, 2.498635 
1.987877e+2, 2.373525e+1, -106946.75, -661592.0, 7.1222963, -0.00011033871, -0.00009306381, -106946.75, -106946.75, 0.0, 2.500473, 2.4986367 
1.987877e+2, 2.6233888e+1, -106997.05, -661630.94, -20.416903, -0.000092289796, -0.000043130007, -106997.05, -106997.05, 0.0, 2.500473, 2.4986367 
1.987877e+2, 2.873253e+1, -107086.44, -661688.7, -49.766224, -0.000084133506, 0.000007277079, -107086.44, -107086.44, 0.0, 2.5004728, 2.4986367 
1.987877e+2, 3.1231242e+1, -65001.414, -574511.1, 311.59595, 0.000029659997, 0.00036389483, -65001.223, -65001.223, 0.0, 2.500473, 2.498786 
1.987877e+2, 3.373003e+1, -64259.56, -573138.75, 26.742647, 0.000054753105, 0.0001253072, -64259.555, -64259.555, 0.0, 2.5004733, 2.4987884 
1.987877e+2, 3.6228818e+1, -64212.953, -573133.6, 15.908624, 0.00006807808, -0.00011595528, -64212.953, -64212.953, 0.0, 2.5004733, 2.4987884 
1.987877e+2, 3.8727605e+1, -64213.508, -573151.25, 2.7968013, 0.00007034254, -0.0003566936, -64213.508, -64213.508, 0.0, 2.5004733, 2.4987884 
1.987877e+2, 4.122647e+1, -22355.744, -486548.66, 154.46953, 0.000032185093, -0.000035944075, -22355.693, -22355.693, 0.0, 2.5004737, 2.4989367 
1.987877e+2, 4.372541e+1, -21449.973, -484803.5, 19.011705, -0.000074610216, -0.00014228674, -21449.973, -21449.973, 0.0, 2.500474, 2.4989395 
1.987877e+2, 4.622435e+1, -21436.1, -484813.28, -33.182114, -0.00019058987, -0.00024979396, -21436.098, -21436.098, 0.0, 2.500474, 2.4989395 
1.987877e+2, 4.872329e+1, -21482.006, -484851.84, -86.36646, -0.00031567478, -0.0003539195, -21481.99, -21481.99, 0.0, 2.500474, 2.4989395 
1.987877e+2, 5.1222306e+1, 20185.697, -398726.22, -210.38016, -0.0001606284, 0.0002516033, 20185.803, 20185.803, 0.0, 2.5004745, 2.499087 
1.9878772e+2, 5.3721404e+1, 21395.531, -396304.66, -68.98575, -0.000009188446, 0.000111736714, 21395.543, 21395.543, 0.0, 2.5004745, 2.4990911 
1.9878772e+2, 5.622049e+1, 21382.45, -396322.97, -82.36656, 0.00012615648, -0.00003730978, 21382.465, 21382.465, 0.0, 2.5004745, 2.4990911 
1.9878772e+2, 5.871958e+1, 21309.135, -396370.3, -99.2762, 0.00024675834, -0.00018770665, 21309.158, 21309.158, 0.0, 2.5004742, 2.4990911 
1.9878772e+2, 6.121875e+1, 62516.633, -311240.22, -631.5927, 0.00023843275, 0.00028507618, 62517.7, 62517.7, 0.0, 2.500475, 2.499237 
1.9878772e+2, 6.3717985e+1, 64040.754, -308117.63, 8.8992605, -0.000008862023, 0.0000066023285, 64040.754, 64040.754, 0.0, 2.500475, 2.4992423 
1.9878772e+2, 6.621723e+1, 63990.035, -308150.75, -19.323359, -0.00026910173, -0.0002801842, 63990.04, 63990.04, 0.0, 2.500475, 2.4992423 
1.9878772e+2, 6.8716466e+1, 63870.324, -308217.13, -47.96107, -0.00054180424, -0.0005669502, 63870.33, 63870.33, 0.0, 2.5004747, 2.4992423 
1.9878772e+2, 7.121579e+1, 104833.49, -223681.56, -1183.9243, -0.00026448513, 0.000079907295, 104837.766, 104837.766, 0.0, 2.5004752, 2.499387 
1.9878772e+2, 7.371518e+1, 106957.75, -219432.23, 153.63463, -0.0000317571, 0.000016465905, 106957.83, 106957.83, 0.0, 2.5004754, 2.4993944 
1.9878773e+2, 7.6214576e+1, 106960.2, -219428.3, 186.9091, 0.00018304553, -0.00005671077, 106960.31, 106960.31, 0.0, 2.5004754, 2.4993944 
1.9878773e+2, 7.8713965e+1, 106865.336, -219471.23, 213.4431, 0.0003838719, -0.00012856029, 106865.48, 106865.48, 0.0, 2.5004752, 2.4993944 
1.9878773e+2, 8.121343e+1, 146964.64, -136774.38, -1560.861, 0.00026966716, 0.00029425113, 146973.23, 146973.23, 0.0, 2.500476, 2.499536 
1.9878773e+2, 8.371298e+1, 149555.14, -131322.14, 294.24203, -0.000047514197, -0.0000055803907, 149555.44, 149555.44, 0.0, 2.500476, 2.4995453 
1.9878773e+2, 8.6212516e+1, 149392.58, -131397.61, 312.45053, -0.00038896245, -0.0003139269, 149392.92, 149392.92, 0.0, 2.5004756, 2.4995453 
1.9878773e+2, 8.871206e+1, 149116.05, -131527.97, 332.33685, -0.0007556468, -0.0006223375, 149116.44, 149116.44, 0.0, 2.5004752, 2.4995453 
1.9878773e+2, 9.121168e+1, 188848.77, -49716.145, -1828.315, 0.00024539544, 0.0006723404, 188862.78, 188862.78, 0.0, 2.500476, 2.4996855 
1.9878773e+2, 9.371138e+1, 192321.97, -42480.1, 614.32684, 0.00019194544, 0.0003883021, 192323.58, 192323.58, 0.0, 2.500476, 2.499698 
1.9878773e+2, 9.6211076e+1, 192102.53, -42580.73, 708.57135, 0.00009533776, 0.00007280836, 192104.67, 192104.67, 0.0, 2.5004754, 2.499698 
1.9878775e+2, 9.8710763e+1, 191681.89, -42778.254, 800.8964, -0.000024933373, -0.0002497172, 191684.63, 191684.63, 0.0, 2.5004747, 2.499698 
2.0128816e+2, 1.2491683e+0, -191366.75, -837655.94, 18.367535, -0.00019480694, 0.000013752058, -191366.75, -191366.75, 0.0, 2.5004737, 2.4983344 
2.0128816e+2, 3.7475047e+0, -191478.28, -838005.5, -37.242317, -0.00006400573, 0.000041126255, -191478.28, -191478.28, 0.0, 2.5004737, 2.4983337 
2.0128816e+2, 6.2458414e+0, -191408.17, -837976.0, -46.900845, 0.00007590827, 0.00006832785, -191408.17, -191408.17, 0.0, 2.500474, 2.4983337 
2.0128816e+2, 8.744178e+0, -191339.17, -837947.0, -56.65191, 0.0002249351, 0.00009535671, -191339.17, -191339.17, 0.0, 2.5004742, 2.4983337 
2.0128818e+2, 1.124259e+1, -148947.23, -749954.25, 336.69437, 0.00025430106, 0.00021214223, -148947.05, -148947.05, 0.0, 2.5004742, 2.4984846 
2.0128818e+2, 1.3741076e+1, -148749.8, -749442.5, 20.59602, 0.00015347758, 0.000020884576, -148749.8, -148749.8, 0.0, 2.500474, 2.4984856 
2.0128818e+2, 1.6239561e+1, -148820.33, -749485.75, -5.8128843, 0.000058954956, -0.00017105082, -148820.33, -148820.33, 0.0, 2.500474, 2.4984856 
2.0128816e+2, 1.8738046e+1, -148891.83, -749529.4, -32.54086, -0.000029236733, -0.00036318676, -148891.83, -148891.83, 0.0, 2.5004737, 2.4984856 
2.0128818e+2, 2.123661e+1, -106810.805, -662310.4, 319.97964, -0.00010865771, -0.00010027582, -106810.62, -106810.62, 0.0, 2.500474, 2.498635 
2.0128818e+2, 2.373525e+1, -106357.73, -661345.25, -45.270626, -0.000081839404, -0.0000586293, -106357.73, -106357.73, 0.0, 2.500474, 2.4986367 
2.0128818e+2, 2.6233888e+1, -106387.43, -661379.5, -47.933044, -0.00004909236, -0.000020438089, -106387.43, -106387.43, 0.0, 2.500474, 2.4986365 
2.0128818e+2, 2.8732526e+1, -106418.48, -661414.4, -50.906925, -0.000010656834, 0.000015959267, -106418.47, -106418.47, 0.0, 2.500474, 2.4986365 
2.0128818e+2, 3.1231242e+1, -64352.75, -574232.8, 395.9023, 0.000138853, 0.00037048745, -64352.44, -64352.44, 0.0, 2.5004742, 2.498786 
2.0128818e+2, 3.373003e+1, -63735.777, -572949.9, 62.192226, 0.0001403077, 0.00015714223, -63735.77, -63735.77, 0.0, 2.5004742, 2.498788 
2.0128818e+2, 3.6228818e+1, -63754.754, -572983.4, 44.49076, 0.00014667511, -0.00006162544, -63754.75, -63754.75, 0.0, 2.5004742, 2.498788 
2.0128818e+2, 3.8727605e+1, -63775.555, -573017.75, 26.48547, 0.00015889964, -0.00028266056, -63775.555, -63775.555, 0.0, 2.5004742, 2.498788 
2.0128818e+2, 4.122647e+1, -21912.287, -486411.22, 270.87094, 0.00007604453, 0.00006108199, -21912.129, -21912.129, 0.0, 2.5004747, 2.4989364 
2.0128818e+2, 4.372541e+1, -21200.625, -484767.25, 130.28864, -0.00004167097, -0.000042509684, -21200.588, -21200.588, 0.0, 2.5004745, 2.4989393 
2.0128818e+2, 4.622435e+1, -21322.86, -484848.0, 131.83101, -0.00015259348, -0.0001556562, -21322.822, -21322.822, 0.0, 2.5004742, 2.4989393 
2.0128818e+2, 4.872329e+1, -21447.217, -484929.78, 133.03954, -0.0002570519, -0.00027371175, -21447.178, -21447.178, 0.0, 2.500474, 2.4989393 
2.012882e+2, 5.1222306e+1, 20150.121, -398811.38, 154.27344, -0.000072257506, 0.0003348548, 20150.18, 20150.18, 0.0, 2.5004745, 2.4990869 
2.012882e+2, 5.37214e+1, 21365.754, -396380.28, 237.74838, 0.000057128113, 0.00020660521, 21365.889, 21365.889, 0.0, 2.5004745, 2.4990911 
2.012882e+2, 5.622049e+1, 21408.68, -396377.5, 226.41425, 0.00019255142, 0.00007034393, 21408.803, 21408.803, 0.0, 2.5004745, 2.499091 
2.012882e+2, 5.871958e+1, 21448.887, -396376.03, 214.80072, 0.0003357184, -0.0000659947, 21448.998, 21448.998, 0.0, 2.5004747, 2.499091 
2.012882e+2, 6.1218745e+1, 62705.23, -311193.66, -215.26138, 0.00031376354, 0.00042885175, 62705.355, 62705.355, 0.0, 2.5004752, 2.4992368 
2.012882e+2, 6.3717985e+1, 64186.445, -308056.2, 399.10648, 0.00003257683, 0.00014947049, 64186.87, 64186.87, 0.0, 2.5004752, 2.4992423 
2.012882e+2, 6.6217226e+1, 64135.742, -308090.97, 414.3288, -0.00024057787, -0.00013949609, 64136.203, 64136.203, 0.0, 2.5004752, 2.4992423 
2.012882e+2, 6.8716466e+1, 64082.414, -308127.0, 429.154, -0.00050533947, -0.00042952102, 64082.91, 64082.91, 0.0, 2.500475, 2.4992423 
2.012882e+2, 7.1215785e+1, 105002.24, -223642.64, -592.3893, -0.00021290075, 0.0002325045, 105003.31, 105003.31, 0.0, 2.5004756, 2.499387 
2.0128821e+2, 7.371518e+1, 107054.016, -219359.8, 600.4639, 0.00000047549767, 0.00016308221, 107055.125, 107055.125, 0.0, 2.5004756, 2.4993944 
2.0128821e+2, 7.6214576e+1, 107026.36, -219383.63, 566.1579, 0.00022282629, 0.0000819438, 107027.34, 107027.34, 0.0, 2.5004754, 2.4993944 
2.0128821e+2, 7.8713965e+1, 106994.92, -219409.27, 531.55396, 0.0004583942, 0.00000042813392, 106995.79, 106995.79, 0.0, 2.5004754, 2.4993944 
2.0128821e+2, 8.121343e+1, 147102.48, -136772.11, -1147.0997, 0.00036923055, 0.00042709595, 147107.13, 147107.13, 0.0, 2.5004761, 2.4995358 
2.0128821e+2, 8.371298e+1, 149944.16, -131032.37, 629.1372, -0.000014062888, 0.00010789728, 149945.56, 149945.56, 0.0, 2.5004764, 2.4995456 
2.0128821e+2, 8.6212516e+1, 150037.31, -130983.93, 641.07806, -0.00037606969, -0.00022033537, 150038.78, 150038.78, 0.0, 2.5004766, 2.4995456 
2.0128821e+2, 8.871206e+1, 150124.1, -130938.555, 652.88934, -0.00071707735, -0.0005488609, 150125.61, 150125.61, 0.0, 2.5004766, 2.4995456 
2.0128821e+2, 9.121168e+1, 189779.44, -49333.79, -1434.4175, 0.00028843374, 0.00078292884, 189788.05, 189788.05, 0.0, 2.5004776, 2.4996853 
2.0128821e+2, 9.371138e+1, 193332.3, -41821.22, 752.36664, 0.0002071553, 0.00048152785, 193334.7, 193334.7, 0.0, 2.5004773, 2.4996984 
2.0128822e+2, 9.6211076e+1, 193233.19, -41866.77, 677.186, 0.00013391486, 0.00015410055, 193235.14, 193235.14, 0.0, 2.5004773, 2.4996984 
2.0128822e+2, 9.8710763e+1, 193122.92, -41917.7, 602.5416, 0.000088292516, -0.00017403347, 193124.47, 193124.47, 0.0, 2.500477, 2.4996984 
2.0378864e+2, 1.24916814e+0, -191384.8, -837693.56, 36.586224, -0.00011009675, -0.00000078042484, -191384.8, -191384.8, 0.0, 2.5004737, 2.4983344 
2.0378864e+2, 3.7475044e+0, -191498.38, -838047.8, -20.520563, -0.00003579663, -0.0000025311394, -191498.38, -191498.38, 0.0, 2.5004737, 2.4983337 
2.0378864e+2, 6.245841e+0, -191428.17, -838018.5, -28.379225, 0.000042377564, -0.000004534383, -191428.17, -191428.17, 0.0, 2.500474, 2.4983337 
2.0378864e+2, 8.7441766e+0, -191359.08, -837989.7, -36.33042, 0.00012442589, -0.0000067902856, -191359.06, -191359.06, 0.0, 2.5004742, 2.4983337 
2.0378865e+2, 1.1242589e+1, -148978.36, -750027.0, 328.76022, 0.00014607598, 0.0001285975, -148978.17, -148978.17, 0.0, 2.5004742, 2.4984844 
2.0378865e+2, 1.3741076e+1, -148790.72, -749537.0, -0.35873944, 0.00009655166, 0.000022922546, -148790.72, -148790.72, 0.0, 2.500474, 2.4984853 
2.0378865e+2, 1.6239561e+1, -148861.11, -749581.3, -24.75453, 0.000049799513, -0.00008330442, -148861.11, -148861.11, 0.0, 2.500474, 2.4984853 
2.0378865e+2, 1.873805e+1, -148932.47, -749626.1, -49.469387, 0.000005851523, -0.00018962732, -148932.47, -148932.47, 0.0, 2.500474, 2.4984853 
2.0378865e+2, 2.1236612e+1, -106775.45, -662258.0, 353.6728, -0.00008285132, 0.000057480083, -106775.23, -106775.23, 0.0, 2.500474, 2.498635 
2.0378865e+2, 2.373525e+1, -106344.23, -661339.2, -55.50521, -0.000068252426, -0.0000014330175, -106344.22, -106344.22, 0.0, 2.500474, 2.4986367 
2.0378865e+2, 2.6233888e+1, -106374.05, -661374.56, -56.172222, -0.000051321495, -0.00006309061, -106374.04, -106374.04, 0.0, 2.500474, 2.4986365 
2.0378865e+2, 2.8732526e+1, -106405.195, -661410.5, -57.150692, -0.000032423264, -0.00012586778, -106405.19, -106405.19, 0.0, 2.500474, 2.4986365 
2.0378865e+2, 3.1231242e+1, -64329.742, -574229.75, 426.7846, 0.00010057819, 0.00019807118, -64329.387, -64329.387, 0.0, 2.5004742, 2.498786 
2.0378865e+2, 3.373003e+1, -63731.12, -572986.06, 54.243893, 0.000097804106, 0.00007140336, -63731.113, -63731.113, 0.0, 2.5004742, 2.498788 
2.0378865e+2, 3.6228818e+1, -63750.16, -573020.7, 38.61601, 0.0000959188, -0.000059221846, -63750.156, -63750.156, 0.0, 2.5004742, 2.498788 
2.0378865e+2, 3.8727608e+1, -63771.023, -573056.1, 22.684296, 0.00009584629, -0.00019079026, -63771.023, -63771.023, 0.0, 2.5004742, 2.4987879 
2.0378865e+2, 4.122647e+1, -21854.457, -486354.16, 305.40146, 0.000022244853, 0.00019485582, -21854.258, -21854.258, 0.0, 2.5004747, 2.4989367 
2.0378865e+2, 4.372541e+1, -21145.62, -484716.25, 96.6084, -0.00004406553, 0.00004497962, -21145.598, -21145.598, 0.0, 2.5004745, 2.4989395 
2.0378867e+2, 4.622435e+1, -21268.69, -484798.8, 100.44232, -0.000108242384, -0.00011254195, -21268.668, -21268.668, 0.0, 2.5004742, 2.4989393 
2.0378867e+2, 4.872329e+1, -21393.88, -484882.38, 103.942406, -0.00017069285, -0.0002728645, -21393.857, -21393.857, 0.0, 2.5004742, 2.4989393 
2.0378867e+2, 5.1222306e+1, 20220.453, -398758.1, 217.49124, -0.000015155627, 0.00026145903, 20220.566, 20220.566, 0.0, 2.5004745, 2.4990869 
2.0378867e+2, 5.37214e+1, 21421.264, -396359.47, 247.6155, 0.000045609093, 0.000112122296, 21421.41, 21421.41, 0.0, 2.5004745, 2.499091 
2.0378867e+2, 5.622049e+1, 21464.752, -396356.88, 239.19354, 0.00010706204, -0.000043524476, 21464.889, 21464.889, 0.0, 2.5004747, 2.499091 
2.0378867e+2, 5.8719575e+1, 21505.521, -396355.6, 230.4922, 0.00017076673, -0.00019797732, 21505.648, 21505.648, 0.0, 2.5004747, 2.499091 
2.0378867e+2, 6.1218745e+1, 62805.87, -311105.53, -152.09802, 0.00016437472, 0.00032929212, 62805.934, 62805.934, 0.0, 2.5004754, 2.499237 
2.0378867e+2, 6.3717985e+1, 64312.06, -307918.03, 385.06293, -0.000012454279, 0.00009950268, 64312.457, 64312.457, 0.0, 2.5004752, 2.4992425 
2.0378867e+2, 6.6217226e+1, 64261.38, -307954.3, 402.6925, -0.00018632229, -0.00013908518, 64261.816, 64261.816, 0.0, 2.5004752, 2.4992425 
2.0378868e+2, 6.8716466e+1, 64208.08, -307991.84, 419.92496, -0.00035681485, -0.00037768602, 64208.55, 64208.55, 0.0, 2.5004752, 2.4992425 
2.0378867e+2, 7.121579e+1, 105031.555, -223744.45, -521.18585, -0.00006622061, 0.00029232787, 105032.38, 105032.38, 0.0, 2.5004756, 2.4993868 
2.0378868e+2, 7.371518e+1, 107122.234, -219382.27, 595.6385, 0.000054606, 0.00016791951, 107123.32, 107123.32, 0.0, 2.5004756, 2.4993942 
2.0378868e+2, 7.6214576e+1, 107094.81, -219406.6, 564.0047, 0.00017741577, 0.00003211774, 107095.79, 107095.79, 0.0, 2.5004756, 2.4993942 
2.0378868e+2, 7.8713965e+1, 107063.61, -219432.72, 532.07294, 0.0003064178, -0.00010358523, 107064.48, 107064.48, 0.0, 2.5004756, 2.4993942 
2.0378868e+2, 8.121343e+1, 147203.94, -136764.58, -1049.3462, 0.00021450278, 0.0003065775, 147207.81, 147207.81, 0.0, 2.5004764, 2.4995358 
2.0378868e+2, 8.371298e+1, 150137.77, -130835.23, 652.9439, -0.000092988994, -0.000008750528, 150139.28, 150139.28, 0.0, 2.5004766, 2.4995458 
2.0378868e+2, 8.6212516e+1, 150231.03, -130787.9, 668.5447, -0.00038870977, -0.0003335132, 150232.63, 150232.63, 0.0, 2.5004768, 2.4995458 
2.0378868e+2, 8.871206e+1, 150317.92, -130743.63, 684.0159, -0.00067278254, -0.0006588168, 150319.6, 150319.6, 0.0, 2.5004768, 2.4995458 
2.0378868e+2, 9.121168e+1, 189799.05, -49582.133, -1366.4541, 0.00039885496, 0.0007058615, 189806.86, 189806.86, 0.0, 2.5004778, 2.4996848 
2.037887e+2, 9.371137e+1, 193461.77, -41837.27, 743.14374, 0.00026630657, 0.00040967707, 193464.13, 193464.13, 0.0, 2.5004778, 2.4996982 
2.037887e+2, 9.621107e+1, 193360.8, -41881.395, 674.3987, 0.00012481568, 0.00008685504, 193362.73, 193362.73, 0.0, 2.5004776, 2.4996982 
2.037887e+2, 9.8710763e+1, 193248.66, -41930.9, 606.18994, -0.0000051113425, -0.00023683047, 193250.22, 193250.22, 0.0, 2.5004773, 2.4996982 
2.0628911e+2, 1.2491679e+0, -191402.92, -837731.44, 54.91532, -0.000025307274, -0.000015901338, -191402.92, -191402.92, 0.0, 2.5004737, 2.4983344 
2.0628913e+2, 3.7475038e+0, -191519.14, -838091.56, -3.7422295, -0.00000734968, -0.000047953825, -191519.14, -191519.14, 0.0, 2.5004737, 2.4983337 
2.0628913e+2, 6.2458396e+0, -191448.83, -838062.44, -9.801024, 0.000009243283, -0.00008033877, -191448.83, -191448.83, 0.0, 2.500474, 2.4983337 
2.0628913e+2, 8.744175e+0, -191379.64, -838033.8, -15.952355, 0.000024471683, -0.00011305628, -191379.64, -191379.64, 0.0, 2.5004742, 2.4983337 
2.0628913e+2, 1.1242588e+1, -149018.58, -750118.6, 322.03003, 0.000037311667, 0.00004724828, -149018.39, -149018.39, 0.0, 2.5004742, 2.4984844 
2.0628913e+2, 1.3741076e+1, -148832.5, -749633.3, -21.037712, 0.000039461058, 0.00002356165, -148832.48, -148832.48, 0.0, 2.500474, 2.498485 
2.0628913e+2, 1.6239563e+1, -148902.75, -749678.75, -43.420387, 0.000040856674, -0.0000005706909, -148902.75, -148902.75, 0.0, 2.500474, 2.498485 
2.0628913e+2, 1.873805e+1, -148973.98, -749724.7, -66.12213, 0.000041529667, -0.000024694375, -148973.97, -148973.97, 0.0, 2.500474, 2.498485 
2.0628913e+2, 2.1236612e+1, -106754.99, -662236.56, 389.33224, -0.0000582621, 0.00021814318, -106754.72, -106754.72, 0.0, 2.5004742, 2.498635 
2.0628913e+2, 2.373525e+1, -106331.445, -661334.6, -65.49495, -0.00005614929, 0.000055289776, -106331.44, -106331.44, 0.0, 2.500474, 2.4986367 
2.0628913e+2, 2.6233888e+1, -106361.375, -661371.06, -64.16655, -0.000055292512, -0.000109665685, -106361.37, -106361.37, 0.0, 2.500474, 2.4986365 
2.0628913e+2, 2.8732523e+1, -106392.63, -661408.1, -63.149616, -0.000056189605, -0.00027506644, -106392.625, -106392.625, 0.0, 2.500474, 2.4986365 
2.0628913e+2, 3.123124e+1, -64320.387, -574255.06, 461.35925, 0.0000629444, 0.000028127712, -64319.973, -64319.973, 0.0, 2.5004742, 2.498786 
2.0628913e+2, 3.3730027e+1, -63727.074, -573023.56, 46.515038, 0.000055096065, -0.000015032106, -63727.07, -63727.07, 0.0, 2.5004742, 2.498788 
2.0628913e+2, 3.6228818e+1, -63746.176, -573059.25, 32.960735, 0.00004409658, -0.000060770657, -63746.17, -63746.17, 0.0, 2.5004742, 2.4987879 
2.0628913e+2, 3.8727608e+1, -63767.1, -573095.9, 19.102604, 0.000030865565, -0.000106128195, -63767.1, -63767.1, 0.0, 2.5004742, 2.4987879 
2.0628914e+2, 4.122647e+1, -21809.043, -486322.9, 343.5136, -0.00003307021, 0.0003301648, -21808.79, -21808.79, 0.0, 2.5004747, 2.4989367 
2.0628914e+2, 4.372541e+1, -21091.229, -484666.53, 63.20571, -0.00004892815, 0.00013018998, -21091.22, -21091.22, 0.0, 2.5004745, 2.4989395 
2.0628914e+2, 4.622435e+1, -21215.135, -484750.88, 69.33119, -0.00006731095, -0.0000756204, -21215.125, -21215.125, 0.0, 2.5004745, 2.4989395 
2.0628914e+2, 4.872329e+1, -21341.162, -484836.25, 75.12283, -0.000088705034, -0.00028212374, -21341.15, -21341.15, 0.0, 2.5004742, 2.4989393 
2.0628914e+2, 5.1222306e+1, 20271.77, -398744.3, 285.81488, 0.0000438558, 0.00019339682, 20271.965, 20271.965, 0.0, 2.5004745, 2.4990869 
2.0628914e+2, 5.37214e+1, 21476.041, -396340.2, 257.5355, 0.000034506636, 0.00001845221, 21476.201, 21476.201, 0.0, 2.5004747, 2.499091 
2.0628914e+2, 5.6220484e+1, 21520.094, -396337.78, 252.02573, 0.000020428923, -0.00016129372, 21520.246, 21520.246, 0.0, 2.5004747, 2.499091 
2.0628914e+2, 5.8719575e+1, 21561.426, -396336.7, 246.23656, 0.0000031110526, -0.00033857443, 21561.572, 21561.572, 0.0, 2.500475, 2.499091 
2.0628914e+2, 6.1218745e+1, 62890.098, -311051.5, -84.21266, 0.000012154105, 0.00023302769, 62890.117, 62890.117, 0.0, 2.5004754, 2.499237 
2.0628916e+2, 6.3717985e+1, 64437.01, -307781.22, 371.30365, -0.000060903178, 0.00004913566, 64437.383, 64437.383, 0.0, 2.5004754, 2.4992425 
2.0628916e+2, 6.6217226e+1, 64386.355, -307819.0, 391.3405, -0.00013607288, -0.00014294383, 64386.77, 64386.77, 0.0, 2.5004754, 2.4992425 
2.0628916e+2, 6.8716466e+1, 64333.08, -307858.06, 410.98022, -0.00021288481, -0.0003339909, 64333.53, 64333.53, 0.0, 2.5004752, 2.4992425 
2.0628916e+2, 7.121579e+1, 105047.07, -223874.95, -443.5849, 0.00007839434, 0.00035561575, 105047.664, 105047.664, 0.0, 2.500476, 2.4993865 
2.0628916e+2, 7.371518e+1, 107189.93, -219405.83, 591.0078, 0.000106381856, 0.00017342552, 107191.0, 107191.0, 0.0, 2.500476, 2.4993942 
2.0628916e+2, 7.621457e+1, 107162.74, -219430.64, 562.04626, 0.00012932073, -0.000020021867, 107163.71, 107163.71, 0.0, 2.500476, 2.4993942 
2.0628917e+2, 7.8713965e+1, 107131.77, -219457.27, 532.7868, 0.00015142697, -0.00021289439, 107132.64, 107132.64, 0.0, 2.500476, 2.4993942 
2.0628916e+2, 8.121343e+1, 147292.3, -136784.27, -944.84424, 0.000055394266, 0.00018777816, 147295.44, 147295.44, 0.0, 2.5004766, 2.4995356 
2.0628916e+2, 8.371298e+1, 150330.67, -130639.54, 676.9409, -0.00017547954, -0.00012757017, 150332.31, 150332.31, 0.0, 2.5004768, 2.499546 
2.0628916e+2, 8.6212516e+1, 150424.05, -130593.31, 696.2017, -0.0004040854, -0.000452884, 150425.78, 150425.78, 0.0, 2.500477, 2.499546 
2.0628917e+2, 8.871206e+1, 150511.06, -130550.16, 715.33295, -0.0006303944, -0.0007789868, 150512.88, 150512.88, 0.0, 2.500477, 2.499546 
2.0628917e+2, 9.1211677e+1, 189796.6, -49876.33, -1283.9104, 0.0004985811, 0.00063851656, 189803.47, 189803.47, 0.0, 2.500478, 2.499684 
2.0628917e+2, 9.371137e+1, 193590.56, -41854.746, 733.4572, 0.00031428065, 0.00034278483, 193592.84, 193592.84, 0.0, 2.500478, 2.499698 
2.0628917e+2, 9.621107e+1, 193487.7, -41897.445, 671.14777, 0.00010419178, 0.000019457257, 193489.63, 193489.63, 0.0, 2.5004778, 2.499698 
2.0628917e+2, 9.8710763e+1, 193373.69, -41945.523, 609.3747, -0.00011038747, -0.00030489056, 193375.27, 193375.27, 0.0, 2.5004776, 2.499698 
2.087896e+2, 1.2491678e+0, -192714.81, -838393.4, 74.32374, 0.000061510815, -0.000031680527, -192714.8, -192714.8, 0.0, 2.5004716, 2.4983342 
2.087896e+2, 3.7475032e+0, -192743.58, -838716.9, 15.211138, 0.00002262356, -0.00009534029, -192743.58, -192743.58, 0.0, 2.5004718, 2.4983335 
2.087896e+2, 6.2458384e+0, -192636.84, -838670.44, 12.129049, -0.000022502441, -0.00015939768, -192636.84, -192636.84, 0.0, 2.500472, 2.4983335 
2.087896e+2, 8.744174e+0, -192585.56, -838650.6, 8.946281, -0.00007386708, -0.00022385281, -192585.56, -192585.56, 0.0, 2.500472, 2.4983335 
2.087896e+2, 1.1242587e+1, -150234.78, -750792.06, 320.5721, -0.00007088171, -0.000032412856, -150234.61, -150234.61, 0.0, 2.5004723, 2.4984841 
2.087896e+2, 1.3741075e+1, -149974.31, -750261.6, -39.049572, -0.000016765505, 0.000022163975, -149974.3, -149974.3, 0.0, 2.5004723, 2.498485 
2.087896e+2, 1.6239563e+1, -150013.05, -750293.0, -58.81936, 0.000033284712, 0.000076334225, -150013.05, -150013.05, 0.0, 2.500472, 2.498485 
2.087896e+2, 1.8738051e+1, -150089.13, -750342.4, -76.63002, 0.00007929643, 0.0001305699, -150089.11, -150089.11, 0.0, 2.500472, 2.4984848 
2.087896e+2, 2.1236615e+1, -107765.86, -662736.44, 428.2735, -0.000033400935, 0.0003805793, -107765.53, -107765.53, 0.0, 2.5004723, 2.498635 
2.087896e+2, 2.373525e+1, -107216.96, -661764.6, -89.49031, -0.000044400353, 0.0001104866, -107216.945, -107216.945, 0.0, 2.5004725, 2.4986367 
2.087896e+2, 2.6233888e+1, -107166.92, -661763.6, -102.152596, -0.000059971397, -0.0001611525, -107166.9, -107166.9, 0.0, 2.5004728, 2.4986365 
2.087896e+2, 2.873252e+1, -107157.0, -661782.0, -115.541534, -0.000080753445, -0.00043258103, -107156.98, -107156.98, 0.0, 2.5004728, 2.4986365 
2.087896e+2, 3.1231236e+1, -65025.965, -574647.5, 430.86087, 0.000027170054, -0.00014020596, -65025.6, -65025.6, 0.0, 2.5004733, 2.4987857 
2.087896e+2, 3.3730027e+1, -64313.844, -573347.6, -59.843254, 0.000013222235, -0.00010292962, -64313.836, -64313.836, 0.0, 2.5004733, 2.4987879 
2.087896e+2, 3.6228818e+1, -64257.18, -573348.0, -103.31796, -0.0000077409095, -0.00006699242, -64257.156, -64257.156, 0.0, 2.5004735, 2.4987879 
2.087896e+2, 3.8727608e+1, -64237.58, -573366.25, -149.00533, -0.000034788234, -0.000029402629, -64237.535, -64237.535, 0.0, 2.5004735, 2.4987879 
2.0878962e+2, 4.1226473e+1, -22175.244, -486510.9, 178.42802, -0.00008865884, 0.00046643784, -22175.176, -22175.176, 0.0, 2.5004742, 2.4989367 
2.0878962e+2, 4.372541e+1, -21332.518, -484761.44, -227.48514, -0.00005526271, 0.00021289533, -21332.406, -21332.406, 0.0, 2.5004742, 2.4989395 
2.0878962e+2, 4.622435e+1, -21399.654, -484819.88, -270.96402, -0.000028833827, -0.00004483365, -21399.496, -21399.496, 0.0, 2.500474, 2.4989395 
2.0878962e+2, 4.872329e+1, -21515.457, -484901.75, -315.87955, -0.000009938924, -0.00030120878, -21515.242, -21515.242, 0.0, 2.5004737, 2.4989395 
2.0878962e+2, 5.1222306e+1, 20104.752, -398867.16, -55.07948, 0.00010594389, 0.00013124118, 20104.76, 20104.76, 0.0, 2.5004742, 2.4990869 
2.0878962e+2, 5.372139e+1, 21378.45, -396396.63, -197.75468, 0.000024857114, -0.00007350505, 21378.543, 21378.543, 0.0, 2.5004745, 2.499091 
2.0878962e+2, 5.6220484e+1, 21427.902, -396392.13, -251.88106, -0.000066206325, -0.00028185567, 21428.055, 21428.055, 0.0, 2.5004747, 2.499091 
2.0878962e+2, 5.8719575e+1, 21431.795, -396409.6, -306.87344, -0.00016576578, -0.00048658816, 21432.02, 21432.02, 0.0, 2.5004747, 2.499091 
2.0878962e+2, 6.1218745e+1, 62754.656, -311129.6, -622.6599, -0.00014137705, 0.00014145121, 62755.69, 62755.69, 0.0, 2.5004752, 2.499237 
2.0878963e+2, 6.3717985e+1, 64366.457, -307739.8, -285.83276, -0.00011157267, 0.00000012895674, 64366.68, 64366.68, 0.0, 2.5004752, 2.4992428 
2.0878963e+2, 6.6217226e+1, 64284.168, -307794.38, -296.64355, -0.00008875065, -0.00014902234, 64284.402, 64284.402, 0.0, 2.5004752, 2.4992428 
2.0878963e+2, 6.8716466e+1, 64159.15, -307869.5, -308.49042, -0.000072382856, -0.00029617295, 64159.406, 64159.406, 0.0, 2.500475, 2.4992428 
2.0878963e+2, 7.121579e+1, 104704.65, -224198.92, -1089.9403, 0.00022202247, 0.00042484488, 104708.266, 104708.266, 0.0, 2.5004754, 2.499386 
2.0878963e+2, 7.371518e+1, 106890.83, -219605.92, -149.35532, 0.00015661078, 0.00018235594, 106890.89, 106890.89, 0.0, 2.5004754, 2.499394 
2.0878963e+2, 7.621457e+1, 106793.38, -219665.16, -182.243, 0.000079298865, -0.00007145611, 106793.484, 106793.484, 0.0, 2.5004752, 2.499394 
2.0878965e+2, 7.8713965e+1, 106643.8, -219749.52, -216.44653, -0.0000056500285, -0.00032423335, 106643.945, 106643.945, 0.0, 2.500475, 2.499394 
2.0878963e+2, 8.1213427e+1, 146712.94, -137143.69, -1574.0354, -0.000107260465, 0.000074122174, 146721.66, 146721.66, 0.0, 2.5004756, 2.4995356 
2.0878965e+2, 8.3712965e+1, 149777.78, -130801.54, -16.5073, -0.00026097734, -0.00024499677, 149777.78, 149777.78, 0.0, 2.5004756, 2.4995463 
2.0878965e+2, 8.6212516e+1, 149714.69, -130831.97, 23.445663, -0.00042156086, -0.00057468197, 149714.69, 149714.69, 0.0, 2.5004756, 2.4995463 
2.0878965e+2, 8.871206e+1, 149579.13, -130897.305, 57.507492, -0.00058884296, -0.0009053444, 149579.14, 149579.14, 0.0, 2.5004754, 2.4995463 
2.0878965e+2, 9.1211677e+1, 188466.86, -50839.293, -1816.2886, 0.0005886038, 0.0005851355, 188480.64, 188480.64, 0.0, 2.5004761, 2.4996834 
2.0878965e+2, 9.371137e+1, 192222.05, -42589.016, 202.87456, 0.00035174753, 0.00028515942, 192222.22, 192222.22, 0.0, 2.5004756, 2.499698 
2.0878966e+2, 9.621107e+1, 191782.05, -42792.04, 249.146, 0.00007314652, -0.000043814085, 191782.31, 191782.31, 0.0, 2.500475, 2.499698 
2.0878966e+2, 9.8710763e+1, 191187.02, -43069.727, 289.03345, -0.0002252443, -0.00037406103, 191187.38, 191187.38, 0.0, 2.500474, 2.499698 
2.1129008e+2, 1.2491677e+0, -191061.98, -837632.8, 92.46796, 0.00019140531, -0.00003379603, -191061.97, -191061.97, 0.0, 2.5004745, 2.4983342 
2.1129008e+2, 3.7475032e+0, -191261.23, -838042.3, 10.631687, 0.00009613266, -0.00010109812, -191261.23, -191261.23, 0.0, 2.5004745, 2.4983335 
2.1129008e+2, 6.2458384e+0, -191268.86, -838050.4, -11.97737, 0.000013406994, -0.00016801294, -191268.86, -191268.86, 0.0, 2.5004745, 2.4983335 
2.1129008e+2, 8.744174e+0, -191278.6, -838059.44, -34.959717, -0.00005677159, -0.0002345406, -191278.6, -191278.6, 0.0, 2.5004745, 2.4983335 
2.1129008e+2, 1.12425864e+1, -148957.66, -750221.2, 298.7998, -0.00006918803, -0.00004352243, -148957.5, -148957.5, 0.0, 2.5004745, 2.498484 
2.1129008e+2, 1.3741075e+1, -148749.83, -749720.2, -70.45169, -0.0000032071182, 0.000010359273, -148749.81, -148749.81, 0.0, 2.5004745, 2.4984848 
2.1129008e+2, 1.6239561e+1, -148803.36, -749759.06, -82.26991, 0.00006839897, 0.0000617179, -148803.34, -148803.34, 0.0, 2.5004742, 2.4984848 
2.1129008e+2, 1.8738051e+1, -148858.55, -749798.8, -94.451584, 0.00014561131, 0.00011102655, -148858.53, -148858.53, 0.0, 2.5004742, 2.4984848 
2.1129008e+2, 2.1236615e+1, -106593.7, -662208.8, 493.66406, 0.000058695252, 0.00035622873, -106593.266, -106593.266, 0.0, 2.5004745, 2.498635 
2.1129008e+2, 2.3735249e+1, -106172.72, -661316.25, -80.74931, 0.00002705258, 0.000094264076, -106172.7, -106172.7, 0.0, 2.5004745, 2.4986365 
2.1129008e+2, 2.6233885e+1, -106204.36, -661359.06, -107.06016, 0.0000043973405, -0.00017104331, -106204.336, -106204.336, 0.0, 2.5004745, 2.4986365 
2.1129008e+2, 2.873252e+1, -106238.15, -661403.0, -134.26576, -0.000009799676, -0.0004379626, -106238.12, -106238.12, 0.0, 2.5004745, 2.4986365 
2.1129008e+2, 3.1231236e+1, -64180.8, -574316.5, 481.64578, 0.00005924338, -0.00013310042, -64180.344, -64180.344, 0.0, 2.5004747, 2.4987855 
2.1129008e+2, 3.3730027e+1, -63753.824, -573153.6, -30.961636, 0.000028696606, -0.000097922166, -63753.824, -63753.824, 0.0, 2.5004745, 2.4987876 
2.1129009e+2, 3.6228812e+1, -63953.76, -573286.5, -36.56278, 0.0000012015281, -0.00006839471, -63953.758, -63953.758, 0.0, 2.500474, 2.4987876 
2.1129009e+2, 3.8727605e+1, -64155.7, -573420.4, -42.8681, -0.000022575434, -0.000041440373, -64155.695, -64155.695, 0.0, 2.5004737, 2.4987876 
2.1129009e+2, 4.122647e+1, -22202.557, -486618.9, 432.55865, -0.0000443157, 0.0004631517, -22202.154, -22202.154, 0.0, 2.5004742, 2.4989364 
2.1129009e+2, 4.372541e+1, -21269.498, -484815.3, -15.103644, -0.0000026113667, 0.00023012972, -21269.498, -21269.498, 0.0, 2.5004742, 2.4989393 
2.1129009e+2, 4.6224347e+1, -21210.322, -484819.4, -29.276085, 0.000041520543, -0.000011562131, -21210.32, -21210.32, 0.0, 2.5004745, 2.4989393 
2.1129009e+2, 4.8723286e+1, -21153.357, -484824.56, -44.152527, 0.00008775745, -0.0002563308, -21153.354, -21153.354, 0.0, 2.5004747, 2.4989393 
2.1129009e+2, 5.12223e+1, 20436.438, -398814.34, 335.86804, 0.00017371851, 0.00019681804, 20436.705, 20436.705, 0.0, 2.500475, 2.4990866 
2.1129009e+2, 5.372139e+1, 21439.785, -396445.53, 180.51552, 0.00006076367, 0.0000063077923, 21439.863, 21439.863, 0.0, 2.5004747, 2.499091 
2.1129009e+2, 5.6220484e+1, 21239.6, -396567.3, 185.75461, -0.000049676466, -0.00019612453, 21239.682, 21239.682, 0.0, 2.5004745, 2.4990907 
2.112901e+2, 5.871957e+1, 21036.516, -396690.44, 190.13649, -0.00015640752, -0.00040316462, 21036.602, 21036.602, 0.0, 2.500474, 2.4990907 
2.112901e+2, 6.121874e+1, 62232.04, -311444.5, 23.660095, -0.00011026686, 0.00023528052, 62232.043, 62232.043, 0.0, 2.5004745, 2.4992368 
2.112901e+2, 6.3717985e+1, 64003.543, -307927.0, 279.73636, -0.00006784437, 0.000095070514, 64003.754, 64003.754, 0.0, 2.5004747, 2.4992428 
2.112901e+2, 6.6217226e+1, 64086.668, -307907.63, 263.96143, -0.000022826403, -0.000057860376, 64086.855, 64086.855, 0.0, 2.5004747, 2.4992428 
2.112901e+2, 6.8716466e+1, 64166.992, -307889.63, 247.80835, 0.000025545412, -0.000213503, 64167.156, 64167.156, 0.0, 2.500475, 2.4992428 
2.112901e+2, 7.1215785e+1, 104755.58, -224226.9, -413.52286, 0.00031720617, 0.0005320917, 104756.1, 104756.1, 0.0, 2.5004756, 2.499386 
2.112901e+2, 7.371518e+1, 107032.2, -219505.56, 488.96573, 0.00020976353, 0.000306624, 107032.93, 107032.93, 0.0, 2.5004756, 2.4993942 
2.1129012e+2, 7.621457e+1, 107020.9, -219523.84, 505.62296, 0.00009949093, 0.000068375324, 107021.68, 107021.68, 0.0, 2.5004756, 2.499394 
2.1129012e+2, 7.871396e+1, 107005.73, -219543.98, 521.62555, -0.000009296641, -0.00016997961, 107006.56, 107006.56, 0.0, 2.5004756, 2.499394 
2.112901e+2, 8.1213427e+1, 147112.02, -136956.31, -700.8967, -0.0001214674, 0.00022930662, 147113.73, 147113.73, 0.0, 2.5004764, 2.4995353 
2.1129012e+2, 8.3712965e+1, 150254.3, -130467.95, 663.33923, -0.00025563381, -0.00010181228, 150255.86, 150255.86, 0.0, 2.5004764, 2.4995465 
2.1129012e+2, 8.621251e+1, 150263.03, -130470.18, 611.7475, -0.0003795947, -0.00043923387, 150264.36, 150264.36, 0.0, 2.5004766, 2.4995465 
2.1129012e+2, 8.871205e+1, 150265.69, -130475.33, 560.37787, -0.00049323915, -0.00077333266, 150266.81, 150266.81, 0.0, 2.5004766, 2.4995465 
2.1129012e+2, 9.1211677e+1, 189243.97, -50407.594, -1242.0118, 0.0006934526, 0.0007675074, 189250.4, 189250.4, 0.0, 2.5004776, 2.4996836 
2.1129014e+2, 9.371137e+1, 193527.11, -41714.586, 576.7705, 0.00040274116, 0.0004521254, 193528.52, 193528.52, 0.0, 2.5004778, 2.4996984 
2.1129014e+2, 9.621107e+1, 193633.7, -41667.64, 539.7966, 0.00009946473, 0.00010047987, 193634.94, 193634.94, 0.0, 2.5004778, 2.4996984 
2.1129014e+2, 9.8710763e+1, 193728.1, -41626.574, 503.1387, -0.00019415167, -0.0002588199, 193729.17, 193729.17, 0.0, 2.500478, 2.4996984 
2.1379054e+2, 1.2491678e+0, -191099.8, -837711.8, 88.64835, 0.00013292937, -0.00001845503, -191099.78, -191099.78, 0.0, 2.5004745, 2.498334 
2.1379054e+2, 3.7475035e+0, -191300.31, -838124.94, 6.979432, 0.000069241265, -0.000055400447, -191300.31, -191300.31, 0.0, 2.5004745, 2.4983332 
2.1379054e+2, 6.245839e+0, -191306.94, -838131.9, -12.254754, 0.000007976009, -0.00009239234, -191306.94, -191306.94, 0.0, 2.5004745, 2.4983332 
2.1379054e+2, 8.744175e+0, -191315.67, -838139.8, -31.862228, -0.000050866296, -0.00012943085, -191315.67, -191315.67, 0.0, 2.5004745, 2.4983332 
2.1379054e+2, 1.1242587e+1, -148950.27, -750219.7, 300.02612, -0.00008929509, 0.00003603006, -148950.11, -148950.11, 0.0, 2.5004745, 2.498484 
2.1379054e+2, 1.3741073e+1, -148753.52, -749741.94, -88.92655, -0.000030402036, 0.00002240526, -148753.5, -148753.5, 0.0, 2.5004745, 2.4984848 
2.1379054e+2, 1.6239561e+1, -148809.63, -749786.4, -97.334076, 0.00002709271, 0.000007111699, -148809.61, -148809.61, 0.0, 2.5004742, 2.4984848 
2.1379054e+2, 1.873805e+1, -148867.39, -749831.7, -106.10505, 0.00008309006, -0.000009389287, -148867.38, -148867.38, 0.0, 2.5004742, 2.4984848 
2.1379054e+2, 2.1236612e+1, -106582.266, -662231.3, 522.5123, 0.000046534307, 0.00022730454, -106581.77, -106581.77, 0.0, 2.5004745, 2.4986348 
2.1379054e+2, 2.3735249e+1, -106179.96, -661380.56, -91.43279, 0.000031448668, 0.00007020507, -106179.945, -106179.945, 0.0, 2.5004745, 2.4986362 
2.1379054e+2, 2.6233885e+1, -106211.62, -661426.3, -114.7031, 0.000018329862, -0.00008990079, -106211.59, -106211.59, 0.0, 2.5004745, 2.4986362 
2.1379054e+2, 2.873252e+1, -106245.42, -661473.1, -138.86816, 0.0000069163743, -0.00025140558, -106245.39, -106245.39, 0.0, 2.5004745, 2.4986362 
2.1379055e+2, 3.1231236e+1, -64136.582, -574291.44, 492.16785, 0.0000135390765, 0.000072304356, -64136.105, -64136.105, 0.0, 2.5004747, 2.4987857 
2.1379055e+2, 3.3730027e+1, -63705.434, -573122.5, -84.24414, -0.000011064551, 0.0000076156275, -63705.42, -63705.42, 0.0, 2.5004745, 2.4987879 
2.1379055e+2, 3.6228812e+1, -63905.715, -573258.7, -87.39619, -0.000037234855, -0.00006191351, -63905.7, -63905.7, 0.0, 2.5004742, 2.4987876 
2.1379055e+2, 3.8727605e+1, -64107.996, -573395.8, -91.25241, -0.00006478706, -0.00013308343, -64107.98, -64107.98, 0.0, 2.500474, 2.4987876 
2.1379055e+2, 4.1226467e+1, -22138.395, -486603.03, 511.4572, -0.000042902433, 0.0003180854, -22137.83, -22137.83, 0.0, 2.5004742, 2.4989364 
2.1379055e+2, 4.3725407e+1, -21198.363, -484788.25, -2.461366, -0.0000008032189, 0.00013320509, -21198.363, -21198.363, 0.0, 2.5004745, 2.4989393 
2.1379055e+2, 4.6224347e+1, -21139.348, -484795.63, -14.089602, 0.000038113554, -0.000058569705, -21139.348, -21139.348, 0.0, 2.5004747, 2.4989393 
2.1379055e+2, 4.8723286e+1, -21082.543, -484804.1, -26.421843, 0.00007396279, -0.00025185774, -21082.543, -21082.543, 0.0, 2.5004747, 2.4989393 
2.1379055e+2, 5.12223e+1, 20537.016, -398744.75, 355.69012, 0.00011988168, 0.0002497573, 20537.318, 20537.318, 0.0, 2.5004752, 2.4990866 
2.1379057e+2, 5.372139e+1, 21559.002, -396339.84, 128.29982, 0.000035221346, 0.000077801924, 21559.041, 21559.041, 0.0, 2.500475, 2.499091 
2.1379057e+2, 5.6220484e+1, 21358.764, -396464.22, 136.46909, -0.000052346284, -0.00010458364, 21358.809, 21358.809, 0.0, 2.5004745, 2.499091 
2.1379057e+2, 5.871957e+1, 21155.629, -396590.0, 143.78116, -0.00014214446, -0.00028989895, 21155.678, 21155.678, 0.0, 2.5004742, 2.499091 
2.1379057e+2, 6.121874e+1, 62329.914, -311428.5, 107.436455, -0.0000800171, 0.0003014703, 62329.945, 62329.945, 0.0, 2.5004747, 2.4992368 
2.1379057e+2, 6.371798e+1, 64119.598, -307875.4, 300.17084, -0.00006699505, 0.00007972029, 64119.84, 64119.84, 0.0, 2.5004747, 2.4992428 
2.1379057e+2, 6.6217226e+1, 64202.137, -307859.0, 286.9521, -0.000056333665, -0.000152876, 64202.355, 64202.355, 0.0, 2.500475, 2.4992428 
2.1379057e+2, 6.871646e+1, 64281.875, -307843.97, 273.3552, -0.000046963847, -0.00038648266, 64282.074, 64282.074, 0.0, 2.5004752, 2.4992428 
2.1379057e+2, 7.1215785e+1, 104908.0, -224123.78, -335.41135, 0.00024683628, 0.00036151655, 104908.34, 104908.34, 0.0, 2.500476, 2.499386 
2.137906e+2, 7.3715174e+1, 107232.266, -219308.44, 488.93106, 0.00017493396, 0.00020275918, 107233.0, 107233.0, 0.0, 2.500476, 2.4993944 
2.137906e+2, 7.621457e+1, 107223.79, -219325.56, 508.43903, 0.000093705465, 0.000030888194, 107224.58, 107224.58, 0.0, 2.500476, 2.4993942 
2.137906e+2, 7.871396e+1, 107211.44, -219344.56, 527.29236, 0.0000075451294, -0.000141278, 107212.29, 107212.29, 0.0, 2.500476, 2.4993942 
2.137906e+2, 8.1213427e+1, 147171.27, -137067.39, -603.86456, -0.00010452024, 0.00025640902, 147172.55, 147172.55, 0.0, 2.5004766, 2.499535 
2.137906e+2, 8.3712965e+1, 150350.03, -130505.43, 668.02246, -0.00023826555, -0.0001024779, 150351.61, 150351.61, 0.0, 2.5004768, 2.4995463 
2.137906e+2, 8.621251e+1, 150362.05, -130502.98, 620.0918, -0.0003708164, -0.0004677813, 150363.4, 150363.4, 0.0, 2.5004768, 2.4995463 
2.137906e+2, 8.871205e+1, 150367.98, -130503.45, 572.3832, -0.00050222897, -0.00083015417, 150369.14, 150369.14, 0.0, 2.5004768, 2.4995463 
2.1379061e+2, 9.1211677e+1, 189349.94, -50478.727, -1101.0387, 0.00068611157, 0.00072620256, 189354.98, 189354.98, 0.0, 2.5004778, 2.4996834 
2.1379061e+2, 9.371137e+1, 193738.92, -41571.996, 626.6688, 0.00038442985, 0.0003862053, 193740.6, 193740.6, 0.0, 2.500478, 2.4996984 
2.1379061e+2, 9.621106e+1, 193851.45, -41518.168, 598.4162, 0.000049978025, 0.000007361912, 193852.97, 193852.97, 0.0, 2.5004783, 2.4996984 
2.1379061e+2, 9.871075e+1, 193951.75, -41470.227, 570.4796, -0.00029473344, -0.00038100756, 193953.14, 193953.14, 0.0, 2.5004785, 2.4996984 
2.1629101e+2, 1.2491679e+0, -191137.75, -837791.1, 84.90326, 0.00007438928, -0.0000038212297, -191137.73, -191137.73, 0.0, 2.5004745, 2.498334 
2.1629101e+2, 3.7475038e+0, -191340.22, -838209.3, 3.5011997, 0.000042157415, -0.000011824368, -191340.22, -191340.22, 0.0, 2.5004745, 2.4983332 
2.1629101e+2, 6.2458396e+0, -191345.84, -838215.06, -12.358114, 0.0000022242746, -0.000020307743, -191345.83, -191345.83, 0.0, 2.5004745, 2.4983332 
2.1629101e+2, 8.744175e+0, -191353.56, -838221.9, -28.59072, -0.00004541004, -0.00002927149, -191353.56, -191353.56, 0.0, 2.5004745, 2.4983332 
2.1629101e+2, 1.1242587e+1, -148953.94, -750241.1, 302.87573, -0.00010793346, 0.00011767321, -148953.78, -148953.78, 0.0, 2.5004745, 2.498484 
2.1629101e+2, 1.3741073e+1, -148758.31, -749765.94, -106.75826, -0.000053025324, 0.000032106578, -148758.3, -148758.3, 0.0, 2.5004745, 2.4984848 
2.1629101e+2, 1.623956e+1, -148817.0, -749816.0, -111.75509, -0.00000654554, -0.00005429607, -148816.98, -148816.98, 0.0, 2.5004742, 2.4984848 
2.1629101e+2, 1.8738046e+1, -148877.34, -749866.8, -117.11537, 0.00003133319, -0.00014106357, -148877.31, -148877.31, 0.0, 2.5004742, 2.4984846 
2.1629101e+2, 2.123661e+1, -106589.15, -662291.9, 560.18756, 0.000023928733, 0.00010287595, -106588.586, -106588.586, 0.0, 2.5004745, 2.4986348 
2.1629101e+2, 2.3735246e+1, -106187.98, -661446.5, -101.237854, 0.000026908903, 0.000046991216, -106187.95, -106187.95, 0.0, 2.5004745, 2.4986362 
2.1629101e+2, 2.6233885e+1, -106219.65, -661495.2, -121.46763, 0.000024946065, -0.0000116563015, -106219.62, -106219.62, 0.0, 2.5004745, 2.4986362 
2.1629101e+2, 2.8732523e+1, -106253.47, -661544.94, -142.59216, 0.000017935645, -0.000071489856, -106253.43, -106253.43, 0.0, 2.5004745, 2.498636 
2.1629103e+2, 3.1231236e+1, -64105.195, -574293.06, 503.6287, -0.000027226357, 0.0002767432, -64104.7, -64104.7, 0.0, 2.500475, 2.4987855 
2.1629103e+2, 3.3730027e+1, -63657.66, -573092.7, -136.7677, -0.000044946002, 0.00010885844, -63657.625, -63657.625, 0.0, 2.5004745, 2.4987879 
2.1629103e+2, 3.6228812e+1, -63858.285, -573232.2, -137.47066, -0.000068926325, -0.00006311331, -63858.246, -63858.246, 0.0, 2.5004742, 2.4987876 
2.1629103e+2, 3.87276e+1, -64060.91, -573372.6, -138.87779, -0.000099388555, -0.00023579349, -64060.87, -64060.87, 0.0, 2.500474, 2.4987876 
2.1629103e+2, 4.1226467e+1, -22093.879, -486627.94, 600.00616, -0.000048317863, 0.00017830779, -22093.104, -22093.104, 0.0, 2.5004745, 2.4989362 
2.1629103e+2, 4.3725407e+1, -21127.88, -484762.53, 10.907255, -0.000005805552, 0.000037751433, -21127.88, -21127.88, 0.0, 2.5004745, 2.4989393 
2.1629103e+2, 4.6224347e+1, -21069.027, -484773.22, 1.823223, 0.000028059523, -0.000108093234, -21069.027, -21069.027, 0.0, 2.5004747, 2.4989393 
2.1629103e+2, 4.8723286e+1, -21012.383, -484784.97, -7.9648128, 0.000053684504, -0.00025388756, -21012.383, -21012.383, 0.0, 2.500475, 2.498939 
2.1629104e+2, 5.12223e+1, 20624.57, -398702.22, 377.27737, 0.0000698158, 0.00030659212, 20624.91, 20624.91, 0.0, 2.5004754, 2.4990866 
2.1629104e+2, 5.372139e+1, 21677.45, -396235.75, 76.860306, 0.000013327353, 0.00014897464, 21677.463, 21677.463, 0.0, 2.500475, 2.499091 
2.1629104e+2, 5.6220484e+1, 21477.16, -396362.75, 87.95976, -0.000051599483, -0.000017713865, 21477.18, 21477.18, 0.0, 2.5004747, 2.499091 
2.1629104e+2, 5.8719575e+1, 21273.973, -396491.13, 98.20202, -0.00012469651, -0.0001856541, 21273.996, 21273.996, 0.0, 2.5004745, 2.499091 
2.1629104e+2, 6.121874e+1, 62407.613, -311454.4, 199.43306, -0.00005312327, 0.0003740575, 62407.72, 62407.72, 0.0, 2.500475, 2.4992366 
2.1629104e+2, 6.371798e+1, 64234.676, -307825.84, 321.0499, -0.00006940478, 0.00006621949, 64234.953, 64234.953, 0.0, 2.500475, 2.4992428 
2.1629104e+2, 6.6217214e+1, 64316.63, -307812.4, 310.38736, -0.00009291323, -0.00025081442, 64316.887, 64316.887, 0.0, 2.5004752, 2.4992428 
2.1629106e+2, 6.871646e+1, 64395.78, -307800.3, 299.34665, -0.00012235867, -0.00056715735, 64396.023, 64396.023, 0.0, 2.5004754, 2.4992425 
2.1629106e+2, 7.1215785e+1, 105043.19, -224056.47, -254.3927, 0.00017938233, 0.00019531712, 105043.38, 105043.38, 0.0, 2.5004761, 2.499386 
2.1629106e+2, 7.3715174e+1, 107431.305, -219113.44, 489.3485, 0.00014109518, 0.000099198405, 107432.04, 107432.04, 0.0, 2.5004761, 2.4993944 
2.1629106e+2, 7.621457e+1, 107425.66, -219129.42, 511.7072, 0.00008690892, -0.000010568244, 107426.45, 107426.45, 0.0, 2.5004761, 2.4993944 
2.1629106e+2, 7.871396e+1, 107416.125, -219147.27, 533.4113, 0.00002137391, -0.00012081902, 107417.0, 107417.0, 0.0, 2.5004761, 2.4993944 
2.1629106e+2, 8.1213427e+1, 147212.7, -137215.48, -508.51303, -0.000083897176, 0.00028502345, 147213.63, 147213.63, 0.0, 2.5004768, 2.4995348 
2.1629106e+2, 8.3712965e+1, 150444.9, -130544.664, 672.2666, -0.0002209407, -0.000106148036, 150446.52, 150446.52, 0.0, 2.500477, 2.4995463 
2.1629106e+2, 8.621251e+1, 150460.2, -130537.54, 627.99695, -0.00036590424, -0.00050402357, 150461.61, 150461.61, 0.0, 2.500477, 2.4995463 
2.1629107e+2, 8.871205e+1, 150469.42, -130533.35, 583.94946, -0.00051890785, -0.0008993608, 150470.63, 150470.63, 0.0, 2.500477, 2.4995463 
2.1629107e+2, 9.121167e+1, 189432.4, -50598.664, -957.8783, 0.00069590827, 0.0006977923, 189436.22, 189436.22, 0.0, 2.500478, 2.499683 
2.1629107e+2, 9.3711364e+1, 193949.89, -41431.2, 675.75055, 0.0003785536, 0.00032670505, 193951.83, 193951.83, 0.0, 2.5004783, 2.4996986 
2.1629107e+2, 9.621106e+1, 194068.33, -41370.496, 656.2192, 0.0000078330695, -0.00008623448, 194070.16, 194070.16, 0.0, 2.5004785, 2.4996986 
2.1629108e+2, 9.871075e+1, 194174.55, -41315.676, 637.0039, -0.0003930668, -0.000510572, 194176.27, 194176.27, 0.0, 2.5004787, 2.4996986 
2.1879148e+2, 1.2491681e+0, -193070.89, -838784.8, 83.26821, 0.000017856546, 0.0000099867275, -193070.89, -193070.89, 0.0, 2.500471, 2.4983337 
2.1879148e+2, 3.747504e+0, -193162.4, -839154.6, 4.0896173, 0.000016596015, 0.000029269782, -193162.4, -193162.4, 0.0, 2.5004714, 2.498333 
2.1879148e+2, 6.24584e+0, -193164.88, -839158.3, -7.047308, -0.0000017302115, 0.000047632984, -193164.88, -193164.88, 0.0, 2.5004714, 2.498333 
2.1879148e+2, 8.744176e+0, -193280.94, -839216.7, -19.227688, -0.000037122023, 0.000065076194, -193280.94, -193280.94, 0.0, 2.500471, 2.498333 
2.1879148e+2, 1.1242588e+1, -150825.72, -751181.56, 309.88757, -0.00012173836, 0.00020037562, -150825.56, -150825.56, 0.0, 2.5004714, 2.498484 
2.1879148e+2, 1.3741073e+1, -150424.69, -750593.5, -129.85645, -0.00006884522, 0.000038355163, -150424.66, -150424.66, 0.0, 2.5004716, 2.4984848 
2.1879148e+2, 1.623956e+1, -150371.36, -750593.9, -138.41417, -0.000030799427, -0.00012369353, -150371.33, -150371.33, 0.0, 2.5004716, 2.4984846 
2.1879148e+2, 1.8738045e+1, -150401.64, -750634.5, -145.85654, -0.000007840686, -0.0002852679, -150401.6, -150401.6, 0.0, 2.5004716, 2.4984846 
2.187915e+2, 2.1236609e+1, -108040.43, -663078.75, 573.1276, -0.0000072978937, -0.000018448607, -108039.836, -108039.836, 0.0, 2.500472, 2.4986346 
2.187915e+2, 2.3735246e+1, -107466.98, -662127.2, -171.9926, 0.000015015303, 0.000023103788, -107466.93, -107466.93, 0.0, 2.5004723, 2.498636 
2.187915e+2, 2.6233885e+1, -107413.49, -662137.75, -217.70807, 0.000026028916, 0.00006205884, -107413.41, -107413.41, 0.0, 2.5004725, 2.498636 
2.187915e+2, 2.8732523e+1, -107432.836, -662183.44, -264.57056, 0.000025684387, 0.000100055404, -107432.71, -107432.71, 0.0, 2.5004725, 2.498636 
2.187915e+2, 3.123124e+1, -65134.254, -574827.2, 368.19986, -0.000060623897, 0.0004784802, -65133.99, -65133.99, 0.0, 2.500473, 2.4987855 
2.187915e+2, 3.3730027e+1, -64421.836, -573456.2, -368.17648, -0.00007123995, 0.00020417196, -64421.57, -64421.57, 0.0, 2.5004733, 2.4987879 
2.187915e+2, 3.6228812e+1, -64455.023, -573518.1, -399.93585, -0.00009249165, -0.00007351601, -64454.71, -64454.71, 0.0, 2.5004733, 2.4987876 
2.187915e+2, 3.87276e+1, -64558.71, -573614.06, -434.08447, -0.00012493052, -0.0003509693, -64558.34, -64558.34, 0.0, 2.500473, 2.4987876 
2.187915e+2, 4.1226465e+1, -22503.299, -486903.6, 410.4789, -0.000059148173, 0.000042569267, -22502.936, -22502.936, 0.0, 2.5004737, 2.498936 
2.187915e+2, 4.3725404e+1, -21357.742, -484883.34, -308.18924, -0.000016387863, -0.000057337806, -21357.537, -21357.537, 0.0, 2.5004742, 2.4989393 
2.187915e+2, 4.6224344e+1, -21222.76, -484860.7, -363.0714, 0.000012761802, -0.0001611413, -21222.477, -21222.477, 0.0, 2.5004745, 2.4989393 
2.1879151e+2, 4.872328e+1, -21148.32, -484867.2, -421.52487, 0.000028855044, -0.00026337587, -21147.936, -21147.936, 0.0, 2.5004747, 2.498939 
2.1879151e+2, 5.12223e+1, 20558.836, -398754.9, -83.01342, 0.000025429865, 0.00036659325, 20558.852, 20558.852, 0.0, 2.5004752, 2.4990866 
2.1879151e+2, 5.372139e+1, 21751.379, -396154.94, -507.68466, -0.0000035544454, 0.00021951643, 21751.996, 21751.996, 0.0, 2.5004752, 2.4990911 
2.1879151e+2, 5.6220484e+1, 21563.117, -396278.78, -545.3447, -0.000046157333, 0.0000645405, 21563.828, 21563.828, 0.0, 2.5004747, 2.4990911 
2.1879151e+2, 5.8719575e+1, 21287.512, -396444.72, -585.3091, -0.00010240987, -0.00009006411, 21288.332, 21288.332, 0.0, 2.5004745, 2.499091 
2.1879151e+2, 6.121874e+1, 62331.895, -311586.63, -392.2902, -0.000027819555, 0.00045380928, 62332.305, 62332.305, 0.0, 2.5004747, 2.4992363 
2.1879151e+2, 6.371798e+1, 64253.523, -307824.38, -404.11218, -0.00007362333, 0.000055863875, 64253.965, 64253.965, 0.0, 2.5004752, 2.4992428 
2.1879151e+2, 6.6217214e+1, 64308.555, -307826.6, -467.6519, -0.00013114879, -0.00034989047, 64309.14, 64309.14, 0.0, 2.5004752, 2.4992428 
2.1879153e+2, 6.871646e+1, 64296.426, -307861.13, -532.44104, -0.00019897509, -0.00075329165, 64297.188, 64297.188, 0.0, 2.5004752, 2.4992425 
2.1879153e+2, 7.121577e+1, 104871.57, -224162.83, -1066.019, 0.00011634854, 0.00003607382, 104875.02, 104875.02, 0.0, 2.500476, 2.499386 
2.1879153e+2, 7.3715174e+1, 107264.63, -219094.69, -426.47797, 0.00010934973, -0.0000011414345, 107265.195, 107265.195, 0.0, 2.5004756, 2.4993947 
2.1879153e+2, 7.621457e+1, 107100.61, -219187.25, -426.77658, 0.00008034298, -0.000052678253, 107101.164, 107101.164, 0.0, 2.5004754, 2.4993947 
2.1879154e+2, 7.871396e+1, 106846.59, -219323.14, -432.08304, 0.000034111763, -0.00010482632, 106847.17, 106847.17, 0.0, 2.500475, 2.4993947 
2.1879153e+2, 8.1213427e+1, 146289.6, -137852.33, -1382.5155, -0.000057735644, 0.00031930694, 146296.33, 146296.33, 0.0, 2.5004756, 2.4995344 
2.1879154e+2, 8.3712965e+1, 149471.34, -131095.92, -257.39215, -0.0002025377, -0.000108377004, 149471.6, 149471.6, 0.0, 2.5004754, 2.499546 
2.1879154e+2, 8.621251e+1, 149243.69, -131203.02, -274.3204, -0.0003637473, -0.0005431766, 149243.95, 149243.95, 0.0, 2.500475, 2.499546 
2.1879154e+2, 8.871205e+1, 148884.52, -131373.42, -301.5419, -0.0005414444, -0.00097578065, 148884.84, 148884.84, 0.0, 2.5004745, 2.499546 
2.1879156e+2, 9.121167e+1, 187495.53, -51721.91, -1663.6488, 0.0007246394, 0.0006876502, 187507.1, 187507.1, 0.0, 2.500475, 2.4996824 
2.1879156e+2, 9.3711364e+1, 191858.97, -42393.895, -48.781124, 0.00038652375, 0.0002791904, 191858.98, 191858.98, 0.0, 2.5004747, 2.4996986 
2.1879156e+2, 9.621106e+1, 191471.4, -42573.074, 10.31809, -0.000024663244, -0.00017431077, 191471.4, 191471.4, 0.0, 2.500474, 2.4996986 
2.1879156e+2, 9.871075e+1, 190864.88, -42857.7, 61.33983, -0.0004846675, -0.00064084167, 190864.89, 190864.89, 0.0, 2.500473, 2.4996986 
2.2129196e+2, 1.2491679e+0, -190870.39, -837766.94, 103.498, 0.000059433525, 0.000009125326, -190870.38, -190870.38, 0.0, 2.500475, 2.4983337 
2.2129196e+2, 3.7475038e+0, -191110.55, -838216.6, 4.936145, 0.0000589323, 0.000026586338, -191110.55, -191110.55, 0.0, 2.500475, 2.498333 
2.2129196e+2, 6.2458396e+0, -191147.61, -838240.0, -21.743061, 0.000079647485, 0.000042995198, -191147.61, -191147.61, 0.0, 2.500475, 2.498333 
2.2129196e+2, 8.744176e+0, -191187.44, -838264.7, -48.5461, 0.00012157922, 0.000058351754, -191187.44, -191187.44, 0.0, 2.5004747, 2.498333 
2.2129196e+2, 1.1242587e+1, -148735.14, -750241.06, 354.86078, 0.000042578537, 0.00018701749, -148734.94, -148734.94, 0.0, 2.500475, 2.4984837 
2.2129196e+2, 1.3741073e+1, -148499.7, -749731.06, -134.2682, 0.000027886741, 0.000010419167, -148499.67, -148499.67, 0.0, 2.500475, 2.4984846 
2.2129196e+2, 1.6239557e+1, -148533.58, -749775.4, -166.11781, 0.000030525345, -0.00016603345, -148533.53, -148533.53, 0.0, 2.500475, 2.4984846 
2.2129196e+2, 1.8738043e+1, -148570.27, -749821.1, -198.78006, 0.000050249106, -0.00034183255, -148570.2, -148570.2, 0.0, 2.500475, 2.4984844 
2.2129197e+2, 2.1236606e+1, -106423.77, -662382.0, 604.7815, 0.000039752544, -0.00007695113, -106423.12, -106423.12, 0.0, 2.500475, 2.4986343 
2.2129197e+2, 2.3735245e+1, -106151.87, -661570.56, -161.15288, 0.00005189966, -0.000027264135, -106151.82, -106151.82, 0.0, 2.5004747, 2.498636 
2.2129197e+2, 2.6233882e+1, -106335.26, -661700.5, -175.76096, 0.00007545593, 0.000020893589, -106335.2, -106335.2, 0.0, 2.5004745, 2.4986358 
2.2129197e+2, 2.873252e+1, -106520.58, -661831.3, -191.30788, 0.00011031787, 0.00006917731, -106520.516, -106520.516, 0.0, 2.5004742, 2.4986358 
2.2129197e+2, 3.1231236e+1, -64271.78, -574529.75, 586.2619, 0.000028036511, 0.00045586898, -64271.11, -64271.11, 0.0, 2.5004747, 2.4987853 
2.2129197e+2, 3.373002e+1, -63602.973, -573154.2, -224.91158, -0.0000039337765, 0.00017397082, -63602.875, -63602.875, 0.0, 2.5004747, 2.4987876 
2.2129197e+2, 3.622881e+1, -63633.547, -573223.0, -255.56683, -0.000026858745, -0.000111075555, -63633.418, -63633.418, 0.0, 2.5004747, 2.4987874 
2.2129197e+2, 3.8727596e+1, -63666.664, -573293.0, -287.4775, -0.000041323663, -0.00039560333, -63666.504, -63666.504, 0.0, 2.5004747, 2.4987874 
2.2129197e+2, 4.122646e+1, -21903.633, -486732.22, 678.80786, 0.000012794978, 0.000011014828, -21902.64, -21902.64, 0.0, 2.500475, 2.4989357 
2.2129197e+2, 4.3725398e+1, -21205.078, -484879.4, -70.76041, 0.000023947774, -0.00008164692, -21205.066, -21205.066, 0.0, 2.5004745, 2.498939 
2.2129199e+2, 4.6224338e+1, -21496.016, -485074.06, -78.478455, 0.00004088298, -0.00018161697, -21496.004, -21496.004, 0.0, 2.500474, 2.498939 
2.2129199e+2, 4.8723277e+1, -21789.656, -485270.03, -87.28556, 0.00006411769, -0.00028329963, -21789.64, -21789.64, 0.0, 2.5004737, 2.4989388 
2.2129199e+2, 5.12223e+1, 19817.65, -399240.25, 396.50882, 0.00005952714, 0.00037054956, 19818.025, 19818.025, 0.0, 2.500474, 2.4990864 
2.2129199e+2, 5.3721386e+1, 21240.027, -396468.63, -86.66464, 0.000036863777, 0.0002321338, 21240.045, 21240.045, 0.0, 2.5004742, 2.499091 
2.2129199e+2, 5.622048e+1, 21322.45, -396470.1, -105.295555, 0.00002413347, 0.000081561666, 21322.475, 21322.475, 0.0, 2.5004745, 2.499091 
2.2129199e+2, 5.8719563e+1, 21401.861, -396473.0, -124.89631, 0.000021236163, -0.00007266692, 21401.898, 21401.898, 0.0, 2.5004747, 2.499091 
2.2129199e+2, 6.121873e+1, 62393.652, -311678.88, 225.50427, 0.00010272106, 0.0004875902, 62393.79, 62393.79, 0.0, 2.500475, 2.499236 
2.21292e+2, 6.3717973e+1, 64109.42, -307951.22, 204.73648, 0.0000071356185, 0.000112700334, 64109.535, 64109.535, 0.0, 2.500475, 2.4992425 
2.21292e+2, 6.6217214e+1, 63980.715, -308045.8, 201.34293, -0.00008659628, -0.00027350083, 63980.824, 63980.824, 0.0, 2.5004747, 2.4992425 
2.21292e+2, 6.8716455e+1, 63848.664, -308142.06, 197.02777, -0.00017701124, -0.00066075975, 63848.77, 63848.77, 0.0, 2.5004745, 2.4992425 
2.21292e+2, 7.1215767e+1, 104360.234, -224436.75, -204.24535, 0.00012836288, 0.0001516152, 104360.36, 104360.36, 0.0, 2.500475, 2.4993858 
2.21292e+2, 7.371516e+1, 106949.04, -219207.73, 323.0428, 0.00013042914, 0.00012300973, 106949.36, 106949.36, 0.0, 2.5004752, 2.499395 
2.21292e+2, 7.6214564e+1, 107020.29, -219195.28, 289.88028, 0.00013795108, 0.00008230636, 107020.55, 107020.55, 0.0, 2.5004754, 2.499395 
2.2129202e+2, 7.8713953e+1, 107086.7, -219185.16, 256.46313, 0.00015576633, 0.000043408443, 107086.9, 107086.9, 0.0, 2.5004754, 2.4993947 
2.2129202e+2, 8.1213415e+1, 146737.66, -137569.98, -568.83276, 0.00008750941, 0.0004823406, 146738.8, 146738.8, 0.0, 2.5004764, 2.4995344 
2.2129202e+2, 8.371296e+1, 150220.03, -130611.59, 463.84702, -0.00011606552, 0.00005582654, 150220.8, 150220.8, 0.0, 2.5004766, 2.4995463 
2.2129202e+2, 8.6212504e+1, 150373.6, -130549.92, 446.10724, -0.00030153373, -0.00037567178, 150374.31, 150374.31, 0.0, 2.5004768, 2.4995463 
2.2129202e+2, 8.871204e+1, 150519.84, -130491.79, 428.06375, -0.00046862068, -0.00080272777, 150520.48, 150520.48, 0.0, 2.500477, 2.4995463 
2.2129203e+2, 9.121167e+1, 189532.23, -50597.203, -790.25964, 0.00076519296, 0.00090496114, 189534.83, 189534.83, 0.0, 2.5004783, 2.499683 
2.2129203e+2, 9.3711364e+1, 194158.64, -41026.934, 549.6417, 0.00042304827, 0.0005057555, 194159.92, 194159.92, 0.0, 2.5004783, 2.4996994 
2.2129203e+2, 9.621105e+1, 194161.67, -41027.22, 459.68347, 0.00006507159, 0.00007424894, 194162.56, 194162.56, 0.0, 2.5004783, 2.4996994 
2.2129203e+2, 9.8710746e+1, 194151.86, -41033.688, 370.08673, -0.00028485415, -0.00035688595, 194152.44, 194152.44, 0.0, 2.5004783, 2.499699 
2.2379243e+2, 1.2491679e+0, -190901.72, -837832.1, 89.290405, -0.000014621557, 0.000004201286, -190901.7, -190901.7, 0.0, 2.500475, 2.4983335 
2.2379243e+2, 3.7475035e+0, -191146.39, -838291.3, -7.2697845, 0.000013430529, 0.000012358288, -191146.39, -191146.39, 0.0, 2.500475, 2.4983327 
2.2379243e+2, 6.245839e+0, -191185.33, -838318.75, -29.382162, 0.000048690257, 0.000020188576, -191185.33, -191185.33, 0.0, 2.500475, 2.4983327 
2.2379243e+2, 8.744175e+0, -191227.03, -838347.5, -51.618374, 0.00009115779, 0.000027692005, -191227.03, -191227.03, 0.0, 2.5004747, 2.4983327 
2.2379243e+2, 1.1242587e+1, -148758.66, -750310.75, 373.28003, 0.000022775688, 0.0001687811, -148758.44, -148758.44, 0.0, 2.500475, 2.4984837 
2.2379243e+2, 1.3741073e+1, -148529.23, -749815.94, -145.49275, 0.000012385879, 0.000041271094, -148529.2, -148529.2, 0.0, 2.500475, 2.4984844 
2.2379243e+2, 1.6239557e+1, -148562.75, -749862.2, -172.76707, 0.000008425451, -0.00008603504, -148562.69, -148562.69, 0.0, 2.500475, 2.4984844 
2.2379243e+2, 1.8738043e+1, -148599.06, -749909.75, -200.85405, 0.000010670246, -0.00021264578, -148598.98, -148598.98, 0.0, 2.500475, 2.4984844 
2.2379245e+2, 2.1236606e+1, -106390.45, -662366.7, 595.505, -0.000012523604, 0.000032611155, -106389.82, -106389.82, 0.0, 2.5004752, 2.4986343 
2.2379245e+2, 2.3735245e+1, -106121.34, -661566.0, -209.79033, 0.0000013131289, 0.000015407639, -106121.266, -106121.266, 0.0, 2.500475, 2.4986358 
2.2379245e+2, 2.6233882e+1, -106304.7, -661700.6, -221.19772, 0.000019044577, -0.0000033811377, -106304.62, -106304.62, 0.0, 2.5004745, 2.4986358 
2.2379245e+2, 2.873252e+1, -106490.0, -661836.2, -233.54396, 0.00004052909, -0.000022142442, -106489.9, -106489.9, 0.0, 2.5004742, 2.4986358 
2.2379245e+2, 3.1231236e+1, -64251.418, -574588.4, 664.82666, -0.000018395232, 0.00035498253, -64250.555, -64250.555, 0.0, 2.500475, 2.498785 
2.2379245e+2, 3.373002e+1, -63564.527, -573181.8, -231.65465, -0.000016256072, 0.00014902631, -63564.42, -63564.42, 0.0, 2.500475, 2.4987874 
2.2379245e+2, 3.622881e+1, -63593.406, -573253.5, -259.3681, -0.000011919342, -0.00006026023, -63593.277, -63593.277, 0.0, 2.500475, 2.4987874 
2.2379245e+2, 3.8727596e+1, -63624.83, -573326.44, -288.33698, -0.000005887281, -0.00026929093, -63624.668, -63624.668, 0.0, 2.500475, 2.4987872 
2.2379246e+2, 4.122646e+1, -21820.547, -486704.9, 664.9611, 0.000034387504, 0.00016065294, -21819.596, -21819.596, 0.0, 2.5004752, 2.4989357 
2.2379246e+2, 4.3725398e+1, -21095.766, -484803.4, -142.41824, 0.000011539991, 0.000027789309, -21095.723, -21095.723, 0.0, 2.5004747, 2.4989393 
2.2379246e+2, 4.6224338e+1, -21385.393, -485000.94, -147.15884, -0.00001249906, -0.00011178035, -21385.346, -21385.346, 0.0, 2.5004742, 2.498939 
2.2379246e+2, 4.8723277e+1, -21677.719, -485199.75, -152.98853, -0.00003724805, -0.00025237826, -21677.668, -21677.668, 0.0, 2.5004737, 2.498939 
2.2379246e+2, 5.1222295e+1, 19897.844, -399269.34, 496.7157, -0.00004231345, 0.0003639694, 19898.432, 19898.432, 0.0, 2.5004742, 2.4990861 
2.2379246e+2, 5.3721386e+1, 21368.084, -396403.8, -62.91512, -0.0000073575234, 0.00018798564, 21368.092, 21368.092, 0.0, 2.5004745, 2.499091 
2.2379246e+2, 5.622047e+1, 21450.521, -396410.5, -78.139656, 0.000030070678, 0.0000011306652, 21450.535, 21450.535, 0.0, 2.5004747, 2.499091 
2.2379246e+2, 5.8719563e+1, 21529.95, -396418.66, -94.33404, 0.00006981537, -0.00018803077, 21529.97, 21529.97, 0.0, 2.500475, 2.4990907 
2.2379248e+2, 6.121873e+1, 62541.496, -311604.88, 245.72249, 0.00015755255, 0.00038455604, 62541.656, 62541.656, 0.0, 2.5004754, 2.499236 
2.2379248e+2, 6.3717973e+1, 64288.313, -307817.34, 174.84634, 0.00002852207, 0.00008839339, 64288.395, 64288.395, 0.0, 2.5004752, 2.4992428 
2.2379248e+2, 6.621721e+1, 64161.926, -307911.6, 175.03554, -0.00010624973, -0.00021842783, 64162.008, 64162.008, 0.0, 2.500475, 2.4992425 
2.2379248e+2, 6.8716455e+1, 64032.19, -308007.47, 174.30316, -0.0002452202, -0.00052572787, 64032.273, 64032.273, 0.0, 2.5004747, 2.4992425 
2.2379248e+2, 7.1215767e+1, 104486.35, -224435.28, -121.51453, 0.000042817846, 0.000276889, 104486.39, 104486.39, 0.0, 2.5004752, 2.4993858 
2.2379248e+2, 7.371516e+1, 107094.914, -219170.05, 346.79495, 0.000084364314, 0.0001730295, 107095.28, 107095.28, 0.0, 2.5004754, 2.4993947 
2.237925e+2, 7.6214564e+1, 107167.6, -219159.33, 317.72647, 0.00012063622, 0.000057884834, 107167.91, 107167.91, 0.0, 2.5004756, 2.4993947 
2.237925e+2, 7.8713953e+1, 107235.45, -219150.95, 288.40332, 0.00015633799, -0.000054774388, 107235.71, 107235.71, 0.0, 2.5004756, 2.4993947 
2.237925e+2, 8.1213415e+1, 146913.06, -137483.3, -457.18872, 0.00012371794, 0.0003613011, 146913.8, 146913.8, 0.0, 2.5004766, 2.4995344 
2.237925e+2, 8.371296e+1, 150424.33, -130471.79, 510.5872, -0.00009871859, -0.000054570035, 150425.25, 150425.25, 0.0, 2.5004768, 2.4995463 
2.237925e+2, 8.6212504e+1, 150585.97, -130400.26, 498.78622, -0.00031945022, -0.00047694746, 150586.84, 150586.84, 0.0, 2.500477, 2.4995463 
2.237925e+2, 8.871204e+1, 150740.27, -130332.26, 486.68155, -0.00053761393, -0.0008962341, 150741.11, 150741.11, 0.0, 2.5004773, 2.4995463 
2.2379251e+2, 9.1211665e+1, 189617.47, -50712.316, -660.8002, 0.00060857, 0.00081433693, 189619.28, 189619.28, 0.0, 2.5004787, 2.4996824 
2.2379251e+2, 9.371136e+1, 194269.69, -41093.07, 569.0742, 0.00032675796, 0.0004470219, 194271.06, 194271.06, 0.0, 2.5004787, 2.4996989 
2.2379251e+2, 9.621105e+1, 194278.9, -41085.266, 490.0069, 0.0000028960428, 0.000046678157, 194279.94, 194279.94, 0.0, 2.5004787, 2.4996989 
2.2379251e+2, 9.8710746e+1, 194275.28, -41083.65, 411.30106, -0.00034047762, -0.00035418634, 194276.0, 194276.0, 0.0, 2.5004787, 2.4996989 
2.2629291e+2, 1.2491678e+0, -190933.23, -837897.7, 75.13085, -0.000087745575, -0.0000014386806, -190933.23, -190933.23, 0.0, 2.500475, 2.4983335 
2.2629291e+2, 3.7475032e+0, -191183.11, -838367.9, -19.09463, -0.000029278057, -0.000004017549, -191183.11, -191183.11, 0.0, 2.500475, 2.4983327 
2.2629291e+2, 6.2458384e+0, -191223.92, -838399.3, -36.64018, 0.000022388336, -0.0000061976875, -191223.92, -191223.92, 0.0, 2.500475, 2.4983325 
2.2629291e+2, 8.744174e+0, -191267.5, -838432.1, -54.30956, 0.00006725378, -0.000007979247, -191267.48, -191267.48, 0.0, 2.5004747, 2.4983325 
2.2629292e+2, 1.12425864e+1, -148792.13, -750401.06, 397.3425, -0.0000030630858, 0.00015344232, -148791.86, -148791.86, 0.0, 2.500475, 2.4984834 
2.2629292e+2, 1.3741072e+1, -148559.81, -749903.0, -155.97765, -0.00000789987, 0.000071035436, -148559.78, -148559.78, 0.0, 2.500475, 2.4984844 
2.2629292e+2, 1.6239557e+1, -148592.94, -749951.06, -178.6767, -0.000017174943, -0.0000111335485, -148592.89, -148592.89, 0.0, 2.500475, 2.4984841 
2.2629292e+2, 1.8738045e+1, -148628.88, -750000.5, -202.1884, -0.000031124728, -0.00009256523, -148628.81, -148628.81, 0.0, 2.500475, 2.4984841 
2.2629292e+2, 2.1236606e+1, -106373.52, -662385.4, 590.00903, -0.000062206134, 0.00014294338, -106372.9, -106372.9, 0.0, 2.5004752, 2.4986343 
2.2629292e+2, 2.3735245e+1, -106091.73, -661563.25, -257.33255, -0.00004424127, 0.0000550073, -106091.61, -106091.61, 0.0, 2.500475, 2.4986358 
2.2629292e+2, 2.6233882e+1, -106275.06, -661702.6, -265.53925, -0.000029920911, -0.00003463196, -106274.93, -106274.93, 0.0, 2.5004747, 2.4986358 
2.2629292e+2, 2.8732517e+1, -106460.33, -661843.0, -274.6848, -0.000019400091, -0.00012434227, -106460.19, -106460.19, 0.0, 2.5004745, 2.4986355 
2.2629292e+2, 3.1231233e+1, -64245.813, -574677.6, 751.37885, -0.00007361504, 0.0002556321, -64244.707, -64244.707, 0.0, 2.500475, 2.4987848 
2.2629292e+2, 3.3730018e+1, -63526.766, -573210.94, -237.1385, -0.00003652161, 0.00012257061, -63526.656, -63526.656, 0.0, 2.500475, 2.4987874 
2.2629292e+2, 3.622881e+1, -63553.95, -573285.5, -261.91016, -0.000003938152, -0.000014106631, -63553.816, -63553.816, 0.0, 2.500475, 2.4987872 
2.2629292e+2, 3.8727596e+1, -63583.676, -573361.3, -287.93723, 0.00002357592, -0.00015079079, -63583.51, -63583.51, 0.0, 2.500475, 2.4987872 
2.2629294e+2, 4.122646e+1, -21748.025, -486699.6, 653.74347, 0.00006164821, 0.00030998414, -21747.105, -21747.105, 0.0, 2.5004752, 2.4989357 
2.2629294e+2, 4.3725398e+1, -20987.092, -484728.75, -212.9515, 0.000005186153, 0.0001336153, -20986.992, -20986.992, 0.0, 2.500475, 2.4989393 
2.2629294e+2, 4.6224338e+1, -21275.404, -484929.13, -214.71469, -0.00005954813, -0.000048943828, -21275.305, -21275.305, 0.0, 2.5004745, 2.498939 
2.2629294e+2, 4.8723277e+1, -21566.418, -485130.78, -217.56693, -0.00013200179, -0.00023184686, -21566.316, -21566.316, 0.0, 2.500474, 2.498939 
2.2629294e+2, 5.1222295e+1, 19960.002, -399335.9, 604.3953, -0.00015091346, 0.0003607603, 19960.873, 19960.873, 0.0, 2.5004745, 2.499086 
2.2629294e+2, 5.372138e+1, 21495.322, -396340.72, -37.93178, -0.000057214333, 0.00014288843, 21495.326, 21495.326, 0.0, 2.5004747, 2.499091 
2.2629294e+2, 5.622047e+1, 21577.775, -396352.63, -49.749947, 0.000031652507, -0.000084745545, 21577.781, 21577.781, 0.0, 2.500475, 2.499091 
2.2629295e+2, 5.8719563e+1, 21657.22, -396366.0, -62.537964, 0.00011531934, -0.00031333594, 21657.23, 21657.23, 0.0, 2.5004752, 2.4990907 
2.2629295e+2, 6.121873e+1, 62672.02, -311566.84, 268.42566, 0.00021710925, 0.00028670862, 62672.21, 62672.21, 0.0, 2.5004756, 2.499236 
2.2629295e+2, 6.3717973e+1, 64466.18, -307685.6, 145.73967, 0.000053550742, 0.000064486994, 64466.24, 64466.24, 0.0, 2.5004754, 2.4992428 
2.2629295e+2, 6.621721e+1, 64342.11, -307779.5, 149.51163, -0.00012343422, -0.0001679539, 64342.17, 64342.17, 0.0, 2.5004752, 2.4992428 
2.2629295e+2, 6.8716455e+1, 64214.695, -307875.03, 152.362, -0.00031213346, -0.00040029475, 64214.758, 64214.758, 0.0, 2.500475, 2.4992428 
2.2629295e+2, 7.1215767e+1, 104595.57, -224468.89, -38.244354, -0.000036269328, 0.00040440125, 104595.58, 104595.58, 0.0, 2.5004756, 2.4993856 
2.2629297e+2, 7.371516e+1, 107240.01, -219133.97, 370.987, 0.00004351791, 0.00022200616, 107240.43, 107240.43, 0.0, 2.5004756, 2.4993947 
2.2629297e+2, 7.621455e+1, 107314.13, -219125.0, 346.0125, 0.00010723902, 0.00002894667, 107314.5, 107314.5, 0.0, 2.500476, 2.4993947 
2.2629297e+2, 7.8713953e+1, 107383.43, -219118.38, 320.7834, 0.00015952655, -0.00016094737, 107383.75, 107383.75, 0.0, 2.5004761, 2.4993947 
2.2629297e+2, 8.121341e+1, 147073.34, -137428.05, -348.08807, 0.00016592734, 0.0002420595, 147073.77, 147073.77, 0.0, 2.5004768, 2.4995344 
2.2629297e+2, 8.3712953e+1, 150627.64, -130334.02, 556.82947, -0.000083176295, -0.0001679816, 150628.75, 150628.75, 0.0, 2.500477, 2.4995465 
2.2629297e+2, 8.621249e+1, 150797.34, -130252.625, 550.9673, -0.00034702543, -0.00058622967, 150798.44, 150798.44, 0.0, 2.5004776, 2.4995465 
2.2629298e+2, 8.8712037e+1, 150959.72, -130174.76, 544.80145, -0.00062412006, -0.0010027386, 150960.78, 150960.78, 0.0, 2.5004778, 2.4995465 
2.2629298e+2, 9.1211665e+1, 189671.44, -50892.39, -542.2973, 0.0004898041, 0.0007347092, 189672.67, 189672.67, 0.0, 2.500479, 2.499682 
2.2629298e+2, 9.371136e+1, 194379.89, -41160.957, 587.6634, 0.00026177775, 0.00039289775, 194381.36, 194381.36, 0.0, 2.500479, 2.4996986 
2.26293e+2, 9.621105e+1, 194395.31, -41145.066, 519.48694, -0.000035398174, 0.000016915403, 194396.45, 194396.45, 0.0, 2.500479, 2.4996986 
2.26293e+2, 9.871074e+1, 194397.88, -41135.363, 451.67197, -0.00037964853, -0.00036048001, 194398.75, 194398.75, 0.0, 2.500479, 2.4996986 
2.2879338e+2, 1.2491677e+0, -193646.56, -839257.4, 59.825592, -0.00015528752, -0.000007931222, -193646.56, -193646.56, 0.0, 2.5004704, 2.4983332 
2.287934e+2, 3.7475032e+0, -193739.5, -839661.5, -34.139626, -0.00006569451, -0.000022974717, -193739.48, -193739.48, 0.0, 2.5004706, 2.4983325 
2.287934e+2, 6.2458384e+0, -193713.16, -839663.7, -47.661655, 0.0000038321828, -0.00003692551, -193713.16, -193713.16, 0.0, 2.5004706, 2.4983325 
2.287934e+2, 8.744173e+0, -193783.4, -839712.5, -59.45928, 0.00005329278, -0.00004978376, -193783.39, -193783.39, 0.0, 2.5004706, 2.4983325 
2.287934e+2, 1.1242585e+1, -151243.4, -751673.94, 417.232, -0.000031479936, 0.00013960432, -151243.11, -151243.11, 0.0, 2.5004709, 2.4984832 
2.287934e+2, 1.3741072e+1, -150821.33, -751068.3, -197.30412, -0.000029957775, 0.000098159915, -150821.27, -150821.27, 0.0, 2.500471, 2.4984841 
2.287934e+2, 1.6239557e+1, -150748.44, -751067.44, -240.70793, -0.000043160613, 0.00005695671, -150748.33, -150748.33, 0.0, 2.5004714, 2.4984841 
2.287934e+2, 1.8738045e+1, -150750.66, -751102.75, -288.43405, -0.000071370494, 0.000016526106, -150750.52, -150750.52, 0.0, 2.5004714, 2.498484 
2.287934e+2, 2.1236606e+1, -108333.43, -663384.2, 478.07574, -0.00010551027, 0.00025203594, -108333.02, -108333.02, 0.0, 2.5004718, 2.498634 
2.287934e+2, 2.3735243e+1, -107780.266, -662391.3, -435.78345, -0.00008174388, 0.00008949684, -107779.92, -107779.92, 0.0, 2.500472, 2.4986358 
2.287934e+2, 2.623388e+1, -107772.69, -662443.5, -465.13013, -0.000068845264, -0.00007487223, -107772.3, -107772.3, 0.0, 2.500472, 2.4986358 
2.287934e+2, 2.8732514e+1, -107819.375, -662521.9, -497.96854, -0.00006695806, -0.00023935804, -107818.93, -107818.93, 0.0, 2.500472, 2.4986355 
2.287934e+2, 3.123123e+1, -65474.586, -575385.9, 633.14417, -0.00013516626, 0.00015587118, -65473.8, -65473.8, 0.0, 2.500473, 2.4987845 
2.287934e+2, 3.3730018e+1, -64501.754, -573729.7, -487.90546, -0.00006236844, 0.00009256875, -64501.285, -64501.285, 0.0, 2.5004733, 2.4987872 
2.287934e+2, 3.6228806e+1, -64368.844, -573730.9, -546.49536, -0.00000033956312, 0.00002531182, -64368.258, -64368.258, 0.0, 2.5004737, 2.4987872 
2.287934e+2, 3.8727596e+1, -64287.668, -573757.0, -609.3215, 0.000050163297, -0.000042164604, -64286.938, -64286.938, 0.0, 2.5004737, 2.498787 
2.2879341e+2, 4.122646e+1, -22254.768, -486990.22, 289.43466, 0.000097488206, 0.00045705534, -22254.588, -22254.588, 0.0, 2.5004745, 2.4989355 
2.2879341e+2, 4.3725398e+1, -21226.422, -484822.8, -664.4255, 0.000007041052, 0.00023407774, -21225.469, -21225.469, 0.0, 2.5004745, 2.4989393 
2.2879341e+2, 4.6224338e+1, -21372.117, -484958.0, -692.7862, -0.00009837042, 0.000005356279, -21371.082, -21371.082, 0.0, 2.5004742, 2.498939 
2.2879341e+2, 4.8723274e+1, -21600.545, -485133.03, -725.4644, -0.00021801528, -0.0002230079, -21599.408, -21599.408, 0.0, 2.500474, 2.498939 
2.2879341e+2, 5.1222295e+1, 19952.963, -399464.34, 233.36375, -0.00026411234, 0.00035990088, 19953.092, 19953.092, 0.0, 2.5004747, 2.4990857 
2.2879341e+2, 5.372138e+1, 21712.566, -396235.3, -549.0003, -0.00011091398, 0.00009617442, 21713.287, 21713.287, 0.0, 2.5004752, 2.499091 
2.2879341e+2, 5.622047e+1, 21864.031, -396219.2, -609.6046, 0.000030629777, -0.00017637001, 21864.92, 21864.92, 0.0, 2.5004754, 2.499091 
2.2879343e+2, 5.871956e+1, 21939.441, -396239.72, -672.2489, 0.00015978304, -0.0004485099, 21940.523, 21940.523, 0.0, 2.5004756, 2.4990907 
2.2879343e+2, 6.1218727e+1, 62936.24, -311490.88, -394.61868, 0.00028332268, 0.00019452353, 62936.652, 62936.652, 0.0, 2.5004761, 2.4992359 
2.2879343e+2, 6.371797e+1, 64782.703, -307487.53, -610.6472, 0.00008377502, 0.000041909385, 64783.703, 64783.703, 0.0, 2.500476, 2.499243 
2.2879343e+2, 6.621721e+1, 64563.977, -307627.88, -646.72876, -0.000136471, -0.00012068284, 64565.1, 64565.1, 0.0, 2.5004756, 2.4992428 
2.2879343e+2, 6.8716455e+1, 64256.258, -307811.06, -687.32983, -0.00037544323, -0.00028258146, 64257.527, 64257.527, 0.0, 2.500475, 2.4992428 
2.2879343e+2, 7.1215767e+1, 104423.414, -224662.6, -812.0382, -0.00010664611, 0.0005366461, 104425.42, 104425.42, 0.0, 2.5004754, 2.4993854 
2.2879344e+2, 7.371516e+1, 107039.43, -219263.08, -488.95068, 0.000009436365, 0.00027312947, 107040.164, 107040.164, 0.0, 2.5004754, 2.4993947 
2.2879344e+2, 7.621455e+1, 106917.35, -219350.92, -533.3133, 0.0000992349, -0.00000070607183, 106918.23, 106918.23, 0.0, 2.5004752, 2.4993947 
2.2879344e+2, 7.871394e+1, 106673.164, -219497.56, -574.42944, 0.00016737137, -0.00027077954, 106674.17, 106674.17, 0.0, 2.500475, 2.4993944 
2.2879344e+2, 8.121341e+1, 146068.55, -137952.88, -1160.0455, 0.0002161546, 0.00012940017, 146073.28, 146073.28, 0.0, 2.5004752, 2.4995344 
2.2879346e+2, 8.3712953e+1, 149396.58, -130883.66, -286.6136, -0.000067901, -0.0002791658, 149396.88, 149396.88, 0.0, 2.500475, 2.4995465 
2.2879346e+2, 8.621249e+1, 149138.03, -131002.734, -265.9713, -0.00038229945, -0.00069783063, 149138.28, 149138.28, 0.0, 2.5004745, 2.4995465 
2.2879346e+2, 8.8712037e+1, 148719.22, -131199.02, -254.36974, -0.0007248545, -0.0011161207, 148719.44, 148719.44, 0.0, 2.5004737, 2.4995465 
2.2879347e+2, 9.1211665e+1, 186802.9, -52522.113, -1242.9569, 0.00041198777, 0.00067253347, 186809.36, 186809.36, 0.0, 2.5004742, 2.4996815 
2.2879347e+2, 9.371135e+1, 191182.4, -42816.008, -123.51942, 0.00023043646, 0.00035003913, 191182.47, 191182.47, 0.0, 2.5004737, 2.4996984 
2.2879347e+2, 9.6211046e+1, 190426.44, -43167.063, -114.548996, -0.00004598227, -0.000008291576, 190426.48, 190426.48, 0.0, 2.5004723, 2.4996984 
2.2879347e+2, 9.871074e+1, 189295.6, -43698.645, -118.20461, -0.00039477643, -0.0003690378, 189295.64, 189295.64, 0.0, 2.5004704, 2.4996984 
2.3129386e+2, 1.24916755e+0, -190618.23, -837869.7, 78.61145, 0.000028193466, -0.000015798209, -190618.22, -190618.22, 0.0, 2.5004756, 2.4983332 
2.3129387e+2, 3.7475026e+0, -190868.31, -838352.6, -36.632126, 0.000057741843, -0.000047830905, -190868.31, -190868.31, 0.0, 2.5004756, 2.4983323 
2.3129387e+2, 6.245838e+0, -190901.9, -838382.75, -71.42308, 0.00010381421, -0.000080444515, -190901.89, -190901.89, 0.0, 2.5004756, 2.4983323 
2.3129387e+2, 8.744172e+0, -190937.4, -838413.75, -106.406296, 0.00016641078, -0.000113639195, -190937.39, -190937.39, 0.0, 2.5004754, 2.4983323 
2.3129387e+2, 1.1242584e+1, -148543.34, -750453.3, 455.78787, 0.00007964247, 0.00006990401, -148543.0, -148543.0, 0.0, 2.5004756, 2.498483 
2.3129387e+2, 1.374107e+1, -148377.02, -749978.44, -180.4906, 0.00006614898, 0.00004304037, -148376.95, -148376.95, 0.0, 2.5004754, 2.498484 
2.3129387e+2, 1.6239557e+1, -148486.89, -750074.56, -204.93542, 0.00006446858, 0.000016612657, -148486.81, -148486.81, 0.0, 2.5004754, 2.498484 
2.3129387e+2, 1.8738043e+1, -148598.16, -750171.3, -230.00069, 0.00007430844, -0.000008852262, -148598.06, -148598.06, 0.0, 2.5004752, 2.4984837 
2.3129387e+2, 2.1236604e+1, -106232.73, -662491.0, 642.7512, 0.000027084354, 0.00022703911, -106231.984, -106231.984, 0.0, 2.5004756, 2.4986339 
2.3129387e+2, 2.3735242e+1, -105847.875, -661561.5, -345.05487, 0.000018969155, 0.000036917856, -105847.664, -105847.664, 0.0, 2.5004754, 2.4986355 
2.3129387e+2, 2.6233876e+1, -105973.06, -661686.56, -385.07416, 0.00001645167, -0.00015202125, -105972.8, -105972.8, 0.0, 2.5004752, 2.4986355 
2.3129387e+2, 2.8732514e+1, -106099.86, -661812.3, -426.21445, 0.000019282756, -0.00033802656, -106099.53, -106099.53, 0.0, 2.5004752, 2.4986353 
2.3129387e+2, 3.1231225e+1, -64137.625, -574844.56, 842.4575, -0.000051900217, 0.000055842902, -64136.24, -64136.24, 0.0, 2.5004754, 2.4987843 
2.3129387e+2, 3.3730015e+1, -63588.773, -573356.94, -324.40344, 0.000014688003, 0.000006661082, -63588.566, -63588.566, 0.0, 2.500475, 2.4987872 
2.3129389e+2, 3.6228803e+1, -63857.594, -573561.6, -339.78998, 0.000085724474, -0.000044345743, -63857.367, -63857.367, 0.0, 2.5004747, 2.498787 
2.3129389e+2, 3.8727593e+1, -64128.246, -573767.2, -356.53647, 0.00016044205, -0.000093415685, -64127.996, -64127.996, 0.0, 2.5004742, 2.4987867 
2.3129389e+2, 4.1226456e+1, -22219.633, -487105.66, 648.57684, 0.00018841689, 0.00042516863, -22218.729, -22218.729, 0.0, 2.5004747, 2.4989352 
2.3129389e+2, 4.3725395e+1, -21130.072, -484845.47, -395.85342, 0.000077296936, 0.0001926423, -21129.734, -21129.734, 0.0, 2.5004747, 2.498939 
2.3129389e+2, 4.6224335e+1, -21181.652, -484945.84, -436.44034, -0.000024862446, -0.000045443376, -21181.242, -21181.242, 0.0, 2.5004747, 2.498939 
2.3129389e+2, 4.872327e+1, -21236.15, -485047.63, -478.33316, -0.000117472555, -0.00028284942, -21235.656, -21235.656, 0.0, 2.5004747, 2.4989388 
2.3129389e+2, 5.122229e+1, 20004.666, -399572.28, 635.05664, -0.00015774537, 0.0003087268, 20005.627, 20005.627, 0.0, 2.500475, 2.4990854 
2.3129389e+2, 5.3721374e+1, 21365.74, -396452.06, -176.22078, -0.000039056136, 0.000058349113, 21365.814, 21365.814, 0.0, 2.5004745, 2.499091 
2.312939e+2, 5.6220466e+1, 21136.94, -396626.4, -194.97853, 0.000083362924, -0.00020102301, 21137.031, 21137.031, 0.0, 2.5004742, 2.4990907 
2.312939e+2, 5.871956e+1, 20905.291, -396802.1, -214.82849, 0.00020885642, -0.0004600669, 20905.4, 20905.4, 0.0, 2.500474, 2.4990907 
2.312939e+2, 6.121872e+1, 61796.242, -312120.53, 159.39034, 0.0003294285, 0.0002144287, 61796.31, 61796.31, 0.0, 2.5004742, 2.4992359 
2.312939e+2, 6.371796e+1, 63876.258, -307937.25, -101.70571, 0.0001309901, 0.00007845454, 63876.285, 63876.285, 0.0, 2.5004742, 2.499243 
2.312939e+2, 6.62172e+1, 63929.09, -307956.28, -130.17287, -0.000062735904, -0.00006824848, 63929.133, 63929.133, 0.0, 2.5004745, 2.4992428 
2.312939e+2, 6.871645e+1, 63978.742, -307976.8, -159.5932, -0.00024972475, -0.00021480034, 63978.813, 63978.813, 0.0, 2.5004747, 2.4992428 
2.3129392e+2, 7.1215767e+1, 104262.445, -224780.44, -149.64914, 0.000025648831, 0.00062960276, 104262.516, 104262.516, 0.0, 2.5004752, 2.4993854 
2.3129392e+2, 7.3715156e+1, 107034.75, -219248.1, 142.29243, 0.00008719638, 0.00038253213, 107034.81, 107034.81, 0.0, 2.5004754, 2.4993947 
2.3129392e+2, 7.6214546e+1, 107154.445, -219216.48, 108.51787, 0.00015288302, 0.000119849115, 107154.484, 107154.484, 0.0, 2.5004756, 2.4993947 
2.3129392e+2, 7.8713936e+1, 107270.24, -219186.77, 74.18017, 0.00022747212, -0.0001442365, 107270.26, 107270.26, 0.0, 2.500476, 2.4993944 
2.3129393e+2, 8.12134e+1, 146763.39, -137475.03, -470.1415, 0.00030044126, 0.0002803973, 146764.16, 146764.16, 0.0, 2.5004761, 2.4995346 
2.3129393e+2, 8.371294e+1, 150301.05, -130282.88, 283.18744, -0.0000062204676, -0.00010013405, 150301.33, 150301.33, 0.0, 2.5004764, 2.499547 
2.3129393e+2, 8.6212486e+1, 150389.48, -130246.445, 221.69513, -0.00029949643, -0.0004917046, 150389.66, 150389.66, 0.0, 2.5004766, 2.499547 
2.3129393e+2, 8.871203e+1, 150472.39, -130212.67, 160.1839, -0.00057666353, -0.00088369066, 150472.48, 150472.48, 0.0, 2.5004766, 2.499547 
2.3129395e+2, 9.121165e+1, 189159.25, -51151.555, -664.3689, 0.00054698176, 0.00093961036, 189161.08, 189161.08, 0.0, 2.500478, 2.499682 
2.3129395e+2, 9.371135e+1, 194224.11, -41128.426, 246.01556, 0.00033043424, 0.0006052786, 194224.36, 194224.36, 0.0, 2.5004787, 2.4996989 
2.3129395e+2, 9.6211046e+1, 194504.05, -41004.926, 161.01935, 0.00012472173, 0.00022995842, 194504.16, 194504.16, 0.0, 2.5004792, 2.4996989 
2.3129395e+2, 9.8710734e+1, 194766.78, -40889.707, 76.829636, -0.000047710233, -0.0001524925, 194766.8, 194766.8, 0.0, 2.5004797, 2.4996989 
2.3379435e+2, 1.2491675e+0, -190665.53, -837968.3, 66.98732, -0.00000906175, -0.0000138393125, -190665.53, -190665.53, 0.0, 2.5004756, 2.498333 
2.3379435e+2, 3.7475023e+0, -190916.97, -838454.9, -46.91698, 0.0000113020305, -0.000041470652, -190916.97, -190916.97, 0.0, 2.5004756, 2.4983323 
2.3379435e+2, 6.245837e+0, -190950.84, -838486.3, -78.53489, 0.000038801016, -0.00006903815, -190950.83, -190950.83, 0.0, 2.5004756, 2.498332 
2.3379435e+2, 8.744172e+0, -190986.63, -838518.7, -110.345055, 0.000073435454, -0.00009654195, -190986.61, -190986.61, 0.0, 2.5004754, 2.498332 
2.3379435e+2, 1.12425834e+1, -148551.27, -750489.3, 456.467, -0.0000010561284, 0.00007449497, -148550.92, -148550.92, 0.0, 2.5004756, 2.498483 
2.3379435e+2, 1.374107e+1, -148392.16, -750033.0, -206.66277, 0.000007571539, 0.000048719383, -148392.08, -148392.08, 0.0, 2.5004754, 2.498484 
2.3379435e+2, 1.6239555e+1, -148501.05, -750130.6, -228.3905, 0.00002201499, 0.000023924109, -148500.97, -148500.97, 0.0, 2.5004754, 2.4984837 
2.3379435e+2, 1.873804e+1, -148611.33, -750228.9, -250.73866, 0.00004202282, 0.0000005981683, -148611.23, -148611.23, 0.0, 2.5004752, 2.4984837 
2.3379435e+2, 2.1236604e+1, -106249.37, -662585.2, 686.8538, -0.000033402925, 0.0002486057, -106248.516, -106248.516, 0.0, 2.5004756, 2.4986339 
2.3379435e+2, 2.3735242e+1, -105856.94, -661647.5, -373.17474, -0.00002439316, 0.000080832186, -105856.69, -105856.69, 0.0, 2.5004754, 2.4986355 
2.3379435e+2, 2.6233876e+1, -105979.22, -661773.94, -410.88382, -0.000014373897, -0.00008620825, -105978.914, -105978.914, 0.0, 2.5004754, 2.4986353 
2.3379435e+2, 2.873251e+1, -106103.11, -661901.1, -449.71393, -0.000003814851, -0.0002507652, -106102.75, -106102.75, 0.0, 2.5004752, 2.498635 
2.3379436e+2, 3.1231225e+1, -64074.145, -574827.4, 847.899, -0.000050021965, 0.00012458886, -64072.74, -64072.74, 0.0, 2.5004754, 2.4987843 
2.3379436e+2, 3.3730015e+1, -63510.477, -573318.2, -386.8659, -0.00001540585, 0.000047557205, -63510.184, -63510.184, 0.0, 2.5004752, 2.4987872 
2.3379436e+2, 3.6228803e+1, -63776.26, -573525.56, -400.08005, 0.00001839469, -0.000031460386, -63775.95, -63775.95, 0.0, 2.5004747, 2.498787 
2.3379436e+2, 3.8727587e+1, -64043.875, -573733.9, -414.65414, 0.000050874347, -0.00010878416, -64043.535, -64043.535, 0.0, 2.5004745, 2.4987867 
2.3379436e+2, 4.1226456e+1, -22188.307, -487219.06, 729.2369, 0.000040875606, 0.00040375502, -22187.162, -22187.162, 0.0, 2.500475, 2.498935 
2.3379436e+2, 4.3725392e+1, -21047.225, -484859.16, -400.83405, 0.000010344033, 0.00017887235, -21046.877, -21046.877, 0.0, 2.500475, 2.498939 
2.3379436e+2, 4.6224332e+1, -21097.098, -484963.03, -438.1647, -0.000018574197, -0.000050712024, -21096.684, -21096.684, 0.0, 2.500475, 2.4989388 
2.3379436e+2, 4.8723266e+1, -21149.89, -485068.3, -476.80127, -0.000045813595, -0.0002787086, -21149.4, -21149.4, 0.0, 2.500475, 2.4989386 
2.3379436e+2, 5.122228e+1, 20137.992, -399532.06, 629.76575, -0.000043304426, 0.00031471901, 20138.938, 20138.938, 0.0, 2.5004752, 2.4990854 
2.3379438e+2, 5.3721374e+1, 21529.885, -396353.38, -227.40071, -0.000006785891, 0.000102057784, 21530.008, 21530.008, 0.0, 2.5004747, 2.499091 
2.3379438e+2, 5.622046e+1, 21301.645, -396531.75, -242.81548, 0.000025086641, -0.00011805754, 21301.785, 21301.785, 0.0, 2.5004745, 2.4990907 
2.3379438e+2, 5.871955e+1, 21070.555, -396711.53, -259.32245, 0.000052254298, -0.00033650952, 21070.715, 21070.715, 0.0, 2.5004742, 2.4990907 
2.3379438e+2, 6.121872e+1, 61933.18, -312113.53, 222.01367, 0.00014588448, 0.00032412403, 61933.31, 61933.31, 0.0, 2.5004745, 2.4992356 
2.3379438e+2, 6.371796e+1, 64050.375, -307858.3, -79.08015, 0.00003844353, 0.000112651476, 64050.39, 64050.39, 0.0, 2.5004747, 2.4992428 
2.3379438e+2, 6.62172e+1, 64103.87, -307881.1, -104.375916, -0.00007124007, -0.00010895029, 64103.902, 64103.902, 0.0, 2.5004747, 2.4992428 
2.3379438e+2, 6.8716437e+1, 64154.19, -307905.4, -130.62488, -0.00018139135, -0.00032973016, 64154.24, 64154.24, 0.0, 2.500475, 2.4992428 
2.3379439e+2, 7.121576e+1, 104431.086, -224731.75, -86.62869, 0.00011405726, 0.00049592834, 104431.11, 104431.11, 0.0, 2.5004754, 2.499385 
2.3379439e+2, 7.371515e+1, 107221.57, -219165.14, 179.11554, 0.00011256442, 0.00029170176, 107221.664, 107221.664, 0.0, 2.5004756, 2.4993947 
2.3379439e+2, 7.6214546e+1, 107342.3, -219134.86, 148.54494, 0.000106741005, 0.00007244467, 107342.37, 107342.37, 0.0, 2.500476, 2.4993947 
2.337944e+2, 7.8713936e+1, 107459.125, -219106.47, 117.41119, 0.000101578684, -0.00014760833, 107459.164, 107459.164, 0.0, 2.5004761, 2.4993944 
2.337944e+2, 8.12134e+1, 146926.94, -137449.53, -447.8536, 0.00018355239, 0.00028471684, 146927.64, 146927.64, 0.0, 2.5004766, 2.4995346 
2.337944e+2, 8.371294e+1, 150459.2, -130270.32, 315.05594, -0.00006657687, -0.000090592424, 150459.56, 150459.56, 0.0, 2.5004766, 2.4995468 
2.337944e+2, 8.6212486e+1, 150548.97, -130232.89, 257.41638, -0.00031524946, -0.00047538994, 150549.2, 150549.2, 0.0, 2.5004768, 2.4995468 
2.337944e+2, 8.871203e+1, 150633.22, -130198.12, 199.75786, -0.00055936846, -0.0008592641, 150633.36, 150633.36, 0.0, 2.500477, 2.4995468 
2.3379442e+2, 9.121165e+1, 189391.4, -51001.645, -471.40723, 0.0005226271, 0.00094659673, 189392.33, 189392.33, 0.0, 2.5004785, 2.4996822 
2.3379442e+2, 9.371134e+1, 194394.7, -41109.477, 340.5341, 0.0002936962, 0.00054884766, 194395.2, 194395.2, 0.0, 2.500479, 2.4996989 
2.3379442e+2, 9.6211034e+1, 194681.28, -40975.01, 269.07767, 0.000042663713, 0.000109312365, 194681.6, 194681.6, 0.0, 2.5004795, 2.4996989 
2.3379444e+2, 9.8710734e+1, 194950.67, -40848.83, 198.42776, -0.00020877934, -0.00033793354, 194950.83, 194950.83, 0.0, 2.50048, 2.4996989 
2.3629482e+2, 1.2491675e+0, -190713.13, -838067.56, 54.893898, -0.00004620434, -0.000012662348, -190713.13, -190713.13, 0.0, 2.5004756, 2.4983327 
2.3629482e+2, 3.747502e+0, -190966.69, -838559.25, -56.944466, -0.000034799905, -0.0000374562, -190966.67, -190966.67, 0.0, 2.5004756, 2.498332 
2.3629482e+2, 6.2458366e+0, -191000.84, -838592.1, -85.38933, -0.000025649044, -0.000061541454, -191000.83, -191000.83, 0.0, 2.5004756, 2.498332 
2.3629482e+2, 8.744172e+0, -191036.9, -838625.9, -114.02645, -0.000018751483, -0.00008491826, -191036.89, -191036.89, 0.0, 2.5004754, 2.4983318 
2.3629482e+2, 1.12425834e+1, -148569.16, -750546.0, 460.58188, -0.00008182727, 0.0000808673, -148568.8, -148568.8, 0.0, 2.5004756, 2.498483 
2.3629482e+2, 1.3741069e+1, -148408.47, -750090.0, -232.2061, -0.000051269904, 0.000052406587, -148408.38, -148408.38, 0.0, 2.5004756, 2.4984837 
2.3629482e+2, 1.6239555e+1, -148516.39, -750189.1, -251.21674, -0.000020891095, 0.000025447931, -148516.28, -148516.28, 0.0, 2.5004754, 2.4984837 
2.3629482e+2, 1.873804e+1, -148625.69, -750288.9, -270.8478, 0.000009096214, 0.00000046514367, -148625.56, -148625.56, 0.0, 2.5004752, 2.4984834 
2.3629482e+2, 2.1236603e+1, -106279.23, -662706.8, 735.46436, -0.00009173273, 0.00026983357, -106278.26, -106278.26, 0.0, 2.5004756, 2.4986336 
2.3629482e+2, 2.3735239e+1, -105866.99, -661735.6, -400.2044, -0.000065919456, 0.000121032535, -105866.7, -105866.7, 0.0, 2.5004756, 2.4986353 
2.3629482e+2, 2.6233876e+1, -105986.37, -661863.44, -435.6033, -0.000043699893, -0.000027540998, -105986.03, -105986.03, 0.0, 2.5004754, 2.498635 
2.3629482e+2, 2.873251e+1, -106107.36, -661992.06, -472.12323, -0.000025749334, -0.00017408138, -106106.96, -106106.96, 0.0, 2.5004754, 2.4986348 
2.3629484e+2, 3.1231225e+1, -64021.87, -574833.5, 858.01215, -0.000046685644, 0.00019103439, -64020.43, -64020.43, 0.0, 2.5004756, 2.4987843 
2.3629484e+2, 3.3730012e+1, -63433.016, -573281.2, -447.9413, -0.000043973832, 0.00008328452, -63432.625, -63432.625, 0.0, 2.5004752, 2.4987872 
2.3629484e+2, 3.6228803e+1, -63695.766, -573491.25, -458.98306, -0.000047348516, -0.000026687087, -63695.35, -63695.35, 0.0, 2.500475, 2.498787 
2.3629484e+2, 3.8727587e+1, -63960.34, -573702.25, -471.38474, -0.000057046072, -0.00013520796, -63959.902, -63959.902, 0.0, 2.5004745, 2.4987867 
2.3629484e+2, 4.1226453e+1, -22169.29, -487358.06, 815.5719, -0.00010561566, 0.00038102246, -22167.86, -22167.86, 0.0, 2.500475, 2.4989347 
2.3629484e+2, 4.3725392e+1, -20965.19, -484874.5, -404.43805, -0.00005543112, 0.00016029176, -20964.836, -20964.836, 0.0, 2.5004752, 2.4989388 
2.3629484e+2, 4.6224326e+1, -21013.357, -484981.9, -438.51242, -0.000010975453, -0.00006438876, -21012.943, -21012.943, 0.0, 2.5004752, 2.4989388 
2.3629484e+2, 4.8723266e+1, -21064.445, -485090.72, -473.89273, 0.000027288603, -0.0002865734, -21063.96, -21063.96, 0.0, 2.5004752, 2.4989386 
2.3629485e+2, 5.122228e+1, 20258.348, -399518.8, 630.666, 0.00007318986, 0.000320731, 20259.295, 20259.295, 0.0, 2.5004754, 2.4990852 
2.3629485e+2, 5.372137e+1, 21693.219, -396256.34, -277.34506, 0.000028314063, 0.00014182362, 21693.402, 21693.402, 0.0, 2.5004752, 2.499091 
2.3629485e+2, 5.622046e+1, 21465.54, -396438.78, -289.4168, -0.000029585864, -0.000043146425, 21465.738, 21465.738, 0.0, 2.5004747, 2.499091 
2.3629485e+2, 5.871955e+1, 21235.008, -396622.63, -302.58078, -0.000099969984, -0.00022511803, 21235.227, 21235.227, 0.0, 2.5004745, 2.4990907 
2.3629485e+2, 6.1218715e+1, 62053.324, -312141.4, 288.93112, -0.000036923364, 0.0004344144, 62053.547, 62053.547, 0.0, 2.5004747, 2.4992354 
2.3629485e+2, 6.3717955e+1, 64223.766, -307780.9, -55.303898, -0.00005233463, 0.00014380667, 64223.773, 64223.773, 0.0, 2.500475, 2.4992428 
2.3629485e+2, 6.62172e+1, 64277.93, -307807.44, -77.428276, -0.00007689441, -0.00015652082, 64277.945, 64277.945, 0.0, 2.5004752, 2.4992428 
2.3629487e+2, 6.8716437e+1, 64328.914, -307835.5, -100.50585, -0.00010912672, -0.00045535568, 64328.94, 64328.94, 0.0, 2.5004752, 2.4992425 
2.3629487e+2, 7.121576e+1, 104585.336, -224712.98, -23.248995, 0.00020785679, 0.00036324674, 104585.336, 104585.336, 0.0, 2.500476, 2.499385 
2.3629487e+2, 7.371515e+1, 107407.734, -219083.52, 216.63554, 0.00014302057, 0.0001989417, 107407.88, 107407.88, 0.0, 2.5004761, 2.4993947 
2.3629487e+2, 7.621454e+1, 107529.5, -219054.58, 189.26889, 0.000065376335, 0.000020000103, 107529.61, 107529.61, 0.0, 2.5004764, 2.4993947 
2.3629488e+2, 7.8713936e+1, 107647.37, -219027.52, 161.3391, -0.000019848165, -0.00015913075, 107647.445, 107647.445, 0.0, 2.5004766, 2.4993944 
2.3629488e+2, 8.1213397e+1, 147076.44, -137453.23, -427.90396, 0.00007555986, 0.0002891043, 147077.08, 147077.08, 0.0, 2.5004768, 2.4995344 
2.3629488e+2, 8.3712935e+1, 150616.84, -130258.83, 346.9703, -0.00012075842, -0.000083606734, 150617.27, 150617.27, 0.0, 2.500477, 2.4995465 
2.3629488e+2, 8.621248e+1, 150707.94, -130220.41, 293.18347, -0.0003276029, -0.0004644017, 150708.23, 150708.23, 0.0, 2.5004773, 2.4995465 
2.3629488e+2, 8.871202e+1, 150793.5, -130184.65, 239.37767, -0.0005414492, -0.00084293453, 150793.72, 150793.72, 0.0, 2.5004773, 2.4995465 
2.362949e+2, 9.1211647e+1, 189600.89, -50898.85, -281.41043, 0.0005301183, 0.0009665553, 189601.22, 189601.22, 0.0, 2.5004787, 2.4996822 
2.3629491e+2, 9.371134e+1, 194564.42, -41092.367, 433.494, 0.00028047778, 0.00049945404, 194565.22, 194565.22, 0.0, 2.5004795, 2.4996986 
2.3629491e+2, 9.621103e+1, 194857.64, -40946.938, 375.57736, -0.00002468246, -0.000010591746, 194858.25, 194858.25, 0.0, 2.50048, 2.4996986 
2.3629491e+2, 9.871072e+1, 195133.67, -40809.79, 318.46725, -0.00036394436, -0.000528928, 195134.11, 195134.11, 0.0, 2.5004804, 2.4996986 
2.387953e+2, 1.2491673e+0, -194084.06, -839771.25, 35.85442, -0.000077470344, -0.000012442187, -194084.05, -194084.05, 0.0, 2.50047, 2.4983327 
2.387953e+2, 3.747502e+0, -194226.56, -840214.9, -88.46413, -0.000075344185, -0.000036334786, -194226.55, -194226.55, 0.0, 2.5004702, 2.4983318 
2.387953e+2, 6.2458366e+0, -194200.69, -840220.0, -129.7215, -0.00008438654, -0.0000589042, -194200.67, -194200.67, 0.0, 2.5004702, 2.4983318 
2.387953e+2, 8.744171e+0, -194230.38, -840251.9, -172.09695, -0.00010459712, -0.00008015059, -194230.33, -194230.33, 0.0, 2.5004702, 2.4983318 
2.387953e+2, 1.1242583e+1, -151634.78, -752089.25, 396.48026, -0.00015715769, 0.00008731664, -151634.52, -151634.52, 0.0, 2.5004704, 2.4984827 
2.387953e+2, 1.3741069e+1, -151254.61, -751514.5, -349.78537, -0.00010545815, 0.000052220836, -151254.4, -151254.4, 0.0, 2.5004706, 2.4984837 
2.387953e+2, 1.6239554e+1, -151199.52, -751537.0, -390.14822, -0.00005960266, 0.000019128916, -151199.27, -151199.27, 0.0, 2.5004709, 2.4984834 
2.387953e+2, 1.8738039e+1, -151192.86, -751582.9, -434.1832, -0.000019768711, -0.00001147802, -151192.55, -151192.55, 0.0, 2.5004709, 2.4984834 
2.3879531e+2, 2.1236603e+1, -108693.73, -664000.0, 620.5106, -0.00014330538, 0.0002883234, -108693.03, -108693.03, 0.0, 2.5004716, 2.4986331 
2.3879531e+2, 2.3735239e+1, -107996.23, -662847.7, -616.75464, -0.00010133543, 0.00015500087, -107995.55, -107995.55, 0.0, 2.500472, 2.498635 
2.3879531e+2, 2.6233876e+1, -107900.695, -662874.75, -674.7382, -0.0000672882, 0.000021385194, -107899.875, -107899.875, 0.0, 2.5004723, 2.4986348 
2.387953e+2, 2.8732508e+1, -107848.016, -662922.44, -736.1938, -0.00004202963, -0.00011060614, -107847.04, -107847.04, 0.0, 2.5004723, 2.4986348 
2.3879531e+2, 3.1231225e+1, -65488.945, -575589.7, 603.2505, -0.000037624697, 0.00025259357, -65488.234, -65488.234, 0.0, 2.500473, 2.498784 
2.3879531e+2, 3.3730012e+1, -64599.28, -573844.75, -803.7907, -0.00006729271, 0.00011138244, -64598.01, -64598.01, 0.0, 2.5004733, 2.4987872 
2.3879531e+2, 3.6228797e+1, -64666.098, -573964.5, -840.5182, -0.000107844484, -0.000032338692, -64664.707, -64664.707, 0.0, 2.5004733, 2.498787 
2.3879531e+2, 3.8727584e+1, -64807.113, -574119.94, -879.8411, -0.00015923982, -0.00017482995, -64805.59, -64805.59, 0.0, 2.500473, 2.4987867 
2.3879531e+2, 4.1226453e+1, -22872.947, -487863.94, 532.4971, -0.00024713005, 0.00035498885, -22872.338, -22872.338, 0.0, 2.500474, 2.4989343 
2.3879531e+2, 4.3725386e+1, -21289.936, -485086.1, -798.34753, -0.00011686972, 0.00013505873, -21288.563, -21288.563, 0.0, 2.5004745, 2.4989388 
2.3879531e+2, 4.6224326e+1, -21132.727, -485098.78, -846.3147, 0.00000085132285, -0.00008820549, -21131.182, -21131.182, 0.0, 2.500475, 2.4989386 
2.3879531e+2, 4.8723263e+1, -21079.191, -485161.38, -896.12604, 0.0001050368, -0.0003080962, -21077.46, -21077.46, 0.0, 2.5004752, 2.4989383 
2.3879533e+2, 5.1222277e+1, 20403.05, -399512.25, 190.13718, 0.00019473105, 0.0003254382, 20403.137, 20403.137, 0.0, 2.5004756, 2.4990852 
2.3879533e+2, 5.372137e+1, 22066.904, -396056.9, -798.5454, 0.000068655674, 0.00017690494, 22068.43, 22068.43, 0.0, 2.5004756, 2.499091 
2.3879533e+2, 5.622046e+1, 21904.934, -396211.94, -831.7486, -0.000078118144, 0.000023487839, 21906.588, 21906.588, 0.0, 2.5004754, 2.499091 
2.3879533e+2, 5.871955e+1, 21631.375, -396420.7, -865.63257, -0.00024444962, -0.00012565921, 21633.166, 21633.166, 0.0, 2.5004752, 2.4990907 
2.3879533e+2, 6.1218715e+1, 62384.62, -312091.38, -182.33305, -0.00021555481, 0.0005460485, 62384.707, 62384.707, 0.0, 2.5004754, 2.4992352 
2.3879533e+2, 6.3717955e+1, 64673.035, -307568.6, -592.7444, -0.00013882996, 0.00017332405, 64673.98, 64673.98, 0.0, 2.5004756, 2.4992428 
2.3879534e+2, 6.6217196e+1, 64673.28, -307625.03, -630.10205, -0.00007759813, -0.000208907, 64674.348, 64674.348, 0.0, 2.500476, 2.4992428 
2.3879534e+2, 6.871643e+1, 64567.05, -307732.72, -666.90656, -0.000030731284, -0.0005889805, 64568.246, 64568.246, 0.0, 2.5004756, 2.4992425 
2.3879534e+2, 7.121575e+1, 104596.55, -224781.38, -564.6284, 0.00030920864, 0.00023481213, 104597.516, 104597.516, 0.0, 2.500476, 2.4993849 
2.3879534e+2, 7.371514e+1, 107259.9, -219159.03, -349.66464, 0.00018039465, 0.00010801247, 107260.27, 107260.27, 0.0, 2.500476, 2.4993947 
2.3879535e+2, 7.621454e+1, 107093.57, -219270.6, -373.0433, 0.00003064356, -0.00003320141, 107093.99, 107093.99, 0.0, 2.5004756, 2.4993947 
2.3879535e+2, 7.871393e+1, 106838.875, -219424.73, -396.78604, -0.0001345732, -0.00017398117, 106839.35, 106839.35, 0.0, 2.5004752, 2.4993944 
2.3879535e+2, 8.1213397e+1, 145795.98, -138161.75, -987.5694, -0.000021116291, 0.0002989423, 145799.42, 145799.42, 0.0, 2.5004747, 2.4995341 
2.3879535e+2, 8.3712935e+1, 148903.83, -131142.8, -147.11662, -0.00016631788, -0.00007327893, 148903.9, 148903.9, 0.0, 2.5004742, 2.4995465 
2.3879537e+2, 8.621248e+1, 148466.05, -131358.72, -143.99171, -0.00033365755, -0.00045240988, 148466.11, 148466.11, 0.0, 2.5004735, 2.4995465 
2.3879537e+2, 8.871202e+1, 147946.72, -131613.92, -139.04012, -0.0005191294, -0.0008280233, 147946.78, 147946.78, 0.0, 2.5004725, 2.4995465 
2.3879538e+2, 9.1211647e+1, 186144.72, -52588.63, -460.15488, 0.0005733813, 0.0010065236, 186145.61, 186145.61, 0.0, 2.5004728, 2.499682 
2.3879538e+2, 9.3711334e+1, 190344.63, -43182.117, 197.58353, 0.00029468245, 0.00046460202, 190344.8, 190344.8, 0.0, 2.500472, 2.4996986 
2.3879538e+2, 9.621102e+1, 189691.92, -43484.92, 181.50029, -0.00007217818, -0.000121804165, 189692.06, 189692.06, 0.0, 2.500471, 2.4996986 
2.3879538e+2, 9.8710716e+1, 188815.0, -43895.707, 156.10086, -0.0005055743, -0.00071710214, 188815.1, 188815.1, 0.0, 2.5004694, 2.4996986 
2.4129575e+2, 1.2491672e+0, -190506.58, -838162.44, 62.525455, 0.0001378156, -0.000014990526, -190506.58, -190506.58, 0.0, 2.5004761, 2.4983323 
2.4129575e+2, 3.7475017e+0, -190698.95, -838636.1, -55.18324, 0.000107421954, -0.00004505274, -190698.95, -190698.95, 0.0, 2.5004764, 2.4983315 
2.4129575e+2, 6.245836e+0, -190667.3, -838642.0, -89.72165, 0.00008712291, -0.00007522235, -190667.28, -190667.28, 0.0, 2.5004764, 2.4983315 
2.4129575e+2, 8.74417e+0, -190637.1, -838648.6, -124.264786, 0.00007691879, -0.00010549952, -190637.08, -190637.08, 0.0, 2.5004764, 2.4983313 
2.4129575e+2, 1.12425804e+1, -148143.52, -750524.94, 499.47113, 0.000023050714, 0.00004304631, -148143.11, -148143.11, 0.0, 2.5004766, 2.4984825 
2.4129575e+2, 1.3741066e+1, -148028.06, -750082.7, -290.8223, 0.000055895423, -0.000016362512, -148027.92, -148027.92, 0.0, 2.5004764, 2.4984834 
2.4129575e+2, 1.6239552e+1, -148191.31, -750216.56, -339.2893, 0.0000970671, -0.00007406721, -148191.13, -148191.13, 0.0, 2.5004761, 2.4984832 
2.4129575e+2, 1.8738037e+1, -148355.9, -750351.06, -388.53583, 0.00014638605, -0.00012959164, -148355.66, -148355.66, 0.0, 2.500476, 2.4984832 
2.4129577e+2, 2.1236598e+1, -106120.68, -662874.94, 796.4294, 0.000015148782, 0.0001661614, -106119.54, -106119.54, 0.0, 2.5004761, 2.498633 
2.4129577e+2, 2.3735236e+1, -105749.3, -661867.2, -490.99945, 0.000047567373, 0.000051335817, -105748.87, -105748.87, 0.0, 2.500476, 2.4986348 
2.4129577e+2, 2.6233873e+1, -105950.81, -662043.8, -518.347, 0.00008444272, -0.00006161556, -105950.33, -105950.33, 0.0, 2.5004756, 2.4986346 
2.4129577e+2, 2.8732505e+1, -106154.28, -662221.4, -546.7814, 0.00012486258, -0.00017077426, -106153.74, -106153.74, 0.0, 2.5004754, 2.4986343 
2.4129577e+2, 3.1231222e+1, -64045.855, -575002.6, 881.3563, 0.000115217554, 0.00019733417, -64044.336, -64044.336, 0.0, 2.5004756, 2.4987838 
2.4129577e+2, 3.3730006e+1, -63327.7, -573305.4, -623.169, 0.00006148332, 0.000034760884, -63326.938, -63326.938, 0.0, 2.5004754, 2.498787 
2.4129577e+2, 3.6228794e+1, -63519.137, -573490.1, -682.0478, 0.000018422721, -0.00012908883, -63518.227, -63518.227, 0.0, 2.5004752, 2.4987867 
2.4129577e+2, 3.8727582e+1, -63713.082, -573676.1, -742.2958, -0.000013965079, -0.00029044983, -63712.0, -63712.0, 0.0, 2.500475, 2.4987864 
2.4129577e+2, 4.1226444e+1, -22131.607, -487606.72, 841.40295, -0.00012023805, 0.00023683178, -22130.088, -22130.088, 0.0, 2.5004754, 2.498934 
2.4129577e+2, 4.3725383e+1, -21050.123, -485003.84, -567.8011, -0.000014192406, 0.000034560333, -21049.428, -21049.428, 0.0, 2.500475, 2.4989388 
2.4129578e+2, 4.622432e+1, -21338.926, -485235.94, -600.207, 0.00010302389, -0.00017270992, -21338.15, -21338.15, 0.0, 2.5004747, 2.4989386 
2.4129578e+2, 4.8723257e+1, -21631.594, -485469.84, -634.13196, 0.00023026529, -0.000378285, -21630.727, -21630.727, 0.0, 2.5004742, 2.4989383 
2.4129578e+2, 5.1222277e+1, 19582.059, -399969.25, 521.6044, 0.00032727636, 0.0002775232, 19582.707, 19582.707, 0.0, 2.5004745, 2.499085 
2.4129578e+2, 5.372136e+1, 21289.834, -396422.63, -531.9595, 0.00016615292, 0.00014719962, 21290.512, 21290.512, 0.0, 2.5004745, 2.499091 
2.4129578e+2, 5.6220454e+1, 21233.69, -396531.03, -586.3666, 0.000016804941, 0.000008362302, 21234.514, 21234.514, 0.0, 2.5004742, 2.499091 
2.4129578e+2, 5.8719546e+1, 21173.61, -396641.34, -641.85547, -0.000119411816, -0.0001297813, 21174.596, 21174.596, 0.0, 2.5004742, 2.4990907 
2.4129578e+2, 6.121871e+1, 61853.5, -312393.44, 143.45094, -0.000091590926, 0.00055599585, 61853.555, 61853.555, 0.0, 2.5004747, 2.4992352 
2.412958e+2, 6.371795e+1, 64058.953, -307837.56, -314.7648, -0.000051262403, 0.0001906676, 64059.22, 64059.22, 0.0, 2.5004747, 2.499243 
2.412958e+2, 6.6217184e+1, 64036.086, -307902.25, -367.4398, -0.0000039683136, -0.00018490684, 64036.45, 64036.45, 0.0, 2.5004747, 2.4992428 
2.412958e+2, 6.871643e+1, 64009.55, -307968.7, -421.24588, 0.000051410294, -0.000558968, 64010.027, 64010.027, 0.0, 2.5004747, 2.4992428 
2.412958e+2, 7.121574e+1, 104015.586, -224977.58, -303.79367, 0.0004121949, 0.00029822707, 104015.86, 104015.86, 0.0, 2.5004747, 2.499385 
2.4129583e+2, 7.371514e+1, 106852.36, -219233.69, -109.783066, 0.00026010475, 0.00020806145, 106852.4, 106852.4, 0.0, 2.500475, 2.499395 
2.4129583e+2, 7.621453e+1, 106922.34, -219232.67, -153.02005, 0.000101267935, 0.000104079496, 106922.414, 106922.414, 0.0, 2.5004752, 2.499395 
2.4129583e+2, 7.871392e+1, 106989.06, -219233.23, -196.70807, -0.000058432037, 0.0000013276972, 106989.18, 106989.18, 0.0, 2.5004752, 2.4993947 
2.4129583e+2, 8.1213385e+1, 146374.3, -137729.89, -799.9537, 0.00006561875, 0.0004953908, 146376.55, 146376.55, 0.0, 2.5004756, 2.4995346 
2.4129583e+2, 8.371293e+1, 150273.89, -130339.3, -2.6706176, -0.00007927592, 0.000121139856, 150273.89, 150273.89, 0.0, 2.5004764, 2.4995468 
2.4129584e+2, 8.621247e+1, 150716.3, -130127.305, -77.61243, -0.00022964827, -0.00026476863, 150716.31, 150716.31, 0.0, 2.500477, 2.4995468 
2.4129584e+2, 8.871201e+1, 151155.03, -129917.08, -152.84938, -0.0003814023, -0.00065187813, 151155.13, 151155.13, 0.0, 2.5004778, 2.4995468 
2.4129586e+2, 9.121164e+1, 189746.16, -50434.734, -492.7042, 0.00076754345, 0.0012222539, 189747.17, 189747.17, 0.0, 2.5004787, 2.499683 
2.4129586e+2, 9.371133e+1, 194411.55, -40929.227, 60.017136, 0.00046121553, 0.0007120514, 194411.56, 194411.56, 0.0, 2.5004787, 2.499699 
2.4129586e+2, 9.621102e+1, 194511.81, -40891.395, -19.546165, 0.00011241087, 0.00015499313, 194511.81, 194511.81, 0.0, 2.500479, 2.499699 
2.4129586e+2, 9.871071e+1, 194603.67, -40857.605, -98.47073, -0.00025620582, -0.00041280992, 194603.72, 194603.72, 0.0, 2.5004792, 2.499699 
2.4379623e+2, 1.2491672e+0, -190558.42, -838270.2, 66.7385, 0.000053003587, -0.000005379416, -190558.4, -190558.4, 0.0, 2.5004761, 2.4983323 
2.4379623e+2, 3.7475017e+0, -190752.2, -838746.75, -46.18814, 0.000034265337, -0.0000155384, -190752.2, -190752.2, 0.0, 2.5004764, 2.4983313 
2.4379623e+2, 6.245836e+0, -190721.39, -838754.44, -78.27945, 0.000018496577, -0.000024896764, -190721.38, -190721.38, 0.0, 2.5004764, 2.4983313 
2.4379623e+2, 8.74417e+0, -190692.03, -838762.8, -110.375496, 0.000005697633, -0.000033454682, -190692.02, -190692.02, 0.0, 2.5004764, 2.4983313 
2.4379624e+2, 1.12425804e+1, -148192.56, -750649.8, 492.29822, -0.000061539584, 0.00010513116, -148192.16, -148192.16, 0.0, 2.5004766, 2.4984822 
2.4379624e+2, 1.3741066e+1, -148082.4, -750223.06, -328.3393, -0.000022153006, 0.000018321494, -148082.23, -148082.23, 0.0, 2.5004764, 2.498483 
2.4379623e+2, 1.6239549e+1, -148243.56, -750357.1, -374.28284, 0.000020161982, -0.0000664767, -148243.33, -148243.33, 0.0, 2.5004761, 2.498483 
2.4379623e+2, 1.8738036e+1, -148406.06, -750491.75, -421.0059, 0.000065183725, -0.0001488049, -148405.77, -148405.77, 0.0, 2.500476, 2.4984827 
2.4379624e+2, 2.1236597e+1, -106106.625, -662902.3, 823.4757, -0.0000430745, 0.00012867105, -106105.41, -106105.41, 0.0, 2.5004764, 2.498633 
2.4379624e+2, 2.3735233e+1, -105736.24, -661903.6, -535.428, -0.000008368229, 0.00004857631, -105735.73, -105735.73, 0.0, 2.5004761, 2.4986348 
2.4379624e+2, 2.623387e+1, -105935.87, -662083.2, -559.98425, 0.000024094425, -0.00002921574, -105935.3, -105935.3, 0.0, 2.500476, 2.4986346 
2.4379624e+2, 2.8732505e+1, -106137.44, -662263.75, -585.6273, 0.00005352599, -0.000102883394, -106136.82, -106136.82, 0.0, 2.5004756, 2.4986343 
2.4379624e+2, 3.123122e+1, -64048.992, -575144.2, 915.9014, 0.00000080113625, 0.00027413497, -64047.35, -64047.35, 0.0, 2.500476, 2.4987836 
2.4379624e+2, 3.3730003e+1, -63309.24, -573410.1, -662.5614, -0.000010857506, 0.00009104428, -63308.375, -63308.375, 0.0, 2.5004756, 2.4987867 
2.4379624e+2, 3.622879e+1, -63498.703, -573598.5, -717.96686, -0.00002052058, -0.00009274048, -63497.69, -63497.69, 0.0, 2.5004754, 2.4987864 
2.4379624e+2, 3.872758e+1, -63690.67, -573788.06, -774.7416, -0.000028613053, -0.00027346043, -63689.492, -63689.492, 0.0, 2.5004752, 2.4987862 
2.4379626e+2, 4.122644e+1, -22030.78, -487590.84, 862.28503, -0.00010394718, 0.000225091, -22029.184, -22029.184, 0.0, 2.5004756, 2.498934 
2.4379626e+2, 4.372538e+1, -20928.838, -484953.28, -631.59753, -0.00003712308, 0.00004983063, -20927.979, -20927.979, 0.0, 2.5004752, 2.4989388 
2.4379626e+2, 4.6224317e+1, -21216.072, -485189.63, -658.9109, 0.000026920765, -0.00012912946, -21215.137, -21215.137, 0.0, 2.500475, 2.4989386 
2.4379626e+2, 4.8723257e+1, -21507.17, -485427.88, -687.74347, 0.00008736109, -0.0003053515, -21506.15, -21506.15, 0.0, 2.5004745, 2.4989383 
2.4379626e+2, 5.122227e+1, 19674.963, -400046.5, 548.99664, 0.00015813737, 0.0003446929, 19675.682, 19675.682, 0.0, 2.5004747, 2.4990847 
2.4379626e+2, 5.3721356e+1, 21424.354, -396419.0, -534.74524, 0.00008030729, 0.00016754406, 21425.037, 21425.037, 0.0, 2.5004747, 2.499091 
2.4379626e+2, 5.622045e+1, 21367.936, -396533.1, -584.0724, 0.0000013337392, -0.00001654874, 21368.752, 21368.752, 0.0, 2.5004747, 2.4990907 
2.4379626e+2, 5.871954e+1, 21307.582, -396649.1, -634.4813, -0.00007775454, -0.00019833593, 21308.545, 21308.545, 0.0, 2.5004747, 2.4990904 
2.4379626e+2, 6.12187e+1, 61994.2, -312401.63, 161.67934, -0.000019690406, 0.00046439763, 61994.27, 61994.27, 0.0, 2.500475, 2.499235 
2.4379627e+2, 6.3717943e+1, 64223.72, -307802.4, -311.21042, -0.000041104093, 0.00013527118, 64223.98, 64223.98, 0.0, 2.500475, 2.4992428 
2.4379627e+2, 6.6217184e+1, 64203.836, -307867.5, -359.5541, -0.00006659371, -0.00020387657, 64204.184, 64204.184, 0.0, 2.500475, 2.4992428 
2.4379627e+2, 6.8716425e+1, 64180.285, -307934.38, -409.02896, -0.00009462613, -0.0005414959, 64180.734, 64180.734, 0.0, 2.500475, 2.4992425 
2.4379627e+2, 7.1215737e+1, 104209.15, -224904.6, -302.39136, 0.00028628192, 0.00032999503, 104209.43, 104209.43, 0.0, 2.5004752, 2.499385 
2.4379629e+2, 7.371513e+1, 107054.12, -219148.42, -81.17689, 0.00019356537, 0.0002305185, 107054.14, 107054.14, 0.0, 2.5004754, 2.499395 
2.4379629e+2, 7.621452e+1, 107125.69, -219148.86, -121.71486, 0.0000863617, 0.00011752136, 107125.734, 107125.734, 0.0, 2.5004754, 2.4993947 
2.4379629e+2, 7.871392e+1, 107193.99, -219150.86, -162.70387, -0.000028889663, 0.0000060851394, 107194.08, 107194.08, 0.0, 2.5004756, 2.4993947 
2.4379629e+2, 8.121338e+1, 146563.03, -137680.03, -733.4305, 0.0000757014, 0.00046583757, 146564.92, 146564.92, 0.0, 2.500476, 2.4995344 
2.4379629e+2, 8.3712924e+1, 150430.16, -130359.49, 119.643776, -0.00011651869, 0.0000380406, 150430.2, 150430.2, 0.0, 2.5004768, 2.4995465 
2.437963e+2, 8.621246e+1, 150874.7, -130145.664, 46.675156, -0.00031899058, -0.00040146548, 150874.7, 150874.7, 0.0, 2.5004776, 2.4995465 
2.437963e+2, 8.8712007e+1, 151315.6, -129933.6, -26.588602, -0.0005279206, -0.0008422481, 151315.6, 151315.6, 0.0, 2.5004783, 2.4995465 
2.4379632e+2, 9.121163e+1, 190021.05, -50223.414, -491.8937, 0.000698455, 0.0010471223, 190022.05, 190022.05, 0.0, 2.500479, 2.4996831 
2.4379632e+2, 9.3711317e+1, 194581.75, -40931.43, 107.76965, 0.00038466317, 0.0006121303, 194581.8, 194581.8, 0.0, 2.5004792, 2.499699 
2.4379632e+2, 9.6211016e+1, 194680.28, -40893.1, 34.33653, 0.000012908275, 0.00013061978, 194680.28, 194680.28, 0.0, 2.5004795, 2.4996989 
2.4379633e+2, 9.8710704e+1, 194770.4, -40858.82, -38.457863, -0.0003923443, -0.00036113846, 194770.42, 194770.42, 0.0, 2.5004795, 2.4996989 
2.462967e+2, 1.2491672e+0, -190610.78, -838378.94, 70.53381, -0.000031687472, 0.0000033005713, -190610.77, -190610.77, 0.0, 2.5004761, 2.498332 
2.462967e+2, 3.7475017e+0, -190807.03, -838860.75, -37.079403, -0.00003852839, 0.000011182569, -190807.03, -190807.03, 0.0, 2.5004764, 2.498331 
2.462967e+2, 6.245836e+0, -190777.06, -838870.2, -66.72362, -0.000049524937, 0.000020773203, -190777.06, -190777.06, 0.0, 2.5004764, 2.498331 
2.462967e+2, 8.74417e+0, -190748.55, -838880.3, -96.37256, -0.00006467677, 0.000032072297, -190748.53, -190748.53, 0.0, 2.5004764, 2.498331 
2.4629672e+2, 1.12425804e+1, -148250.9, -750794.0, 490.04617, -0.00014828159, 0.00016650232, -148250.5, -148250.5, 0.0, 2.5004766, 2.498482 
2.4629672e+2, 1.3741066e+1, -148138.34, -750366.8, -365.22525, -0.000103444494, 0.00004843629, -148138.13, -148138.13, 0.0, 2.5004764, 2.4984827 
2.4629672e+2, 1.6239549e+1, -148297.4, -750500.94, -408.64532, -0.00006106932, -0.000067330184, -148297.14, -148297.14, 0.0, 2.5004761, 2.4984827 
2.4629672e+2, 1.8738033e+1, -148457.83, -750635.75, -452.8449, -0.0000214279, -0.00018033694, -148457.48, -148457.48, 0.0, 2.5004761, 2.4984825 
2.4629672e+2, 2.1236596e+1, -106106.266, -662958.1, 852.1385, -0.00009405367, 0.00008811737, -106104.96, -106104.96, 0.0, 2.5004764, 2.4986327 
2.4629672e+2, 2.3735231e+1, -105724.43, -661942.6, -578.69037, -0.00005694374, 0.000039483344, -105723.83, -105723.83, 0.0, 2.5004761, 2.4986346 
2.4629672e+2, 2.6233867e+1, -105922.164, -662125.25, -600.4554, -0.00002884443, -0.000006477628, -105921.516, -105921.516, 0.0, 2.500476, 2.4986343 
2.4629672e+2, 2.8732502e+1, -106121.84, -662308.75, -623.3071, -0.000010351813, -0.000047982496, -106121.14, -106121.14, 0.0, 2.5004756, 2.4986343 
2.4629672e+2, 3.1231216e+1, -64064.07, -575310.56, 961.3825, -0.00012092024, 0.00034630264, -64062.26, -64062.26, 0.0, 2.5004761, 2.4987833 
2.4629672e+2, 3.3730003e+1, -63291.82, -573517.06, -700.5004, -0.00009027346, 0.00013964267, -63290.855, -63290.855, 0.0, 2.500476, 2.4987864 
2.4629672e+2, 3.622879e+1, -63479.31, -573709.06, -752.4325, -0.00006619911, -0.000067204324, -63478.2, -63478.2, 0.0, 2.5004756, 2.4987862 
2.4629672e+2, 3.8727573e+1, -63669.3, -573902.25, -805.7339, -0.00004965634, -0.00027041044, -63668.03, -63668.03, 0.0, 2.5004754, 2.498786 
2.4629673e+2, 4.1226438e+1, -21941.979, -487599.97, 886.8206, -0.0000770025, 0.00021066399, -21940.29, -21940.29, 0.0, 2.500476, 2.4989338 
2.4629673e+2, 4.3725377e+1, -20808.584, -484904.84, -693.8332, -0.0000485249, 0.000058698817, -20807.547, -20807.547, 0.0, 2.5004754, 2.4989386 
2.4629673e+2, 4.6224317e+1, -21094.248, -485145.5, -716.0541, -0.000036939935, -0.00009578503, -21093.143, -21093.143, 0.0, 2.5004752, 2.4989383 
2.4629673e+2, 4.872325e+1, -21383.775, -485388.0, -739.7942, -0.000042587108, -0.00024648797, -21382.596, -21382.596, 0.0, 2.5004747, 2.498938 
2.4629673e+2, 5.1222265e+1, 19752.707, -400155.22, 588.1797, -0.00001845877, 0.00040983365, 19753.531, 19753.531, 0.0, 2.500475, 2.4990842 
2.4629673e+2, 5.3721356e+1, 21557.89, -396417.4, -536.2281, -0.00001182761, 0.00018197756, 21558.578, 21558.578, 0.0, 2.500475, 2.4990907 
2.4629673e+2, 5.622044e+1, 21501.2, -396537.2, -580.47534, -0.000019027802, -0.00005141256, 21502.006, 21502.006, 0.0, 2.500475, 2.4990904 
2.4629673e+2, 5.8719534e+1, 21440.572, -396658.88, -625.8043, -0.000039588667, -0.00028088517, 21441.51, 21441.51, 0.0, 2.500475, 2.4990904 
2.4629675e+2, 6.12187e+1, 62119.297, -312442.22, 181.21562, 0.000059835464, 0.0003728084, 62119.383, 62119.383, 0.0, 2.5004752, 2.4992347 
2.4629675e+2, 6.371794e+1, 64387.426, -307769.5, -306.6032, -0.000024209967, 0.00007595593, 64387.68, 64387.68, 0.0, 2.5004754, 2.4992428 
2.4629675e+2, 6.621718e+1, 64370.523, -307835.0, -350.61566, -0.0001235026, -0.00023089864, 64370.85, 64370.85, 0.0, 2.5004754, 2.4992425 
2.4629675e+2, 6.871641e+1, 64349.953, -307902.28, -395.75922, -0.00023596536, -0.0005362097, 64350.375, 64350.375, 0.0, 2.5004754, 2.4992425 
2.4629675e+2, 7.1215737e+1, 104387.62, -224862.98, -301.1722, 0.00016639294, 0.00036194964, 104387.89, 104387.89, 0.0, 2.5004754, 2.4993849 
2.4629676e+2, 7.3715127e+1, 107255.07, -219064.86, -51.90623, 0.00013265065, 0.00025050167, 107255.08, 107255.08, 0.0, 2.5004756, 2.499395 
2.4629676e+2, 7.621452e+1, 107328.23, -219066.73, -89.74519, 0.00007667185, 0.00012562527, 107328.25, 107328.25, 0.0, 2.500476, 2.4993947 
2.4629676e+2, 7.871391e+1, 107398.12, -219070.17, -128.03519, 0.0000054608226, 0.0000026405894, 107398.164, 107398.164, 0.0, 2.500476, 2.4993947 
2.4629676e+2, 8.121338e+1, 146736.16, -137662.58, -669.87646, 0.00009144888, 0.0004348652, 146737.73, 146737.73, 0.0, 2.5004764, 2.4995344 
2.4629678e+2, 8.371291e+1, 150585.47, -130381.63, 242.19145, -0.00014952743, -0.000049128463, 150585.67, 150585.67, 0.0, 2.500477, 2.4995463 
2.4629678e+2, 8.6212456e+1, 151032.17, -130165.98, 171.19603, -0.0004055463, -0.0005450104, 151032.28, 151032.28, 0.0, 2.5004778, 2.4995463 
2.4629678e+2, 8.8712e+1, 151475.22, -129952.086, 99.90545, -0.00067309977, -0.0010422443, 151475.27, 151475.27, 0.0, 2.5004787, 2.4995463 
2.462968e+2, 9.121162e+1, 190273.98, -50057.668, -494.8563, 0.00066069356, 0.00088273577, 190275.02, 190275.02, 0.0, 2.5004795, 2.4996831 
2.462968e+2, 9.3711317e+1, 194751.0, -40935.63, 154.90367, 0.0003398364, 0.00051787857, 194751.1, 194751.1, 0.0, 2.5004797, 2.4996989 
2.4629681e+2, 9.6211004e+1, 194847.8, -40896.805, 87.600716, -0.000054925124, 0.00010648408, 194847.83, 194847.83, 0.0, 2.5004797, 2.4996989 
2.4629681e+2, 9.8710704e+1, 194936.19, -40862.03, 20.936497, -0.0004968699, -0.00031466113, 194936.19, 194936.19, 0.0, 2.50048, 2.4996989 
2.487972e+2, 1.2491672e+0, -194596.28, -840387.8, 57.189964, -0.00010759065, 0.000010886274, -194596.28, -194596.28, 0.0, 2.5004694, 2.4983318 
2.487972e+2, 3.7475017e+0, -194625.67, -840794.8, -78.529495, -0.00010339045, 0.000034609424, -194625.66, -194625.66, 0.0, 2.50047, 2.4983308 
2.487972e+2, 6.245836e+0, -194497.05, -840758.0, -138.92796, -0.00010988125, 0.000060934224, -194497.02, -194497.02, 0.0, 2.5004702, 2.4983308 
2.487972e+2, 8.74417e+0, -194440.83, -840756.06, -198.50252, -0.00012706268, 0.0000898605, -194440.77, -194440.77, 0.0, 2.5004702, 2.4983308 
2.487972e+2, 1.12425804e+1, -151836.48, -752655.75, 345.37244, -0.00023003653, 0.0002256293, -151836.28, -151836.28, 0.0, 2.5004706, 2.4984818 
2.487972e+2, 1.3741064e+1, -151492.97, -752105.44, -580.6133, -0.00018113527, 0.00007220573, -151492.4, -151492.4, 0.0, 2.5004709, 2.4984825 
2.487972e+2, 1.6239548e+1, -151479.14, -752157.25, -652.17004, -0.00013974163, -0.00007866781, -151478.44, -151478.44, 0.0, 2.5004709, 2.4984825 
2.487972e+2, 1.8738031e+1, -151516.67, -752233.75, -723.3733, -0.00010618589, -0.00022651018, -151515.81, -151515.81, 0.0, 2.5004709, 2.4984822 
2.487972e+2, 2.1236593e+1, -108893.92, -664380.75, 617.55133, -0.0001309258, 0.000042019816, -108893.234, -108893.234, 0.0, 2.5004716, 2.4986327 
2.487972e+2, 2.373523e+1, -108169.25, -663168.6, -908.6765, -0.00009218871, 0.000021554137, -108167.766, -108167.766, 0.0, 2.500472, 2.4986346 
2.487972e+2, 2.6233867e+1, -108136.055, -663243.56, -948.19104, -0.00006858637, 0.0000040441923, -108134.43, -108134.43, 0.0, 2.500472, 2.4986343 
2.487972e+2, 2.8732502e+1, -108194.75, -663362.8, -986.2972, -0.000060456765, -0.000008707581, -108192.99, -108192.99, 0.0, 2.500472, 2.498634 
2.4879721e+2, 3.1231216e+1, -65919.266, -576382.3, 676.1465, -0.00024376147, 0.00041119475, -65918.375, -65918.375, 0.0, 2.500473, 2.4987829 
2.487972e+2, 3.373e+1, -64728.15, -574325.44, -1092.8619, -0.00017155029, 0.00017803907, -64725.805, -64725.805, 0.0, 2.5004735, 2.4987862 
2.487972e+2, 3.6228788e+1, -64640.348, -574389.0, -1151.8093, -0.00011378173, -0.000054869673, -64637.742, -64637.742, 0.0, 2.5004737, 2.498786 
2.487972e+2, 3.872757e+1, -64657.215, -574502.94, -1208.3821, -0.00007205998, -0.00028355914, -64654.35, -64654.35, 0.0, 2.5004737, 2.4987857 
2.4879721e+2, 4.1226432e+1, -22619.184, -487994.72, 539.81635, -0.00003479575, 0.00019155572, -22618.559, -22618.559, 0.0, 2.5004747, 2.4989338 
2.4879721e+2, 4.372537e+1, -21126.352, -485066.1, -1128.0428, -0.000044462373, 0.00005954463, -21123.607, -21123.607, 0.0, 2.500475, 2.4989386 
2.4879721e+2, 4.622431e+1, -21243.184, -485230.03, -1138.4701, -0.00008417817, -0.00007397483, -21240.39, -21240.39, 0.0, 2.500475, 2.4989383 
2.4879721e+2, 4.8723248e+1, -21513.67, -485468.03, -1145.3466, -0.00015363673, -0.00020272312, -21510.842, -21510.842, 0.0, 2.5004745, 2.498938 
2.4879721e+2, 5.1222265e+1, 19725.834, -400334.13, 298.04358, -0.00019663326, 0.00047229114, 19726.045, 19726.045, 0.0, 2.5004752, 2.499084 
2.4879721e+2, 5.372135e+1, 21914.525, -396305.16, -866.5746, -0.00010635484, 0.00019038442, 21916.322, 21916.322, 0.0, 2.5004756, 2.4990907 
2.4879721e+2, 5.622044e+1, 22010.088, -396356.84, -891.7208, -0.000041402232, -0.00009583544, 22011.988, 22011.988, 0.0, 2.500476, 2.4990904 
2.4879721e+2, 5.871953e+1, 21940.658, -396488.03, -914.8487, -0.0000020943523, -0.00037655534, 21942.658, 21942.658, 0.0, 2.500476, 2.4990902 
2.4879722e+2, 6.121869e+1, 62586.254, -312336.53, -68.8049, 0.0001497227, 0.00028262442, 62586.266, 62586.266, 0.0, 2.5004761, 2.4992344 
2.4879722e+2, 6.371793e+1, 64917.19, -307555.38, -537.8998, 0.0000019087938, 0.000014751439, 64917.965, 64917.965, 0.0, 2.5004764, 2.4992425 
2.4879722e+2, 6.621717e+1, 64762.47, -307689.03, -545.97345, -0.0001716393, -0.00026327517, 64763.27, 64763.27, 0.0, 2.5004761, 2.4992425 
2.4879722e+2, 6.871641e+1, 64453.555, -307897.0, -557.45746, -0.00036817038, -0.00053970935, 64454.39, 64454.39, 0.0, 2.5004756, 2.4992423 
2.4879722e+2, 7.121573e+1, 104251.086, -224989.58, -434.7274, 0.000057081765, 0.00039810306, 104251.66, 104251.66, 0.0, 2.5004754, 2.4993849 
2.4879724e+2, 7.3715127e+1, 107004.13, -219192.64, -104.74678, 0.00008059495, 0.00027255804, 107004.164, 107004.164, 0.0, 2.5004752, 2.499395 
2.4879724e+2, 7.6214516e+1, 106793.04, -219333.64, -90.77332, 0.00007482158, 0.00013349706, 106793.06, 106793.06, 0.0, 2.500475, 2.4993947 
2.4879724e+2, 7.8713906e+1, 106443.96, -219541.11, -79.93431, 0.00004734008, -0.0000033181875, 106443.98, 106443.98, 0.0, 2.5004745, 2.4993947 
2.4879724e+2, 8.121337e+1, 145238.97, -138466.31, -536.49774, 0.0001157881, 0.0004086973, 145239.98, 145239.98, 0.0, 2.500474, 2.4995341 
2.4879725e+2, 8.371291e+1, 148518.03, -131467.78, 509.5614, -0.0001750618, -0.00013368053, 148518.95, 148518.95, 0.0, 2.5004737, 2.4995463 
2.4879725e+2, 8.621245e+1, 148264.8, -131588.56, 507.69214, -0.0004850131, -0.0006882745, 148265.72, 148265.72, 0.0, 2.5004733, 2.4995463 
2.4879725e+2, 8.871199e+1, 147872.86, -131776.16, 500.8976, -0.00081082707, -0.0012443169, 147873.75, 147873.75, 0.0, 2.5004725, 2.4995463 
2.4879728e+2, 9.1211617e+1, 185980.11, -52108.19, -158.24652, 0.00066057, 0.0007370869, 185980.22, 185980.22, 0.0, 2.500472, 2.4996834 
2.4879728e+2, 9.371131e+1, 189582.47, -43503.59, 624.8932, 0.0003325534, 0.0004376298, 189584.14, 189584.14, 0.0, 2.5004709, 2.4996986 
2.4879728e+2, 9.6211e+1, 188520.6, -44021.45, 649.8557, -0.000083589766, 0.00009097576, 188522.4, 188522.4, 0.0, 2.500469, 2.4996986 
2.4879728e+2, 9.871069e+1, 187105.17, -44709.58, 681.52026, -0.0005584263, -0.0002652181, 187107.17, 187107.17, 0.0, 2.5004666, 2.4996986 
2.5129768e+2, 1.2491669e+0, -189956.86, -838362.44, 79.13276, 0.00016865812, 0.0000033836955, -189956.86, -189956.86, 0.0, 2.5004776, 2.4983313 
2.5129768e+2, 3.7475008e+0, -190314.06, -838929.25, -44.713657, 0.00014566202, 0.000011110038, -190314.06, -190314.06, 0.0, 2.5004776, 2.4983304 
2.5129768e+2, 6.245834e+0, -190440.48, -839013.4, -98.639626, 0.00013839311, 0.000020115844, -190440.47, -190440.47, 0.0, 2.5004773, 2.4983304 
2.5129768e+2, 8.744168e+0, -190568.9, -839098.5, -152.93326, 0.00014685176, 0.000030400937, -190568.88, -190568.88, 0.0, 2.500477, 2.4983304 
2.5129768e+2, 1.12425774e+1, -148118.06, -751052.4, 489.96323, 0.000040699273, 0.00016344234, -148117.67, -148117.67, 0.0, 2.5004773, 2.4984813 
2.5129768e+2, 1.3741061e+1, -147922.88, -750561.2, -443.53067, 0.000064498294, 0.000012759883, -147922.56, -147922.56, 0.0, 2.500477, 2.4984822 
2.5129768e+2, 1.6239543e+1, -148013.94, -750661.7, -482.13922, 0.00009568406, -0.00013658345, -148013.56, -148013.56, 0.0, 2.500477, 2.498482 
2.5129768e+2, 1.8738027e+1, -148106.38, -750762.9, -521.4161, 0.00013390447, -0.00028409404, -148105.92, -148105.92, 0.0, 2.5004768, 2.498482 
2.5129768e+2, 2.123659e+1, -105777.93, -663033.25, 917.34344, 0.000107410124, -0.00003291971, -105776.42, -105776.42, 0.0, 2.500477, 2.4986322 
2.5129768e+2, 2.3735224e+1, -105418.55, -661988.0, -701.376, 0.000112554124, -0.000071565686, -105417.664, -105417.664, 0.0, 2.5004768, 2.498634 
2.5129768e+2, 2.623386e+1, -105664.41, -662193.6, -775.1489, 0.00013521376, -0.00010886899, -105663.33, -105663.33, 0.0, 2.5004766, 2.498634 
2.5129768e+2, 2.8732497e+1, -105913.375, -662401.3, -849.9427, 0.00017514394, -0.00014306867, -105912.08, -105912.08, 0.0, 2.5004761, 2.4986339 
2.5129768e+2, 3.123121e+1, -63966.05, -575563.56, 966.72327, -0.00003603224, 0.00027647367, -63964.227, -63964.227, 0.0, 2.5004766, 2.4987826 
2.5129768e+2, 3.3729994e+1, -63239.8, -573680.6, -885.48846, 0.000006653161, 0.00006482656, -63238.266, -63238.266, 0.0, 2.5004761, 2.498786 
2.5129768e+2, 3.622878e+1, -63542.637, -573926.44, -932.0447, 0.00006195581, -0.00014693732, -63540.938, -63540.938, 0.0, 2.5004756, 2.4987857 
2.5129768e+2, 3.8727567e+1, -63848.113, -574173.56, -979.9046, 0.0001280283, -0.00035485427, -63846.234, -63846.234, 0.0, 2.5004752, 2.4987855 
2.5129768e+2, 4.122643e+1, -22240.633, -487866.25, 856.12036, 0.00017516981, 0.00013296228, -22239.059, -22239.059, 0.0, 2.5004754, 2.4989336 
2.5129768e+2, 4.3725365e+1, -20932.793, -484968.53, -948.5653, 0.00011254842, -0.00000033026572, -20930.854, -20930.854, 0.0, 2.5004752, 2.4989386 
2.5129768e+2, 4.6224305e+1, -21114.604, -485155.7, -1034.9434, 0.00007212358, -0.0001377169, -21112.295, -21112.295, 0.0, 2.500475, 2.4989383 
2.5129768e+2, 4.872324e+1, -21299.99, -485344.28, -1122.6956, 0.0000545143, -0.00027290534, -21297.275, -21297.275, 0.0, 2.500475, 2.4989383 
2.5129768e+2, 5.122225e+1, 19712.678, -400352.25, 428.44418, -0.000013371818, 0.0004073256, 19713.115, 19713.115, 0.0, 2.500475, 2.499084 
2.5129768e+2, 5.3721344e+1, 21463.605, -396461.5, -834.8838, 0.000015837635, 0.0001403958, 21465.273, 21465.273, 0.0, 2.5004747, 2.4990907 
2.512977e+2, 5.622043e+1, 21240.627, -396660.44, -906.11694, 0.000065225315, -0.00013257262, 21242.592, 21242.592, 0.0, 2.5004745, 2.4990904 
2.512977e+2, 5.871952e+1, 21013.613, -396861.3, -978.88275, 0.00013421397, -0.00040174383, 21015.906, 21015.906, 0.0, 2.5004742, 2.4990904 
2.512977e+2, 6.1218685e+1, 61442.65, -312790.94, -123.02546, 0.0003122533, 0.00028537738, 61442.688, 61442.688, 0.0, 2.5004742, 2.4992347 
2.512977e+2, 6.3717926e+1, 63827.742, -307933.16, -649.13806, 0.00011722762, 0.000048075657, 63828.875, 63828.875, 0.0, 2.5004742, 2.499243 
2.512977e+2, 6.621717e+1, 63845.18, -307988.4, -719.4345, -0.00006673965, -0.00019816143, 63846.57, 63846.57, 0.0, 2.5004742, 2.4992428 
2.512977e+2, 6.8716407e+1, 63858.8, -308045.5, -790.4858, -0.00023646324, -0.00044148727, 63860.48, 63860.48, 0.0, 2.5004745, 2.4992428 
2.512977e+2, 7.121573e+1, 103860.43, -225017.34, -708.95154, 0.00020544995, 0.00052677596, 103861.96, 103861.96, 0.0, 2.5004745, 2.499385 
2.512977e+2, 7.371512e+1, 106930.22, -219054.39, -451.60416, 0.0001945781, 0.0003977776, 106930.84, 106930.84, 0.0, 2.500475, 2.4993951 
2.512977e+2, 7.621451e+1, 107161.09, -218986.1, -551.53406, 0.0001863135, 0.00025580238, 107162.02, 107162.02, 0.0, 2.5004754, 2.4993951 
2.5129774e+2, 7.8713906e+1, 107388.234, -218919.6, -652.21094, 0.00018850875, 0.000116845185, 107389.54, 107389.54, 0.0, 2.500476, 2.499395 
2.512977e+2, 8.121336e+1, 146591.69, -137526.77, -1212.3265, 0.0002467873, 0.00055525836, 146596.86, 146596.86, 0.0, 2.500476, 2.4995346 
2.5129774e+2, 8.3712906e+1, 150166.44, -130434.16, -152.55309, -0.00006855199, 0.000037117672, 150166.52, 150166.52, 0.0, 2.5004761, 2.4995468 
2.5129774e+2, 8.621245e+1, 150369.4, -130343.14, -213.43423, -0.00037120236, -0.0004939026, 150369.56, 150369.56, 0.0, 2.5004766, 2.4995468 
2.5129774e+2, 8.871199e+1, 150567.28, -130254.57, -274.0067, -0.0006581236, -0.0010267947, 150567.55, 150567.55, 0.0, 2.5004768, 2.4995468 
2.5129777e+2, 9.1211617e+1, 189189.45, -50160.605, -1032.374, 0.00095662754, 0.000987868, 189193.9, 189193.9, 0.0, 2.500477, 2.499684 
2.5129777e+2, 9.3711305e+1, 194055.34, -41126.363, -275.37323, 0.000585769, 0.0006968473, 194055.67, 194055.67, 0.0, 2.5004783, 2.499699 
2.5129777e+2, 9.6211e+1, 194720.81, -40807.92, -400.5715, 0.00021417948, 0.00034597347, 194721.48, 194721.48, 0.0, 2.5004795, 2.499699 
2.5129777e+2, 9.8710686e+1, 195374.61, -40495.1, -524.67145, -0.00012607865, -0.000026821379, 195375.77, 195375.77, 0.0, 2.5004804, 2.499699 
2.5379813e+2, 1.2491666e+0, -190046.98, -838550.3, 38.79801, -0.000010923378, -0.0000053321965, -190046.98, -190046.98, 0.0, 2.5004776, 2.498331 
2.5379813e+2, 3.7475e+0, -190404.7, -839119.6, -77.37369, 0.000018568267, -0.000015163633, -190404.7, -190404.7, 0.0, 2.5004776, 2.49833 
2.5379813e+2, 6.2458336e+0, -190529.64, -839202.06, -128.32176, 0.00005482489, -0.000023883593, -190529.63, -190529.63, 0.0, 2.5004773, 2.49833 
2.5379813e+2, 8.7441665e+0, -190656.61, -839285.5, -179.6375, 0.00009784689, -0.00003149225, -190656.56, -190656.56, 0.0, 2.500477, 2.49833 
2.5379813e+2, 1.1242576e+1, -148162.55, -751165.3, 508.86246, 0.000009146829, 0.00012145979, -148162.13, -148162.13, 0.0, 2.5004773, 2.498481 
2.5379813e+2, 1.374106e+1, -147963.02, -750668.56, -461.78995, 0.000014719202, 0.00002929815, -147962.66, -147962.66, 0.0, 2.500477, 2.498482 
2.5379813e+2, 1.6239543e+1, -148054.48, -750773.4, -497.70694, 0.000021626236, -0.000060758386, -148054.08, -148054.08, 0.0, 2.500477, 2.4984818 
2.5379813e+2, 1.8738027e+1, -148147.33, -750878.9, -534.2923, 0.000029549015, -0.00014821392, -148146.86, -148146.86, 0.0, 2.500477, 2.4984818 
2.5379816e+2, 2.1236588e+1, -105825.47, -663203.4, 913.0091, -0.000032482032, 0.00008613795, -105823.97, -105823.97, 0.0, 2.5004773, 2.498632 
2.5379816e+2, 2.3735222e+1, -105477.24, -662187.3, -756.9267, -0.0000023966936, -0.000012278073, -105476.21, -105476.21, 0.0, 2.5004768, 2.4986339 
2.5379813e+2, 2.6233858e+1, -105721.85, -662396.1, -827.17194, 0.000036236237, -0.00010872002, -105720.62, -105720.62, 0.0, 2.5004766, 2.4986336 
2.5379813e+2, 2.8732494e+1, -105969.95, -662607.8, -898.1317, 0.00008298966, -0.00020151233, -105968.5, -105968.5, 0.0, 2.5004764, 2.4986334 
2.5379816e+2, 3.1231204e+1, -63933.547, -575626.1, 994.33453, -0.000077001736, 0.0001944067, -63931.613, -63931.613, 0.0, 2.5004766, 2.4987824 
2.5379816e+2, 3.372999e+1, -63192.703, -573720.06, -953.2413, -0.000028025286, 0.00004212475, -63190.926, -63190.926, 0.0, 2.5004764, 2.498786 
2.5379816e+2, 3.6228776e+1, -63494.93, -573971.5, -995.9769, 0.000022844855, -0.00010936214, -63492.99, -63492.99, 0.0, 2.500476, 2.4987857 
2.5379816e+2, 3.872756e+1, -63799.754, -574224.1, -1039.8079, 0.00007406774, -0.00025625256, -63797.637, -63797.637, 0.0, 2.5004754, 2.4987855 
2.5379816e+2, 4.1226426e+1, -22222.932, -488042.34, 865.9202, 0.00008093469, 0.00024381911, -22221.322, -22221.322, 0.0, 2.5004756, 2.498933 
2.5379816e+2, 4.372536e+1, -20890.055, -485099.7, -983.13916, 0.000031207393, 0.0000573036, -20887.973, -20887.973, 0.0, 2.5004754, 2.4989383 
2.5379816e+2, 4.62243e+1, -21072.059, -485293.84, -1064.3228, -0.000009687853, -0.00013243657, -21069.62, -21069.62, 0.0, 2.5004752, 2.498938 
2.5379816e+2, 4.8723236e+1, -21257.152, -485488.4, -1146.7516, -0.00004149002, -0.00031905013, -21254.32, -21254.32, 0.0, 2.5004752, 2.4989378 
2.5379816e+2, 5.122225e+1, 19811.346, -400408.1, 429.83127, -0.000060721926, 0.00032813373, 19811.785, 19811.785, 0.0, 2.5004754, 2.4990838 
2.5379816e+2, 5.372134e+1, 21581.307, -396486.28, -879.8371, -0.00001794049, 0.000099217716, 21583.158, 21583.158, 0.0, 2.5004752, 2.4990907 
2.537982e+2, 5.622043e+1, 21361.764, -396686.34, -945.6608, 0.00002995202, -0.00013586684, 21363.904, 21363.904, 0.0, 2.5004747, 2.4990904 
2.537982e+2, 5.8719516e+1, 21138.186, -396888.34, -1013.0172, 0.00008289818, -0.00036754957, 21140.64, 21140.64, 0.0, 2.5004745, 2.4990902 
2.537982e+2, 6.121868e+1, 61585.56, -312810.47, -136.34465, 0.00024559605, 0.0003270597, 61585.605, 61585.605, 0.0, 2.5004745, 2.4992344 
2.537982e+2, 6.371792e+1, 63991.844, -307916.22, -629.52606, 0.000060301903, 0.000070366616, 63992.91, 63992.91, 0.0, 2.5004745, 2.4992428 
2.537982e+2, 6.621716e+1, 64011.516, -307974.1, -695.2158, -0.00012608156, -0.00019507376, 64012.813, 64012.813, 0.0, 2.5004747, 2.4992428 
2.537982e+2, 6.87164e+1, 64027.37, -308033.8, -761.66046, -0.00031041048, -0.00045743, 64028.93, 64028.93, 0.0, 2.5004747, 2.4992425 
2.537982e+2, 7.121572e+1, 103994.15, -225082.72, -700.55884, 0.00014109327, 0.00048422665, 103995.64, 103995.64, 0.0, 2.500475, 2.4993849 
2.537982e+2, 7.371511e+1, 107058.31, -219137.72, -378.86383, 0.0001490163, 0.00031676117, 107058.76, 107058.76, 0.0, 2.5004754, 2.499395 
2.537982e+2, 7.62145e+1, 107294.27, -219065.11, -474.71786, 0.00014885742, 0.0001359825, 107294.96, 107294.96, 0.0, 2.5004756, 2.499395 
2.5379822e+2, 7.871389e+1, 107526.51, -218994.3, -571.3189, 0.00014859933, -0.00004204696, 107527.51, 107527.51, 0.0, 2.5004761, 2.4993947 
2.5379822e+2, 8.1213355e+1, 146852.47, -137344.69, -1247.763, 0.00019131071, 0.00042247958, 146857.94, 146857.94, 0.0, 2.5004764, 2.4995348 
2.5379822e+2, 8.37129e+1, 150384.78, -130338.91, -88.0205, -0.00014214395, -0.00003664913, 150384.81, 150384.81, 0.0, 2.5004766, 2.4995468 
2.5379822e+2, 8.621244e+1, 150585.66, -130250.99, -143.90294, -0.0004759554, -0.00050705613, 150585.73, 150585.73, 0.0, 2.500477, 2.4995468 
2.5379822e+2, 8.871198e+1, 150781.45, -130165.52, -199.4767, -0.0008071103, -0.0009774446, 150781.6, 150781.6, 0.0, 2.5004773, 2.4995468 
2.5379825e+2, 9.121161e+1, 189500.72, -49913.582, -1028.4128, 0.0009146042, 0.0010130783, 189505.14, 189505.14, 0.0, 2.5004776, 2.4996843 
2.5379825e+2, 9.37113e+1, 194203.17, -41208.484, -88.90739, 0.00052435236, 0.00063856324, 194203.2, 194203.2, 0.0, 2.5004787, 2.4996989 
2.5379825e+2, 9.621099e+1, 194862.86, -40890.926, -203.55438, 0.00010595181, 0.00020722426, 194863.03, 194863.03, 0.0, 2.5004797, 2.4996989 
2.5379825e+2, 9.871068e+1, 195510.89, -40578.984, -317.10303, -0.00030640946, -0.00024313164, 195511.31, 195511.31, 0.0, 2.500481, 2.4996989 
2.562986e+2, 1.24916635e+0, -190137.7, -838739.5, -1.5200949, -0.00019101439, -0.000014953088, -190137.7, -190137.7, 0.0, 2.5004776, 2.4983306 
2.562986e+2, 3.7474993e+0, -190497.08, -839313.6, -109.93129, -0.00011005398, -0.000044152308, -190497.06, -190497.06, 0.0, 2.5004776, 2.4983299 
2.562986e+2, 6.245832e+0, -190620.55, -839394.4, -157.90147, -0.00003129082, -0.00007240803, -190620.52, -190620.52, 0.0, 2.5004773, 2.4983296 
2.562986e+2, 8.744165e+0, -190746.03, -839476.1, -206.23932, 0.00004527553, -0.00009972045, -190745.97, -190745.97, 0.0, 2.500477, 2.4983296 
2.562986e+2, 1.12425745e+1, -148215.27, -751295.4, 529.73474, -0.000018456574, 0.00007672492, -148214.8, -148214.8, 0.0, 2.5004773, 2.4984808 
2.562986e+2, 1.3741058e+1, -148004.97, -750779.75, -479.2782, -0.000029885454, 0.00003913548, -148004.58, -148004.58, 0.0, 2.500477, 2.4984818 
2.562986e+2, 1.6239542e+1, -148096.86, -750888.9, -512.50366, -0.00004605256, 0.0000044031185, -148096.42, -148096.42, 0.0, 2.500477, 2.4984815 
2.562986e+2, 1.8738025e+1, -148190.47, -750999.44, -546.2083, -0.00006722282, -0.000026959971, -148189.97, -148189.97, 0.0, 2.500477, 2.4984815 
2.562986e+2, 2.1236588e+1, -105887.27, -663403.1, 918.36005, -0.00018379318, 0.0002019331, -105885.766, -105885.766, 0.0, 2.5004773, 2.4986315 
2.562986e+2, 2.3735219e+1, -105537.34, -662389.5, -811.22406, -0.00012803599, 0.000040650146, -105536.164, -105536.164, 0.0, 2.500477, 2.4986334 
2.562986e+2, 2.6233855e+1, -105780.695, -662601.5, -877.9415, -0.00007260044, -0.000118096184, -105779.31, -105779.31, 0.0, 2.5004766, 2.4986331 
2.562986e+2, 2.8732488e+1, -106027.914, -662817.2, -945.0706, -0.000018194452, -0.00027264687, -106026.31, -106026.31, 0.0, 2.5004764, 2.498633 
2.5629863e+2, 3.12312e+1, -63910.055, -575707.44, 1026.4117, -0.00010742924, 0.00010494299, -63907.996, -63907.996, 0.0, 2.5004768, 2.4987822 
2.562986e+2, 3.3729988e+1, -63146.81, -573761.94, -1019.3953, -0.00004999852, 0.000008995162, -63144.773, -63144.773, 0.0, 2.5004764, 2.4987857 
2.562986e+2, 3.622877e+1, -63448.42, -574019.0, -1058.3104, -0.0000015422112, -0.000085298234, -63446.227, -63446.227, 0.0, 2.5004761, 2.4987855 
2.562986e+2, 3.8727558e+1, -63752.66, -574277.25, -1098.0868, 0.00003684975, -0.0001742456, -63750.3, -63750.3, 0.0, 2.5004756, 2.4987853 
2.5629863e+2, 4.1226423e+1, -22219.059, -488247.16, 890.45746, -0.00003010664, 0.00034910924, -22217.357, -22217.357, 0.0, 2.500476, 2.4989326 
2.5629863e+2, 4.3725356e+1, -20848.443, -485233.2, -1016.02234, -0.00006460722, 0.000105811094, -20846.22, -20846.22, 0.0, 2.5004756, 2.498938 
2.5629863e+2, 4.6224293e+1, -21030.643, -485434.34, -1092.0115, -0.00010332179, -0.0001399659, -21028.074, -21028.074, 0.0, 2.5004754, 2.4989376 
2.562986e+2, 4.8723233e+1, -21215.191, -485634.38, -1169.0317, -0.00014666577, -0.0003816879, -21212.25, -21212.25, 0.0, 2.5004754, 2.4989374 
2.5629863e+2, 5.1222247e+1, 19896.105, -400492.8, 433.66452, -0.0000975053, 0.00024679492, 19896.553, 19896.553, 0.0, 2.5004756, 2.4990835 
2.5629863e+2, 5.372133e+1, 21697.908, -396513.34, -923.45575, -0.000041193984, 0.000052166666, 21699.947, 21699.947, 0.0, 2.5004754, 2.4990904 
2.5629863e+2, 5.622042e+1, 21481.8, -396714.53, -983.8701, 0.000004951397, -0.00014894099, 21484.117, 21484.117, 0.0, 2.5004752, 2.4990902 
2.5629863e+2, 5.871951e+1, 21261.982, -396917.0, -1045.6572, 0.0000416031, -0.00034704222, 21264.596, 21264.596, 0.0, 2.5004747, 2.49909 
2.5629863e+2, 6.1218673e+1, 61714.977, -312858.0, -143.70558, 0.000173809, 0.0003648111, 61715.03, 61715.03, 0.0, 2.5004747, 2.4992342 
2.5629863e+2, 6.3717914e+1, 64154.973, -307901.28, -609.00183, -0.0000025373377, 0.000085430045, 64155.97, 64155.97, 0.0, 2.500475, 2.4992428 
2.5629863e+2, 6.6217154e+1, 64176.875, -307961.8, -670.0849, -0.00019191836, -0.00020266432, 64178.08, 64178.08, 0.0, 2.500475, 2.4992425 
2.5629863e+2, 6.8716395e+1, 64194.96, -308024.16, -731.92285, -0.000391434, -0.00048750162, 64196.402, 64196.402, 0.0, 2.5004752, 2.4992423 
2.5629863e+2, 7.1215713e+1, 104111.51, -225182.08, -694.65015, 0.000086633205, 0.0004415856, 104112.98, 104112.98, 0.0, 2.5004752, 2.4993846 
2.5629866e+2, 7.37151e+1, 107185.49, -219222.95, -305.6951, 0.000109718225, 0.00023244882, 107185.77, 107185.77, 0.0, 2.5004756, 2.4993947 
2.5629866e+2, 7.621449e+1, 107426.53, -219146.05, -397.47324, 0.000113803726, 0.000009443342, 107427.016, 107427.016, 0.0, 2.5004761, 2.4993944 
2.5629866e+2, 7.871388e+1, 107663.85, -219070.94, -489.9984, 0.00010723097, -0.00021108166, 107664.59, 107664.59, 0.0, 2.5004766, 2.4993944 
2.5629866e+2, 8.121335e+1, 147094.19, -137202.22, -1287.4148, 0.00014495639, 0.0002883649, 147100.02, 147100.02, 0.0, 2.5004766, 2.4995348 
2.5629866e+2, 8.371289e+1, 150602.31, -130245.36, -23.435696, -0.00020635527, -0.000115035575, 150602.31, 150602.31, 0.0, 2.500477, 2.4995468 
2.5629866e+2, 8.621243e+1, 150801.11, -130160.54, -74.319405, -0.0005712299, -0.00052827504, 150801.13, 150801.13, 0.0, 2.5004773, 2.4995468 
2.5629866e+2, 8.8711977e+1, 150994.8, -130078.18, -124.89445, -0.00094652054, -0.00093960564, 150994.86, 150994.86, 0.0, 2.5004778, 2.4995465 
2.5629872e+2, 9.12116e+1, 189783.22, -49726.305, -1015.28516, 0.00087770156, 0.0010575969, 189787.53, 189787.53, 0.0, 2.500478, 2.4996846 
2.5629872e+2, 9.3711287e+1, 194350.06, -41292.527, 96.53889, 0.00046862377, 0.00059416477, 194350.11, 194350.11, 0.0, 2.500479, 2.4996984 
2.5629872e+2, 9.6210974e+1, 195003.98, -40975.85, -7.55682, 0.0000040653786, 0.000076427394, 195003.98, 195003.98, 0.0, 2.5004802, 2.4996984 
2.5629872e+2, 9.871066e+1, 195646.23, -40664.797, -110.55421, -0.00047974577, -0.00045742266, 195646.3, 195646.3, 0.0, 2.5004814, 2.4996984 
2.587991e+2, 1.2491661e+0, -194355.89, -840924.0, -68.59578, -0.00036175587, -0.000025622476, -194355.89, -194355.89, 0.0, 2.5004706, 2.4983304 
2.587991e+2, 3.7474984e+0, -194565.19, -841431.5, -225.5291, -0.00023105126, -0.00007627671, -194565.1, -194565.1, 0.0, 2.5004706, 2.4983294 
2.587991e+2, 6.2458307e+0, -194598.55, -841467.8, -327.60547, -0.00011097199, -0.00012614239, -194598.39, -194598.39, 0.0, 2.5004706, 2.4983294 
2.587991e+2, 8.7441623e+0, -194698.17, -841536.0, -431.00284, -0.000001517669, -0.00017521967, -194697.89, -194697.89, 0.0, 2.5004704, 2.4983294 
2.587991e+2, 1.1242573e+1, -152012.95, -753247.44, 303.718, -0.00003292339, 0.00002810171, -152012.8, -152012.8, 0.0, 2.5004709, 2.4984806 
2.587991e+2, 1.3741058e+1, -151548.16, -752584.9, -785.3484, -0.00006086286, 0.000040987157, -151547.13, -151547.13, 0.0, 2.500471, 2.4984815 
2.587991e+2, 1.6239542e+1, -151455.34, -752608.7, -850.58655, -0.000099173776, 0.000057454963, -151454.14, -151454.14, 0.0, 2.5004714, 2.4984813 
2.587991e+2, 1.8738025e+1, -151417.06, -752660.25, -910.221, -0.00014804634, 0.0000780476, -151415.69, -151415.69, 0.0, 2.5004716, 2.4984813 
2.587991e+2, 2.1236585e+1, -108914.055, -665056.4, 550.38275, -0.00033835197, 0.00031273116, -108913.516, -108913.516, 0.0, 2.5004723, 2.498631 
2.587991e+2, 2.3735218e+1, -108224.54, -663861.06, -1280.3251, -0.00025688854, 0.00008545342, -108221.59, -108221.59, 0.0, 2.5004725, 2.498633 
2.587991e+2, 2.6233852e+1, -108202.1, -663948.3, -1370.3148, -0.00018413735, -0.00013879628, -108198.73, -108198.73, 0.0, 2.5004728, 2.498633 
2.587991e+2, 2.8732485e+1, -108244.26, -664069.0, -1454.1545, -0.000121186, -0.00035830642, -108240.45, -108240.45, 0.0, 2.5004728, 2.4986327 
2.587991e+2, 3.1231195e+1, -65776.055, -576712.3, 596.6074, -0.000120513854, 0.000006316604, -65775.36, -65775.36, 0.0, 2.5004737, 2.498782 
2.587991e+2, 3.3729985e+1, -64634.81, -574542.94, -1536.015, -0.000053183292, -0.000036171245, -64630.184, -64630.184, 0.0, 2.500474, 2.4987855 
2.587991e+2, 3.6228767e+1, -64667.207, -574675.56, -1548.3779, -0.000005212381, -0.00007623009, -64662.504, -64662.504, 0.0, 2.500474, 2.4987853 
2.587991e+2, 3.8727555e+1, -64781.54, -574847.75, -1552.8705, 0.00002290431, -0.00011022564, -64776.813, -64776.813, 0.0, 2.500474, 2.498785 
2.587991e+2, 4.1226417e+1, -23040.791, -488867.25, 560.31323, -0.00015165735, 0.0004476617, -23040.117, -23040.117, 0.0, 2.5004747, 2.4989321 
2.587991e+2, 4.3725353e+1, -21291.201, -485596.75, -1393.7389, -0.00016977264, 0.00014448569, -21287.018, -21287.018, 0.0, 2.5004752, 2.4989376 
2.587991e+2, 4.622429e+1, -21241.902, -485692.63, -1433.8273, -0.00020426563, -0.00016049303, -21237.477, -21237.477, 0.0, 2.5004754, 2.4989374 
2.587991e+2, 4.8723224e+1, -21291.006, -485832.28, -1466.8018, -0.00025654634, -0.00046043415, -21286.373, -21286.373, 0.0, 2.5004754, 2.4989371 
2.587991e+2, 5.1222235e+1, 20018.172, -400573.6, 226.01096, -0.000119569835, 0.00016413374, 20018.293, 20018.293, 0.0, 2.500476, 2.499083 
2.587991e+2, 5.3721327e+1, 22066.326, -396412.47, -1096.4707, -0.000050245624, 0.0000004286259, 22069.2, 22069.2, 0.0, 2.5004761, 2.4990902 
2.587991e+2, 5.622042e+1, 21939.744, -396572.9, -1066.1278, -0.000005870635, -0.00017013014, 21942.459, 21942.459, 0.0, 2.500476, 2.49909 
2.587991e+2, 5.8719504e+1, 21694.01, -396789.6, -1034.7035, 0.000015166877, -0.0003379607, 21696.568, 21696.568, 0.0, 2.5004756, 2.4990897 
2.5879914e+2, 6.121867e+1, 62130.023, -312779.06, -13.675169, 0.00010170313, 0.00040143644, 62130.023, 62130.023, 0.0, 2.5004756, 2.499234 
2.5879914e+2, 6.371791e+1, 64638.72, -307723.3, -366.29825, -0.00006763303, 0.000096532574, 64639.08, 64639.08, 0.0, 2.500476, 2.4992425 
2.5879914e+2, 6.621715e+1, 64576.26, -307827.84, -329.01065, -0.0002611254, -0.0002171537, 64576.55, 64576.55, 0.0, 2.500476, 2.4992423 
2.5879914e+2, 6.8716383e+1, 64400.504, -307986.94, -288.67172, -0.00047631984, -0.000527359, 64400.727, 64400.727, 0.0, 2.5004756, 2.4992423 
2.5879914e+2, 7.121571e+1, 104013.625, -225400.52, -173.32307, 0.000045277335, 0.00040373357, 104013.72, 104013.72, 0.0, 2.5004752, 2.4993842 
2.5879914e+2, 7.3715097e+1, 106835.43, -219528.86, 393.18384, 0.00007975964, 0.00015021107, 106835.9, 106835.9, 0.0, 2.5004752, 2.4993942 
2.5879914e+2, 7.6214486e+1, 106684.49, -219638.89, 409.90308, 0.000084703315, -0.00011796045, 106685.01, 106685.01, 0.0, 2.500475, 2.4993942 
2.5879914e+2, 7.8713876e+1, 106410.16, -219808.38, 422.9271, 0.00006903717, -0.00038392597, 106410.71, 106410.71, 0.0, 2.5004747, 2.4993942 
2.5879914e+2, 8.1213343e+1, 145390.47, -138017.34, -393.67984, 0.00011264019, 0.00015969564, 145391.02, 145391.02, 0.0, 2.5004737, 2.4995348 
2.5879917e+2, 8.371288e+1, 148346.48, -131334.55, 1093.368, -0.00025672742, -0.00019088607, 148350.77, 148350.77, 0.0, 2.500473, 2.4995468 
2.5879917e+2, 8.6212426e+1, 147869.17, -131577.39, 1165.4095, -0.00065224705, -0.0005501374, 147874.03, 147874.03, 0.0, 2.5004723, 2.4995468 
2.5879917e+2, 8.8711965e+1, 147258.8, -131884.33, 1241.1403, -0.0010704773, -0.00090569846, 147264.33, 147264.33, 0.0, 2.5004714, 2.4995465 
2.587992e+2, 9.1211593e+1, 185216.47, -51911.9, 400.42667, 0.0008525146, 0.0011291872, 185217.16, 185217.16, 0.0, 2.5004702, 2.4996846 
2.587992e+2, 9.371128e+1, 188665.98, -44178.023, 1751.1602, 0.00042592263, 0.0005716544, 188679.16, 188679.16, 0.0, 2.5004694, 2.4996982 
2.587992e+2, 9.621097e+1, 188067.95, -44462.563, 1733.6206, -0.00008195755, -0.000038290105, 188080.88, 188080.88, 0.0, 2.5004685, 2.4996982 
2.587992e+2, 9.8710656e+1, 187232.52, -44861.43, 1716.1538, -0.0006329409, -0.00066155725, 187245.2, 187245.2, 0.0, 2.500467, 2.4996982 
2.6129955e+2, 1.24916576e+0, -189964.36, -839110.2, -24.813137, 0.000011225432, -0.000030520565, -189964.36, -189964.36, 0.0, 2.5004785, 2.4983296 
2.6129955e+2, 3.7474972e+0, -190169.42, -839620.5, -131.39183, 0.00008875154, -0.00009064831, -190169.4, -190169.4, 0.0, 2.5004785, 2.4983287 
2.6129955e+2, 6.245829e+0, -190130.72, -839622.1, -186.44514, 0.00017885906, -0.00014955732, -190130.66, -190130.66, 0.0, 2.5004785, 2.4983287 
2.6129955e+2, 8.7441605e+0, -190093.42, -839624.44, -241.81615, 0.00028154845, -0.0002072478, -190093.33, -190093.33, 0.0, 2.5004787, 2.4983287 
2.6129955e+2, 1.1242569e+1, -147572.64, -751398.06, 579.3311, 0.00025810816, -0.000013882771, -147572.1, -147572.1, 0.0, 2.5004787, 2.4984798 
2.6129955e+2, 1.3741052e+1, -147463.28, -750893.9, -555.3958, 0.00021966605, -0.000006743895, -147462.78, -147462.78, 0.0, 2.5004785, 2.4984808 
2.6129955e+2, 1.6239536e+1, -147675.02, -751053.3, -638.743, 0.0001909455, 0.0000030223507, -147674.34, -147674.34, 0.0, 2.5004783, 2.4984808 
2.6129955e+2, 1.873802e+1, -147889.92, -751216.4, -722.19965, 0.00017179763, 0.000015949536, -147889.06, -147889.06, 0.0, 2.5004778, 2.4984806 
2.6129958e+2, 2.123658e+1, -105661.11, -663699.5, 849.0247, -0.000053411743, 0.00025291208, -105659.81, -105659.81, 0.0, 2.500478, 2.4986305 
2.6129958e+2, 2.3735212e+1, -105303.07, -662630.0, -1010.46356, -0.0000030309523, 0.000029683659, -105301.234, -105301.234, 0.0, 2.5004778, 2.4986327 
2.6129955e+2, 2.6233846e+1, -105562.64, -662838.8, -1062.4912, 0.00005500523, -0.00019087717, -105560.62, -105560.62, 0.0, 2.5004773, 2.4986324 
2.6129955e+2, 2.873248e+1, -105825.23, -663051.9, -1114.3445, 0.000119422344, -0.00040704256, -105822.99, -105822.99, 0.0, 2.500477, 2.4986322 
2.6129958e+2, 3.123119e+1, -63807.65, -575882.9, 1035.6207, 0.00014498683, -0.00004720955, -63805.555, -63805.555, 0.0, 2.5004773, 2.4987817 
2.6129958e+2, 3.3729976e+1, -62972.344, -573827.94, -1256.7964, 0.00017323821, -0.00009368111, -62969.25, -62969.25, 0.0, 2.5004768, 2.4987855 
2.6129958e+2, 3.622876e+1, -63238.547, -574054.75, -1361.1246, 0.0002102836, -0.00013938425, -63234.92, -63234.92, 0.0, 2.5004766, 2.4987853 
2.6129958e+2, 3.8727546e+1, -63507.254, -574283.6, -1465.803, 0.00025598198, -0.00018072118, -63503.047, -63503.047, 0.0, 2.5004761, 2.498785 
2.6129958e+2, 4.122641e+1, -22083.47, -488421.66, 723.0409, 0.00003108148, 0.00037877884, -22082.35, -22082.35, 0.0, 2.5004764, 2.4989321 
2.6129958e+2, 4.3725345e+1, -20812.938, -485327.3, -1338.8146, -0.000011578758, 0.000093547795, -20809.078, -20809.078, 0.0, 2.500476, 2.4989376 
2.6129958e+2, 4.622428e+1, -21166.975, -485599.47, -1417.6313, -0.000044801225, -0.00019138736, -21162.648, -21162.648, 0.0, 2.5004754, 2.4989376 
2.6129958e+2, 4.8723218e+1, -21520.592, -485867.72, -1496.9938, -0.00007045802, -0.00046921562, -21515.766, -21515.766, 0.0, 2.500475, 2.4989374 
2.6129958e+2, 5.122223e+1, 19402.152, -400754.6, 200.27866, 0.00010033613, 0.00017670421, 19402.246, 19402.246, 0.0, 2.5004747, 2.4990833 
2.6129958e+2, 5.372132e+1, 21385.963, -396578.38, -1283.5522, 0.000117151714, 0.00002205628, 21389.904, 21389.904, 0.0, 2.5004747, 2.4990907 
2.6129958e+2, 5.622041e+1, 21291.344, -396714.88, -1391.6456, 0.0001400214, -0.0001343171, 21295.977, 21295.977, 0.0, 2.5004747, 2.4990904 
2.6129958e+2, 5.87195e+1, 21195.422, -396850.47, -1500.5963, 0.00017110532, -0.0002827619, 21200.809, 21200.809, 0.0, 2.5004747, 2.4990902 
2.6129958e+2, 6.121866e+1, 61608.652, -312832.3, -570.8495, 0.00023225778, 0.00047741513, 61609.523, 61609.523, 0.0, 2.5004745, 2.4992344 
2.6129958e+2, 6.37179e+1, 64015.48, -307788.56, -1051.1108, 0.000032594202, 0.00017083947, 64018.453, 64018.453, 0.0, 2.5004745, 2.499243 
2.6129958e+2, 6.621714e+1, 63944.875, -307888.34, -1167.6597, -0.00016322026, -0.00014274484, 63948.543, 63948.543, 0.0, 2.5004745, 2.499243 
2.6129958e+2, 6.8716383e+1, 63871.84, -307989.63, -1285.2802, -0.0003529377, -0.0004509375, 63876.285, 63876.285, 0.0, 2.5004745, 2.4992428 
2.6129958e+2, 7.12157e+1, 103543.7, -225324.19, -1305.354, 0.00020802733, 0.0005144284, 103548.88, 103548.88, 0.0, 2.5004742, 2.4993849 
2.612996e+2, 7.371509e+1, 106545.71, -219371.42, -751.5865, 0.00022374072, 0.0002786508, 106547.445, 106547.445, 0.0, 2.5004745, 2.499395 
2.612996e+2, 7.621448e+1, 106697.85, -219339.83, -826.7861, 0.00023526861, 0.000026905624, 106699.945, 106699.945, 0.0, 2.5004747, 2.499395 
2.612996e+2, 7.8713876e+1, 106847.27, -219309.53, -902.424, 0.0002520084, -0.00022361195, 106849.766, 106849.766, 0.0, 2.500475, 2.4993947 
2.612996e+2, 8.121333e+1, 146259.75, -137277.17, -1910.2136, 0.00029316332, 0.00034238864, 146272.61, 146272.61, 0.0, 2.500475, 2.4995356 
2.612996e+2, 8.3712876e+1, 149987.47, -130290.914, -497.73566, -0.00012412516, -0.000004912416, 149988.34, 149988.34, 0.0, 2.5004756, 2.4995472 
2.612996e+2, 8.6212426e+1, 150459.02, -130073.41, -633.8224, -0.0005340706, -0.00036702567, 150460.45, 150460.45, 0.0, 2.5004766, 2.4995472 
2.612996e+2, 8.8711965e+1, 150927.25, -129857.49, -769.7814, -0.0009331207, -0.00073140097, 150929.36, 150929.36, 0.0, 2.5004773, 2.4995472 
2.6129964e+2, 9.1211593e+1, 189642.64, -49356.414, -1854.8906, 0.0011289729, 0.0013614506, 189657.05, 189657.05, 0.0, 2.5004773, 2.4996855 
2.6129964e+2, 9.371128e+1, 193746.56, -41486.324, -381.99432, 0.0007052018, 0.00079168833, 193747.19, 193747.19, 0.0, 2.500478, 2.4996986 
2.6129964e+2, 9.621097e+1, 194149.48, -41295.13, -459.13675, 0.00025493247, 0.00016187133, 194150.39, 194150.39, 0.0, 2.5004787, 2.4996986 
2.6129964e+2, 9.8710656e+1, 194528.7, -41115.355, -535.6883, -0.00018159107, -0.00048779533, 194529.92, 194529.92, 0.0, 2.5004792, 2.4996986 
2.6380005e+2, 1.24916576e+0, -190059.17, -839308.06, -20.15555, 0.00003080637, -0.000018030605, -190059.17, -190059.17, 0.0, 2.5004785, 2.4983294 
2.6380005e+2, 3.7474972e+0, -190265.2, -839822.3, -120.255, 0.00003626305, -0.00005341377, -190265.19, -190265.19, 0.0, 2.5004785, 2.4983284 
2.6380005e+2, 6.245829e+0, -190225.72, -839824.2, -172.88847, 0.00004699893, -0.000087892004, -190225.67, -190225.67, 0.0, 2.5004785, 2.4983284 
2.6380005e+2, 8.74416e+0, -190187.64, -839826.75, -225.83963, 0.00006301447, -0.0001214655, -190187.56, -190187.56, 0.0, 2.5004787, 2.4983282 
2.6380005e+2, 1.1242568e+1, -147686.2, -751657.06, 552.20886, 0.00002897349, 0.000044582197, -147685.7, -147685.7, 0.0, 2.5004787, 2.4984794 
2.6380005e+2, 1.374105e+1, -147588.77, -751181.3, -606.7073, 0.000058252408, 0.000004167964, -147588.16, -147588.16, 0.0, 2.5004785, 2.4984803 
2.6380005e+2, 1.6239534e+1, -147800.02, -751343.4, -687.4086, 0.00009172004, -0.00003345312, -147799.23, -147799.23, 0.0, 2.5004783, 2.4984803 
2.6380005e+2, 1.8738016e+1, -148014.88, -751510.06, -768.0585, 0.00012922191, -0.00006778613, -148013.9, -148013.9, 0.0, 2.500478, 2.49848 
2.6380005e+2, 2.1236576e+1, -105695.83, -663840.75, 860.997, -0.00006803714, 0.00017583776, -105694.5, -105694.5, 0.0, 2.5004783, 2.4986303 
2.6380005e+2, 2.3735209e+1, -105326.83, -662754.7, -1069.5858, -0.00003388865, 0.000023917584, -105324.77, -105324.77, 0.0, 2.5004778, 2.4986324 
2.6380005e+2, 2.6233843e+1, -105585.555, -662967.75, -1119.6697, 0.000003493237, -0.00012487834, -105583.305, -105583.305, 0.0, 2.5004776, 2.4986322 
2.6380005e+2, 2.8732476e+1, -105847.414, -663185.3, -1169.5079, 0.000042873522, -0.00026884966, -105844.96, -105844.96, 0.0, 2.500477, 2.498632 
2.6380005e+2, 3.1231186e+1, -63863.14, -576129.6, 1030.1274, 0.000047784826, 0.000094527175, -63861.07, -63861.07, 0.0, 2.5004773, 2.4987812 
2.6380005e+2, 3.3729973e+1, -63032.918, -574093.0, -1314.7229, 0.00006256216, -0.00001971746, -63029.535, -63029.535, 0.0, 2.500477, 2.4987848 
2.6380005e+2, 3.6228755e+1, -63297.805, -574324.7, -1416.6426, 0.000080857004, -0.00013324848, -63293.88, -63293.88, 0.0, 2.5004766, 2.4987845 
2.6380005e+2, 3.8727543e+1, -63565.645, -574559.25, -1518.6426, 0.00010251547, -0.00024245893, -63561.133, -63561.133, 0.0, 2.5004764, 2.4987843 
2.6380005e+2, 4.1226402e+1, -22036.49, -488515.44, 716.70404, -0.00007646515, 0.00027386352, -22035.389, -22035.389, 0.0, 2.5004766, 2.498932 
2.6380005e+2, 4.372534e+1, -20765.842, -485430.8, -1416.976, -0.00006243791, 0.00004371745, -20761.52, -20761.52, 0.0, 2.5004761, 2.4989374 
2.6380005e+2, 4.6224272e+1, -21116.734, -485706.1, -1493.2832, -0.000044843833, -0.0001871465, -21111.934, -21111.934, 0.0, 2.5004756, 2.4989371 
2.6380005e+2, 4.872321e+1, -21467.543, -485978.16, -1569.845, -0.000025332502, -0.00041224944, -21462.238, -21462.238, 0.0, 2.5004752, 2.498937 
2.6380005e+2, 5.1222223e+1, 19444.248, -400924.38, 191.61253, 0.00013414821, 0.0002459195, 19444.336, 19444.336, 0.0, 2.5004752, 2.499083 
2.6380005e+2, 5.3721315e+1, 21439.174, -396734.9, -1291.8759, 0.0000936597, 0.000057990517, 21443.164, 21443.164, 0.0, 2.500475, 2.4990902 
2.6380005e+2, 5.62204e+1, 21348.146, -396873.4, -1397.2484, 0.000053132782, -0.00013332354, 21352.814, 21352.814, 0.0, 2.500475, 2.49909 
2.6380005e+2, 5.871949e+1, 21255.678, -397011.38, -1503.272, 0.000014702936, -0.00031834267, 21261.08, 21261.08, 0.0, 2.500475, 2.4990897 
2.6380008e+2, 6.1218655e+1, 61689.363, -312972.22, -604.45123, 0.00008175738, 0.00041829052, 61690.34, 61690.34, 0.0, 2.500475, 2.499234 
2.6380008e+2, 6.371789e+1, 64096.09, -307935.8, -1055.0618, -0.000060169008, 0.00009832861, 64099.082, 64099.082, 0.0, 2.500475, 2.4992428 
2.6380008e+2, 6.621713e+1, 64028.188, -308036.9, -1169.2529, -0.00020358914, -0.00022937346, 64031.863, 64031.863, 0.0, 2.5004747, 2.4992425 
2.6380008e+2, 6.871637e+1, 63957.617, -308140.0, -1284.4934, -0.00034610878, -0.000552366, 63962.055, 63962.055, 0.0, 2.5004747, 2.4992423 
2.6380008e+2, 7.121569e+1, 103761.32, -225226.02, -1346.0759, 0.00023891297, 0.0004340985, 103766.83, 103766.83, 0.0, 2.5004745, 2.4993849 
2.6380008e+2, 7.371508e+1, 106744.0, -219315.88, -697.07513, 0.00023580554, 0.00023585263, 106745.49, 106745.49, 0.0, 2.5004747, 2.499395 
2.6380008e+2, 7.621447e+1, 106896.7, -219285.31, -769.51526, 0.00022226271, 0.000021949647, 106898.516, 106898.516, 0.0, 2.5004752, 2.4993947 
2.6380008e+2, 7.871386e+1, 107046.68, -219256.06, -842.39374, 0.0002078626, -0.00019023473, 107048.85, 107048.85, 0.0, 2.5004754, 2.4993947 
2.6380008e+2, 8.1213325e+1, 146447.1, -137271.27, -1928.6235, 0.00021047803, 0.0003444962, 146460.2, 146460.2, 0.0, 2.5004752, 2.4995356 
2.638001e+2, 8.371287e+1, 150095.44, -130447.92, -364.92456, -0.00022729782, -0.00007873737, 150095.9, 150095.9, 0.0, 2.5004761, 2.4995468 
2.638001e+2, 8.621241e+1, 150564.92, -130232.44, -497.68912, -0.00066471385, -0.0005157101, 150565.8, 150565.8, 0.0, 2.5004768, 2.4995468 
2.638001e+2, 8.8711953e+1, 151031.08, -130018.555, -630.3259, -0.0010983957, -0.0009540176, 151032.48, 151032.48, 0.0, 2.5004778, 2.4995468 
2.6380014e+2, 9.121158e+1, 190010.5, -49012.457, -1946.6814, 0.0010826833, 0.0012033636, 190026.36, 190026.36, 0.0, 2.5004778, 2.4996858 
2.6380014e+2, 9.371126e+1, 194003.08, -41364.914, -258.26514, 0.0006473569, 0.0006628958, 194003.36, 194003.36, 0.0, 2.5004785, 2.4996986 
2.6380014e+2, 9.621095e+1, 194405.97, -41173.277, -328.449, 0.00016878404, 0.000062291576, 194406.44, 194406.44, 0.0, 2.500479, 2.4996986 
2.6380014e+2, 9.871064e+1, 194801.64, -40985.13, -397.73615, -0.00031064998, -0.0005567913, 194802.31, 194802.31, 0.0, 2.5004797, 2.4996986 
2.6630053e+2, 1.24916576e+0, -190154.55, -839507.2, -15.162569, 0.000050426166, -0.000006509709, -190154.55, -190154.55, 0.0, 2.5004785, 2.498329 
2.6630053e+2, 3.7474972e+0, -190362.64, -840027.56, -108.85601, -0.000016108861, -0.000019086423, -190362.63, -190362.63, 0.0, 2.5004785, 2.498328 
2.6630053e+2, 6.245829e+0, -190322.38, -840029.7, -159.06964, -0.00008466689, -0.000031072013, -190322.33, -190322.33, 0.0, 2.5004785, 2.498328 
2.6630053e+2, 8.74416e+0, -190283.52, -840032.5, -209.60095, -0.00015524747, -0.000042466665, -190283.45, -190283.45, 0.0, 2.5004787, 2.498328 
2.6630053e+2, 1.1242567e+1, -147809.34, -751935.94, 528.2048, -0.00020094379, 0.000102754566, -147808.88, -147808.88, 0.0, 2.5004787, 2.498479 
2.6630053e+2, 1.3741049e+1, -147715.95, -751472.3, -657.19806, -0.000103044935, 0.000010945142, -147715.23, -147715.23, 0.0, 2.5004785, 2.4984798 
2.6630053e+2, 1.623953e+1, -147926.72, -751637.0, -735.25354, -0.000006489044, -0.000077926554, -147925.83, -147925.83, 0.0, 2.5004783, 2.4984798 
2.6630053e+2, 1.8738012e+1, -148141.56, -751807.3, -813.0983, 0.000088562636, -0.00016338304, -148140.47, -148140.47, 0.0, 2.500478, 2.4984796 
2.6630053e+2, 2.1236572e+1, -105742.37, -664006.5, 879.7643, -0.00008481092, 0.00009396712, -105740.984, -105740.984, 0.0, 2.5004783, 2.49863 
2.6630053e+2, 2.3735204e+1, -105352.12, -662882.44, -1127.4635, -0.00006533883, 0.000009614537, -105349.836, -105349.836, 0.0, 2.500478, 2.4986322 
2.6630053e+2, 2.623384e+1, -105609.99, -663099.8, -1175.6035, -0.00004703308, -0.00007120473, -105607.516, -105607.516, 0.0, 2.5004776, 2.498632 
2.6630053e+2, 2.8732473e+1, -105871.14, -663321.94, -1223.4331, -0.00003111147, -0.00014677021, -105868.45, -105868.45, 0.0, 2.5004773, 2.4986317 
2.6630053e+2, 3.1231183e+1, -63930.91, -576401.9, 1033.4305, -0.00005391174, 0.00022934708, -63928.824, -63928.824, 0.0, 2.5004776, 2.4987807 
2.6630053e+2, 3.3729964e+1, -63094.79, -574360.8, -1371.051, -0.00005078654, 0.000044102217, -63091.11, -63091.11, 0.0, 2.500477, 2.4987843 
2.6630053e+2, 3.6228752e+1, -63358.355, -574597.25, -1470.5623, -0.000049366405, -0.00014056668, -63354.13, -63354.13, 0.0, 2.5004768, 2.498784 
2.6630053e+2, 3.8727534e+1, -63625.313, -574837.5, -1569.8835, -0.000049872015, -0.00032096065, -63620.492, -63620.492, 0.0, 2.5004766, 2.4987838 
2.6630053e+2, 4.1226396e+1, -22000.537, -488632.13, 716.5293, -0.00018500711, 0.00016305741, -21999.438, -21999.438, 0.0, 2.5004768, 2.4989316 
2.6630053e+2, 4.372533e+1, -20719.9, -485536.7, -1493.6198, -0.00011290427, -0.000015623855, -20715.102, -20715.102, 0.0, 2.5004764, 2.4989371 
2.6630053e+2, 4.622427e+1, -21067.648, -485815.1, -1567.4175, -0.000043089694, -0.00019615781, -21062.363, -21062.363, 0.0, 2.500476, 2.498937 
2.6630053e+2, 4.8723206e+1, -21415.736, -486091.16, -1641.1401, 0.000022993712, -0.0003722766, -21409.94, -21409.94, 0.0, 2.5004754, 2.4989367 
2.6630053e+2, 5.122222e+1, 19474.072, -401119.66, 188.83676, 0.00016420547, 0.00030807315, 19474.156, 19474.156, 0.0, 2.5004754, 2.4990826 
2.6630053e+2, 5.372131e+1, 21491.379, -396893.5, -1298.8765, 0.00006701877, 0.0000832224, 21495.41, 21495.41, 0.0, 2.5004754, 2.4990897 
2.6630053e+2, 5.6220394e+1, 21403.943, -397034.06, -1401.5281, -0.000036219884, -0.00014680534, 21408.637, 21408.637, 0.0, 2.5004752, 2.4990895 
2.6630053e+2, 5.871948e+1, 21314.984, -397174.22, -1504.5986, -0.00014347864, -0.00037217175, 21320.393, 21320.393, 0.0, 2.5004752, 2.4990892 
2.6630053e+2, 6.1218643e+1, 61754.473, -313144.53, -635.7807, -0.00006865068, 0.0003556178, 61755.55, 61755.55, 0.0, 2.5004752, 2.4992335 
2.6630053e+2, 6.3717884e+1, 64175.867, -308084.78, -1058.018, -0.00015305103, 0.000019166107, 64178.875, 64178.875, 0.0, 2.5004752, 2.4992423 
2.6630053e+2, 6.621712e+1, 64110.67, -308187.2, -1169.8512, -0.00024430934, -0.0003259681, 64114.348, 64114.348, 0.0, 2.5004752, 2.499242 
2.6630053e+2, 6.871636e+1, 64042.598, -308292.06, -1282.7214, -0.0003398637, -0.000667075, 64047.02, 64047.02, 0.0, 2.5004752, 2.4992418 
2.6630053e+2, 7.121568e+1, 103964.89, -225157.05, -1383.2544, 0.0002686689, 0.00035186534, 103970.71, 103970.71, 0.0, 2.500475, 2.4993846 
2.6630056e+2, 7.3715067e+1, 106941.555, -219261.88, -642.1589, 0.00024636256, 0.00018780788, 106942.82, 106942.82, 0.0, 2.5004752, 2.4993947 
2.6630056e+2, 7.621446e+1, 107094.81, -219232.34, -711.83954, 0.0002073886, 0.000008216657, 107096.37, 107096.37, 0.0, 2.5004754, 2.4993947 
2.6630056e+2, 7.871385e+1, 107245.34, -219204.11, -781.95856, 0.00016148813, -0.00016916495, 107247.22, 107247.22, 0.0, 2.500476, 2.4993944 
2.6630056e+2, 8.121332e+1, 146611.61, -137312.77, -1944.0182, 0.00012769966, 0.00034670602, 146624.92, 146624.92, 0.0, 2.5004756, 2.499535 
2.6630056e+2, 8.371285e+1, 150202.61, -130606.58, -232.1823, -0.0003292087, -0.00015683976, 150202.8, 150202.8, 0.0, 2.5004766, 2.4995463 
2.6630056e+2, 8.6212397e+1, 150670.02, -130393.125, -361.6247, -0.00079276523, -0.00067326165, 150670.48, 150670.48, 0.0, 2.5004773, 2.4995463 
2.6630056e+2, 8.8711935e+1, 151134.11, -130181.266, -490.93936, -0.0012597486, -0.0011900911, 151134.95, 151134.95, 0.0, 2.500478, 2.4995463 
2.663006e+2, 9.1211563e+1, 190344.92, -48737.973, -2030.3347, 0.0010320144, 0.0010680442, 190362.17, 190362.17, 0.0, 2.500478, 2.499686 
2.663006e+2, 9.371125e+1, 194258.72, -41245.324, -135.2077, 0.0005882873, 0.00055105344, 194258.8, 194258.8, 0.0, 2.5004787, 2.4996986 
2.6630062e+2, 9.6210945e+1, 194656.02, -41055.934, -198.91307, 0.000084687155, -0.000026760668, 194656.17, 194656.17, 0.0, 2.5004795, 2.4996986 
2.6630062e+2, 9.871063e+1, 195046.06, -40870.027, -261.72165, -0.00043438157, -0.0006216836, 195046.36, 195046.36, 0.0, 2.5004802, 2.4996986 
2.68801e+2, 1.2491657e+0, -194210.78, -841622.7, -48.865265, 0.00008069221, 0.0000039480205, -194210.78, -194210.78, 0.0, 2.5004716, 2.4983287 
2.68801e+2, 3.747497e+0, -194294.05, -842089.6, -213.87207, -0.000058261576, 0.00001209371, -194293.97, -194293.97, 0.0, 2.500472, 2.4983277 
2.68801e+2, 6.245828e+0, -194187.55, -842060.3, -337.94025, -0.00020597817, 0.000020573116, -194187.38, -194187.38, 0.0, 2.500472, 2.4983277 
2.68801e+2, 8.74416e+0, -194144.98, -842061.8, -460.80798, -0.00036245704, 0.000029386063, -194144.66, -194144.66, 0.0, 2.5004723, 2.4983275 
2.68801e+2, 1.1242566e+1, -151588.08, -753996.9, 171.86722, -0.00042097416, 0.00016017175, -151588.03, -151588.03, 0.0, 2.5004725, 2.4984784 
2.68801e+2, 1.3741048e+1, -151246.14, -753410.6, -1101.9619, -0.0002545256, 0.00001293682, -151244.13, -151244.13, 0.0, 2.5004728, 2.4984794 
2.68801e+2, 1.6239528e+1, -151259.08, -753482.4, -1230.9133, -0.00009455125, -0.00013121845, -151256.56, -151256.56, 0.0, 2.5004728, 2.4984791 
2.68801e+2, 1.8738009e+1, -151324.05, -753583.7, -1353.396, 0.000058779668, -0.00027181295, -151321.0, -151321.0, 0.0, 2.5004728, 2.4984791 
2.6880103e+2, 2.1236569e+1, -108637.266, -665565.44, 373.1567, -0.0000950688, 0.000006317616, -108637.016, -108637.016, 0.0, 2.5004735, 2.4986296 
2.68801e+2, 2.3735201e+1, -107918.08, -664238.06, -1741.8167, -0.00008927321, -0.000014039981, -107912.625, -107912.625, 0.0, 2.5004737, 2.498632 
2.68801e+2, 2.6233834e+1, -107922.01, -664337.0, -1805.2322, -0.000088726134, -0.000030471338, -107916.16, -107916.16, 0.0, 2.5004737, 2.4986317 
2.68801e+2, 2.873247e+1, -107973.86, -664462.7, -1859.8038, -0.00009465035, -0.00004118813, -107967.65, -107967.65, 0.0, 2.5004737, 2.4986315 
2.6880103e+2, 3.123118e+1, -65823.56, -577570.44, 470.38474, -0.00015256715, 0.00035703738, -65823.13, -65823.13, 0.0, 2.5004745, 2.49878 
2.68801e+2, 3.3729962e+1, -64653.68, -575348.75, -1975.3365, -0.0001599958, 0.00009776526, -64646.04, -64646.04, 0.0, 2.5004747, 2.4987838 
2.68801e+2, 3.6228743e+1, -64649.586, -575460.75, -2037.6545, -0.0001739966, -0.00016104052, -64641.457, -64641.457, 0.0, 2.500475, 2.4987836 
2.68801e+2, 3.8727528e+1, -64699.93, -575601.94, -2090.2488, -0.00019491104, -0.0004155053, -64691.375, -64691.375, 0.0, 2.500475, 2.4987833 
2.68801e+2, 4.1226387e+1, -22749.125, -489136.97, 317.27582, -0.00028861116, 0.000047394093, -22748.908, -22748.908, 0.0, 2.5004756, 2.4989314 
2.68801e+2, 4.3725327e+1, -21177.168, -485878.66, -1889.1044, -0.00015764247, -0.000083204606, -21169.49, -21169.49, 0.0, 2.5004756, 2.498937 
2.68801e+2, 4.6224263e+1, -21309.875, -486057.3, -1867.5358, -0.00003449732, -0.00021673676, -21302.37, -21302.37, 0.0, 2.5004756, 2.4989367 
2.68801e+2, 4.8723197e+1, -21503.059, -486263.44, -1837.5214, 0.00007957252, -0.0003470258, -21495.793, -21495.793, 0.0, 2.5004754, 2.4989364 
2.6880103e+2, 5.122221e+1, 19510.271, -401320.22, 182.5153, 0.00019528673, 0.000365857, 19510.352, 19510.352, 0.0, 2.5004756, 2.499082 
2.6880103e+2, 5.3721297e+1, 21715.662, -396958.94, -1182.1243, 0.00004145155, 0.00010070993, 21719.0, 21719.0, 0.0, 2.500476, 2.4990895 
2.68801e+2, 5.622038e+1, 21714.223, -397061.16, -1142.6565, -0.00012404472, -0.00017138384, 21717.34, 21717.34, 0.0, 2.500476, 2.4990892 
2.68801e+2, 5.871947e+1, 21639.176, -397197.75, -1095.8069, -0.00029935272, -0.00044029596, 21642.043, 21642.043, 0.0, 2.500476, 2.499089 
2.6880103e+2, 6.121864e+1, 62057.746, -313213.2, -99.667496, -0.00021497306, 0.00029383218, 62057.77, 62057.77, 0.0, 2.500476, 2.499233 
2.6880103e+2, 6.371787e+1, 64476.246, -308114.6, -330.99295, -0.00024235621, -0.00006188059, 64476.543, 64476.543, 0.0, 2.500476, 2.4992418 
2.6880103e+2, 6.621711e+1, 64297.76, -308273.72, -270.98642, -0.0002816309, -0.0004273747, 64297.96, 64297.96, 0.0, 2.5004756, 2.4992416 
2.6880103e+2, 6.871635e+1, 64032.313, -308476.4, -206.26788, -0.00033004567, -0.000789469, 64032.426, 64032.426, 0.0, 2.5004752, 2.4992416 
2.6880103e+2, 7.1215665e+1, 103828.81, -225259.92, -169.79173, 0.00030147578, 0.0002737192, 103828.9, 103828.9, 0.0, 2.5004747, 2.4993846 
2.6880103e+2, 7.3715055e+1, 106547.055, -219480.11, 830.4668, 0.00025929956, 0.00014082062, 106549.17, 106549.17, 0.0, 2.5004745, 2.4993947 
2.6880103e+2, 7.6214445e+1, 106334.6, -219627.73, 938.2754, 0.00019473732, -0.000007695408, 106337.3, 106337.3, 0.0, 2.5004742, 2.4993947 
2.6880106e+2, 7.8713846e+1, 106018.625, -219825.23, 1050.2357, 0.00011767515, -0.00015353078, 106022.01, 106022.01, 0.0, 2.5004737, 2.4993944 
2.6880103e+2, 8.12133e+1, 144804.3, -138328.4, -21.598614, 0.000050050712, 0.00035609928, 144804.3, 144804.3, 0.0, 2.5004728, 2.4995348 
2.6880106e+2, 8.3712846e+1, 147781.55, -131972.17, 1979.9783, -0.0004244386, -0.00023197161, 147795.55, 147795.55, 0.0, 2.5004725, 2.4995458 
2.6880106e+2, 8.621238e+1, 147556.22, -132093.28, 2001.6854, -0.00091203535, -0.0008322754, 147570.55, 147570.55, 0.0, 2.500472, 2.4995458 
2.6880106e+2, 8.8711923e+1, 147215.25, -132270.1, 2026.6683, -0.0014096457, -0.0014320705, 147229.95, 147229.95, 0.0, 2.5004716, 2.4995458 
2.688011e+2, 9.121156e+1, 185783.94, -50866.195, 411.26038, 0.0009852368, 0.0009628892, 185784.64, 185784.64, 0.0, 2.5004702, 2.4996862 
2.688011e+2, 9.3711245e+1, 188684.6, -43926.496, 2627.5107, 0.0005370639, 0.0004631581, 188714.27, 188714.27, 0.0, 2.5004692, 2.4996986 
2.688011e+2, 9.621093e+1, 187857.58, -44326.242, 2696.0842, 0.000014138853, -0.000098740325, 187888.88, 187888.88, 0.0, 2.5004678, 2.4996986 
2.688011e+2, 9.8710614e+1, 186767.08, -44852.875, 2769.415, -0.00053724006, -0.0006764284, 186800.19, 186800.19, 0.0, 2.5004659, 2.4996986 
2.7130148e+2, 1.24916516e+0, -189323.34, -839691.4, -11.338528, 0.0004208318, 0.0000031135432, -189323.34, -189323.34, 0.0, 2.5004804, 2.4983277 
2.7130148e+2, 3.7474957e+0, -189670.61, -840284.9, -134.48177, 0.00026846674, 0.000011160189, -189670.58, -189670.58, 0.0, 2.5004804, 2.4983268 
2.7130148e+2, 6.245826e+0, -189762.81, -840345.44, -222.17732, 0.00013004578, 0.000021633758, -189762.75, -189762.75, 0.0, 2.5004802, 2.4983268 
2.7130148e+2, 8.744156e+0, -189856.89, -840406.94, -310.35693, 0.0000055694677, 0.00003453408, -189856.75, -189856.75, 0.0, 2.5004802, 2.4983265 
2.7130148e+2, 1.12425625e+1, -147432.63, -752360.56, 425.71112, -0.00006913272, 0.00015900446, -147432.33, -147432.33, 0.0, 2.5004802, 2.4984777 
2.7130148e+2, 1.3741042e+1, -147297.39, -751861.2, -808.24316, 0.000057950398, -0.00000071919067, -147296.31, -147296.31, 0.0, 2.50048, 2.4984787 
2.7130148e+2, 1.6239522e+1, -147468.77, -751994.94, -870.39014, 0.00019420822, -0.00015632427, -147467.52, -147467.52, 0.0, 2.5004797, 2.4984784 
2.7130148e+2, 1.8738003e+1, -147645.05, -752136.0, -931.97363, 0.0003394281, -0.00030733677, -147643.61, -147643.61, 0.0, 2.5004795, 2.4984784 
2.7130148e+2, 2.1236561e+1, -105310.04, -664226.75, 902.3395, 0.00020901469, -0.000029951705, -105308.58, -105308.58, 0.0, 2.5004795, 2.498629 
2.7130148e+2, 2.3735194e+1, -104898.4, -663024.25, -1319.4436, 0.00019358897, -0.000037449085, -104895.27, -104895.27, 0.0, 2.5004792, 2.4986312 
2.7130148e+2, 2.6233828e+1, -105165.7, -663227.94, -1438.6617, 0.00018425334, -0.000039847415, -105161.99, -105161.99, 0.0, 2.5004787, 2.4986312 
2.7130148e+2, 2.873246e+1, -105437.35, -663438.06, -1557.2441, 0.00017997823, -0.00003536978, -105433.01, -105433.01, 0.0, 2.5004783, 2.498631 
2.7130148e+2, 3.123117e+1, -63562.91, -576590.7, 831.28796, 0.00007110925, 0.00036812952, -63561.563, -63561.563, 0.0, 2.5004785, 2.4987798 
2.7130148e+2, 3.3729953e+1, -62817.39, -574543.94, -1700.663, 0.00005369898, 0.00010905857, -62811.74, -62811.74, 0.0, 2.500478, 2.4987836 
2.7130148e+2, 3.6228737e+1, -63189.227, -574811.1, -1785.7903, 0.000040738607, -0.00014497057, -63182.992, -63182.992, 0.0, 2.5004776, 2.4987833 
2.7130148e+2, 3.872752e+1, -63564.88, -575083.1, -1870.2668, 0.000031542015, -0.0003900999, -63558.043, -63558.043, 0.0, 2.5004768, 2.4987833 
2.7130148e+2, 4.1226378e+1, -22053.938, -488738.0, 538.06604, -0.000033954224, 0.000082635146, -22053.316, -22053.316, 0.0, 2.5004768, 2.4989314 
2.7130148e+2, 4.3725315e+1, -20651.969, -485536.22, -1878.3687, 0.000055312405, -0.000040304683, -20644.379, -20644.379, 0.0, 2.5004764, 2.4989371 
2.7130148e+2, 4.622425e+1, -20893.566, -485743.06, -2020.3348, 0.00014749152, -0.00015830674, -20884.785, -20884.785, 0.0, 2.5004761, 2.498937 
2.7130148e+2, 4.872319e+1, -21136.775, -485950.25, -2161.521, 0.00024172125, -0.00026517047, -21126.725, -21126.725, 0.0, 2.500476, 2.4989367 
2.7130148e+2, 5.1222205e+1, 19708.373, -400999.8, -231.1511, 0.00031328335, 0.00045993357, 19708.5, 19708.5, 0.0, 2.5004756, 2.4990826 
2.7130148e+2, 5.372129e+1, 21540.86, -396796.97, -1767.6863, 0.00016251396, 0.0001917031, 21548.328, 21548.328, 0.0, 2.5004754, 2.49909 
2.7130148e+2, 5.6220376e+1, 21239.404, -397020.78, -1892.1995, 0.000012398058, -0.00007680694, 21247.965, 21247.965, 0.0, 2.500475, 2.4990897 
2.7130148e+2, 5.871946e+1, 20936.2, -397244.4, -2016.8296, -0.00013559326, -0.00033545704, 20945.926, 20945.926, 0.0, 2.5004745, 2.4990895 
2.7130148e+2, 6.1218625e+1, 61165.242, -313300.78, -1174.9116, -0.00002404939, 0.00042312144, 61168.93, 61168.93, 0.0, 2.500474, 2.4992337 
2.7130148e+2, 6.3717866e+1, 63690.33, -308133.72, -1539.283, -0.00008146498, 0.00006762144, 63696.703, 63696.703, 0.0, 2.5004742, 2.4992428 
2.7130148e+2, 6.621711e+1, 63700.777, -308188.78, -1660.0035, -0.00013819031, -0.00029534692, 63708.188, 63708.188, 0.0, 2.5004742, 2.4992425 
2.7130148e+2, 6.871635e+1, 63707.406, -308247.6, -1781.3309, -0.00019113813, -0.00065237575, 63715.938, 63715.938, 0.0, 2.5004742, 2.4992423 
2.7130148e+2, 7.121566e+1, 103660.58, -224941.55, -2009.0522, 0.0004382458, 0.0004499789, 103672.86, 103672.86, 0.0, 2.500474, 2.4993856 
2.713015e+2, 7.3715055e+1, 106591.19, -219078.0, -1174.5037, 0.00038614517, 0.00033195943, 106595.42, 106595.42, 0.0, 2.5004742, 2.4993956 
2.713015e+2, 7.6214445e+1, 106710.46, -219055.69, -1332.8066, 0.00033046445, 0.00019708098, 106715.914, 106715.914, 0.0, 2.5004745, 2.4993954 
2.713015e+2, 7.8713846e+1, 106826.55, -219034.92, -1491.817, 0.0002811853, 0.00006404708, 106833.375, 106833.375, 0.0, 2.5004747, 2.4993954 
2.713015e+2, 8.12133e+1, 145971.88, -137322.78, -2818.4568, 0.00021590112, 0.0005800508, 145999.92, 145999.92, 0.0, 2.5004742, 2.4995358 
2.713015e+2, 8.3712846e+1, 149342.52, -130857.52, -752.9804, -0.00025206673, -0.00004433338, 149344.53, 149344.53, 0.0, 2.500475, 2.4995468 
2.713015e+2, 8.6212385e+1, 149675.77, -130705.76, -822.85547, -0.0007112193, -0.0006818021, 149678.17, 149678.17, 0.0, 2.5004754, 2.4995468 
2.713015e+2, 8.8711923e+1, 150004.61, -130556.1, -892.3128, -0.0011587066, -0.0013193396, 150007.45, 150007.45, 0.0, 2.500476, 2.4995465 
2.7130154e+2, 9.121156e+1, 189326.58, -48820.65, -2778.475, 0.0013575631, 0.0011608936, 189359.0, 189359.0, 0.0, 2.500476, 2.499687 
2.7130154e+2, 9.3711245e+1, 193306.9, -41483.875, -581.0214, 0.0008688457, 0.0006568011, 193308.34, 193308.34, 0.0, 2.500477, 2.499699 
2.7130154e+2, 9.621094e+1, 193883.34, -41202.97, -728.5497, 0.0003645027, 0.00008582773, 193885.6, 193885.6, 0.0, 2.500478, 2.499699 
2.7130157e+2, 9.8710626e+1, 194447.19, -40928.113, -874.5833, -0.00010721661, -0.0005039552, 194450.44, 194450.44, 0.0, 2.500479, 2.499699 
2.7380198e+2, 1.24916494e+0, -189479.17, -840016.44, -41.185665, 0.00015857845, -0.00000092533816, -189479.16, -189479.16, 0.0, 2.5004804, 2.498327 
2.7380198e+2, 3.7474948e+0, -189827.64, -840615.06, -157.74622, 0.000103734346, -0.0000015815089, -189827.61, -189827.61, 0.0, 2.5004804, 2.498326 
2.7380198e+2, 6.245824e+0, -189918.52, -840675.5, -242.31583, 0.000053526186, -0.00000064416923, -189918.44, -189918.44, 0.0, 2.5004802, 2.498326 
2.7380198e+2, 8.744154e+0, -190011.27, -840736.8, -327.3695, 0.000007954462, 0.0000018865168, -190011.11, -190011.11, 0.0, 2.5004802, 2.498326 
2.7380198e+2, 1.12425596e+1, -147522.61, -752562.4, 413.22382, -0.000079243306, 0.00013511172, -147522.33, -147522.33, 0.0, 2.5004802, 2.4984772 
2.7380198e+2, 1.374104e+1, -147390.84, -752074.7, -850.3326, -0.000002671471, 0.000017334243, -147389.66, -147389.66, 0.0, 2.50048, 2.4984782 
2.7380198e+2, 1.623952e+1, -147561.38, -752211.3, -909.2673, 0.000075885706, -0.0000968942, -147560.0, -147560.0, 0.0, 2.5004797, 2.4984782 
2.7380198e+2, 1.8737999e+1, -147736.8, -752355.06, -967.68585, 0.00015614119, -0.0002071147, -147735.25, -147735.25, 0.0, 2.5004795, 2.498478 
2.7380198e+2, 2.1236557e+1, -105435.31, -664556.9, 876.1486, 0.000069696245, 0.000049010563, -105433.945, -105433.945, 0.0, 2.5004795, 2.4986284 
2.7380198e+2, 2.373519e+1, -105044.805, -663405.0, -1382.506, 0.0000765351, -0.0000090198555, -105041.38, -105041.38, 0.0, 2.5004792, 2.4986305 
2.7380198e+2, 2.6233822e+1, -105309.875, -663610.6, -1499.2009, 0.000083607854, -0.00006266624, -105305.85, -105305.85, 0.0, 2.5004787, 2.4986305 
2.7380195e+2, 2.8732455e+1, -105579.805, -663823.8, -1615.1913, 0.00009023103, -0.000110225694, -105575.13, -105575.13, 0.0, 2.5004785, 2.4986303 
2.7380198e+2, 3.1231162e+1, -63595.043, -576765.3, 814.639, -0.0000494891, 0.00027158667, -63593.75, -63593.75, 0.0, 2.5004787, 2.4987795 
2.7380198e+2, 3.3729947e+1, -62856.027, -574741.56, -1786.9813, -0.000013291816, 0.00006915515, -62849.79, -62849.79, 0.0, 2.500478, 2.4987833 
2.7380198e+2, 3.6228728e+1, -63224.32, -575010.8, -1869.7057, 0.000022241054, -0.000129382, -63217.492, -63217.492, 0.0, 2.5004776, 2.498783 
2.7380195e+2, 3.8727513e+1, -63596.24, -575284.44, -1951.8784, 0.000055945457, -0.00032034275, -63588.793, -63588.793, 0.0, 2.500477, 2.4987829 
2.7380198e+2, 4.1226372e+1, -22113.732, -489048.47, 516.1611, 0.000025794303, 0.00016900431, -22113.162, -22113.162, 0.0, 2.500477, 2.4989307 
2.7380198e+2, 4.372531e+1, -20721.738, -485878.16, -1929.2329, 0.000030846873, 0.000005176867, -20713.736, -20713.736, 0.0, 2.5004766, 2.4989364 
2.7380198e+2, 4.6224242e+1, -20958.855, -486086.06, -2068.7915, 0.00003288197, -0.00015594854, -20949.654, -20949.654, 0.0, 2.5004764, 2.4989362 
2.7380195e+2, 4.872318e+1, -21198.512, -486296.22, -2207.6084, 0.00003154171, -0.00030807353, -21188.033, -21188.033, 0.0, 2.5004761, 2.498936 
2.7380198e+2, 5.1222193e+1, 19745.096, -401156.6, -284.29855, 0.00007327872, 0.00038429073, 19745.29, 19745.29, 0.0, 2.500476, 2.499082 
2.7380198e+2, 5.372128e+1, 21558.02, -397004.75, -1834.0527, 0.00003524506, 0.00013461406, 21566.057, 21566.057, 0.0, 2.5004756, 2.4990895 
2.7380198e+2, 5.6220365e+1, 21261.313, -397228.94, -1955.6583, -0.000007818613, -0.0001175365, 21270.451, 21270.451, 0.0, 2.5004752, 2.4990892 
2.7380198e+2, 5.871945e+1, 20962.725, -397453.2, -2077.3389, -0.00005487616, -0.00036221236, 20973.04, 20973.04, 0.0, 2.5004747, 2.499089 
2.7380198e+2, 6.121862e+1, 61270.21, -313388.38, -1218.1637, 0.00010061285, 0.00039975203, 61274.17, 61274.17, 0.0, 2.5004745, 2.4992335 
2.7380198e+2, 6.3717854e+1, 63776.14, -308266.38, -1525.5703, -0.000034462864, 0.000043389828, 63782.4, 63782.4, 0.0, 2.5004745, 2.4992423 
2.7380198e+2, 6.6217095e+1, 63787.5, -308324.34, -1643.4823, -0.00017549006, -0.00032085693, 63794.76, 63794.76, 0.0, 2.5004745, 2.499242 
2.7380198e+2, 6.871633e+1, 63795.273, -308385.6, -1762.0619, -0.00031900834, -0.0006795951, 63803.617, 63803.617, 0.0, 2.5004747, 2.499242 
2.7380198e+2, 7.1215653e+1, 103757.89, -225097.14, -2069.4844, 0.00028485584, 0.00043025252, 103770.914, 103770.914, 0.0, 2.5004745, 2.499385 
2.7380198e+2, 7.3715043e+1, 106652.984, -219309.86, -1130.8763, 0.00026702363, 0.0002906816, 106656.91, 106656.91, 0.0, 2.5004747, 2.499395 
2.7380198e+2, 7.621443e+1, 106772.73, -219288.6, -1286.2201, 0.00023789873, 0.00013357768, 106777.805, 106777.805, 0.0, 2.500475, 2.499395 
2.73802e+2, 7.871383e+1, 106889.28, -219268.88, -1442.2711, 0.00020750896, -0.000022059223, 106895.66, 106895.66, 0.0, 2.5004752, 2.4993947 
2.7380198e+2, 8.121329e+1, 146300.28, -137033.72, -2887.249, 0.00014246277, 0.00049711356, 146329.7, 146329.7, 0.0, 2.5004747, 2.499536 
2.73802e+2, 8.371283e+1, 149597.84, -130715.664, -658.2114, -0.0002947675, -0.00012944665, 149599.39, 149599.39, 0.0, 2.5004752, 2.4995468 
2.73802e+2, 8.621237e+1, 149927.05, -130567.336, -724.0012, -0.0007325525, -0.00076907914, 149928.92, 149928.92, 0.0, 2.500476, 2.4995468 
2.73802e+2, 8.8711905e+1, 150251.84, -130421.125, -789.37335, -0.0011684748, -0.0014084902, 150254.06, 150254.06, 0.0, 2.5004764, 2.4995468 
2.7380204e+2, 9.121154e+1, 189611.73, -48685.684, -2808.4602, 0.0014216397, 0.0011206707, 189644.83, 189644.83, 0.0, 2.5004764, 2.499687 
2.7380204e+2, 9.371123e+1, 193485.33, -41573.117, -411.90088, 0.00081218954, 0.00062372925, 193486.06, 193486.06, 0.0, 2.5004776, 2.4996986 
2.7380204e+2, 9.621092e+1, 194071.95, -41285.387, -554.7981, 0.0001680432, 0.000057943078, 194073.27, 194073.27, 0.0, 2.5004785, 2.4996986 
2.7380204e+2, 9.871061e+1, 194650.4, -41001.594, -696.61145, -0.00046069062, -0.0005278048, 194652.47, 194652.47, 0.0, 2.5004795, 2.4996989 
2.7630243e+2, 1.2491646e+0, -189635.61, -840342.75, -70.64096, -0.000103564125, -0.0000059718777, -189635.61, -189635.61, 0.0, 2.5004804, 2.4983265 
2.7630243e+2, 3.7474936e+0, -189986.42, -840948.8, -180.56383, -0.00006066568, -0.000017346187, -189986.38, -189986.38, 0.0, 2.5004804, 2.4983256 
2.7630243e+2, 6.245823e+0, -190075.97, -841009.1, -262.00754, -0.000022439475, -0.000027960397, -190075.86, -190075.86, 0.0, 2.5004802, 2.4983256 
2.7630243e+2, 8.744152e+0, -190167.39, -841070.4, -343.93527, 0.000011114993, -0.00003781467, -190167.2, -190167.2, 0.0, 2.5004802, 2.4983256 
2.7630243e+2, 1.1242557e+1, -147622.33, -752784.4, 401.29373, -0.00008835433, 0.00011079773, -147622.06, -147622.06, 0.0, 2.5004802, 2.4984767 
2.7630243e+2, 1.3741037e+1, -147486.1, -752292.0, -891.6178, -0.00006066221, 0.000030664574, -147484.78, -147484.78, 0.0, 2.50048, 2.4984777 
2.7630243e+2, 1.6239518e+1, -147655.77, -752431.3, -947.3402, -0.00003817524, -0.00004651133, -147654.28, -147654.28, 0.0, 2.5004797, 2.4984777 
2.7630243e+2, 1.8737997e+1, -147830.33, -752577.9, -1002.59406, -0.000021253712, -0.00012026395, -147828.67, -147828.67, 0.0, 2.5004795, 2.4984775 
2.7630246e+2, 2.1236555e+1, -105575.84, -664918.7, 858.39514, -0.00007481767, 0.00012310875, -105574.53, -105574.53, 0.0, 2.5004797, 2.498628 
2.7630243e+2, 2.3735185e+1, -105192.73, -663788.94, -1444.393, -0.00004512547, 0.000010766787, -105188.99, -105188.99, 0.0, 2.5004792, 2.4986298 
2.7630243e+2, 2.6233816e+1, -105455.57, -663996.56, -1558.5647, -0.00002099997, -0.00009796175, -105451.23, -105451.23, 0.0, 2.500479, 2.4986298 
2.7630243e+2, 2.873245e+1, -105723.79, -664212.7, -1671.9618, -0.0000028341801, -0.00020139241, -105718.78, -105718.78, 0.0, 2.5004785, 2.4986296 
2.7630243e+2, 3.1231156e+1, -63638.7, -576963.8, 800.25616, -0.00016682663, 0.00017017881, -63637.453, -63637.453, 0.0, 2.5004787, 2.498779 
2.7630243e+2, 3.3729938e+1, -62895.89, -574941.7, -1872.0128, -0.000076480086, 0.000021273005, -62889.047, -62889.047, 0.0, 2.5004783, 2.4987829 
2.7630243e+2, 3.6228722e+1, -63260.645, -575213.06, -1952.3341, 0.000008039437, -0.00012498589, -63253.2, -63253.2, 0.0, 2.5004778, 2.4987826 
2.7630243e+2, 3.8727504e+1, -63628.867, -575488.44, -2032.2135, 0.00008513825, -0.00026499174, -63620.8, -63620.8, 0.0, 2.500477, 2.4987824 
2.7630243e+2, 4.1226363e+1, -22183.281, -489379.2, 503.36392, 0.00007973423, 0.00024681905, -22182.74, -22182.74, 0.0, 2.500477, 2.4989302 
2.7630243e+2, 4.37253e+1, -20792.602, -486222.38, -1978.8752, 0.0000005485424, 0.000038676884, -20784.188, -20784.188, 0.0, 2.5004768, 2.4989357 
2.7630243e+2, 4.6224236e+1, -21025.24, -486431.3, -2116.0264, -0.00008748764, -0.00016906968, -21015.62, -21015.62, 0.0, 2.5004766, 2.4989355 
2.7630243e+2, 4.8723167e+1, -21260.996, -486643.75, -2252.3347, -0.00018432515, -0.00036995378, -21250.096, -21250.096, 0.0, 2.5004764, 2.4989352 
2.7630243e+2, 5.122218e+1, 19763.727, -401351.0, -337.3268, -0.00016472039, 0.0003050518, 19763.998, 19763.998, 0.0, 2.5004761, 2.4990816 
2.7630243e+2, 5.3721267e+1, 21574.117, -397214.75, -1899.1594, -0.000090015405, 0.00007002689, 21582.729, 21582.729, 0.0, 2.500476, 2.499089 
2.7630243e+2, 5.622036e+1, 21282.156, -397439.28, -2017.8572, -0.000026123445, -0.00016986027, 21291.88, 21291.88, 0.0, 2.5004754, 2.4990888 
2.7630243e+2, 5.871944e+1, 20988.164, -397664.25, -2136.5798, 0.000027656186, -0.00040465788, 20999.068, 20999.068, 0.0, 2.500475, 2.4990885 
2.7630243e+2, 6.121861e+1, 61361.9, -313503.56, -1254.7723, 0.00021902828, 0.00037255872, 61366.098, 61366.098, 0.0, 2.5004747, 2.4992332 
2.7630243e+2, 6.371784e+1, 63861.016, -308400.97, -1511.1052, 0.0000073093092, 0.000011902544, 63867.152, 63867.152, 0.0, 2.5004747, 2.4992418 
2.7630243e+2, 6.6217077e+1, 63873.29, -308461.88, -1626.2087, -0.00021690344, -0.00035722964, 63880.39, 63880.39, 0.0, 2.500475, 2.4992418 
2.7630243e+2, 6.871632e+1, 63882.16, -308525.63, -1741.9965, -0.00044987586, -0.00072128425, 63890.31, 63890.31, 0.0, 2.500475, 2.4992416 
2.7630243e+2, 7.1215636e+1, 103839.33, -225285.72, -2123.5098, 0.00012721524, 0.0004086126, 103853.03, 103853.03, 0.0, 2.5004747, 2.4993846 
2.7630246e+2, 7.3715025e+1, 106714.05, -219543.23, -1086.7615, 0.0001444033, 0.00024474546, 106717.67, 106717.67, 0.0, 2.500475, 2.4993944 
2.7630246e+2, 7.6214415e+1, 106834.266, -219523.03, -1239.1459, 0.00014259836, 0.00006247507, 106838.97, 106838.97, 0.0, 2.5004752, 2.4993942 
2.7630246e+2, 7.8713804e+1, 106951.29, -219504.36, -1392.2375, 0.00013186212, -0.000118705735, 106957.23, 106957.23, 0.0, 2.5004754, 2.4993942 
2.7630246e+2, 8.121327e+1, 146609.64, -136784.22, -2950.2776, 0.000063312225, 0.00041418674, 146640.36, 146640.36, 0.0, 2.5004752, 2.4995363 
2.7630246e+2, 8.3712816e+1, 149852.36, -130575.516, -563.6352, -0.00033977232, -0.00021853196, 149853.48, 149853.48, 0.0, 2.5004756, 2.4995468 
2.7630246e+2, 8.621235e+1, 150177.52, -130430.625, -625.3398, -0.00075272244, -0.00086449465, 150178.9, 150178.9, 0.0, 2.5004764, 2.4995468 
2.763025e+2, 8.8711894e+1, 150498.25, -130287.86, -686.62665, -0.0011736123, -0.0015099458, 150499.94, 150499.94, 0.0, 2.5004768, 2.4995468 
2.763025e+2, 9.121153e+1, 189862.88, -48621.34, -2822.8567, 0.0014662792, 0.0010996267, 189896.3, 189896.3, 0.0, 2.5004768, 2.499687 
2.763025e+2, 9.371121e+1, 193656.95, -41667.36, -242.39116, 0.0007392473, 0.0006035562, 193657.2, 193657.2, 0.0, 2.500478, 2.4996984 
2.7630252e+2, 9.621091e+1, 194239.88, -41379.496, -377.73755, -0.000041192037, 0.00003614963, 194240.48, 194240.48, 0.0, 2.500479, 2.4996984 
2.7630252e+2, 9.8710597e+1, 194814.63, -41095.57, -512.0001, -0.0008234309, -0.0005523703, 194815.73, 194815.73, 0.0, 2.50048, 2.4996984 
2.7880293e+2, 1.2491642e+0, -193245.55, -842342.8, -150.75609, -0.00035405875, -0.000012037039, -193245.52, -193245.52, 0.0, 2.5004745, 2.498326 
2.7880293e+2, 3.7474927e+0, -193483.6, -842902.4, -353.8665, -0.00021406119, -0.00003614693, -193483.4, -193483.4, 0.0, 2.5004747, 2.4983249 
2.7880293e+2, 6.245821e+0, -193541.17, -842947.5, -527.9712, -0.00008726644, -0.000060303722, -193540.75, -193540.75, 0.0, 2.5004745, 2.4983249 
2.7880293e+2, 8.744149e+0, -193686.17, -843034.8, -698.41583, 0.000026325983, -0.00008450759, -193685.42, -193685.42, 0.0, 2.5004742, 2.4983249 
2.7880293e+2, 1.1242554e+1, -150983.1, -754599.56, -32.589535, -0.000085393964, 0.00008609801, -150983.1, -150983.1, 0.0, 2.5004747, 2.4984765 
2.7880293e+2, 1.3741034e+1, -150556.75, -753951.5, -1432.5184, -0.000106130086, 0.000039306127, -150553.36, -150553.36, 0.0, 2.500475, 2.4984775 
2.7880293e+2, 1.6239515e+1, -150532.9, -754000.2, -1555.8544, -0.00013851318, -0.0000049991463, -150528.9, -150528.9, 0.0, 2.500475, 2.4984772 
2.7880293e+2, 1.8737996e+1, -150598.98, -754097.0, -1671.6855, -0.00018297572, -0.000046322442, -150594.36, -150594.36, 0.0, 2.500475, 2.4984772 
2.7880293e+2, 2.1236551e+1, -108223.59, -666514.94, 173.0947, -0.0002150306, 0.00019297047, -108223.54, -108223.54, 0.0, 2.5004754, 2.4986272 
2.7880293e+2, 2.3735182e+1, -107557.52, -665244.6, -2198.2097, -0.00016293096, 0.000022568229, -107548.86, -107548.86, 0.0, 2.5004756, 2.4986293 
2.7880293e+2, 2.6233813e+1, -107605.734, -665350.9, -2315.577, -0.000121626064, -0.0001449499, -107596.125, -107596.125, 0.0, 2.5004756, 2.498629 
2.7880293e+2, 2.873244e+1, -107724.09, -665497.8, -2420.6853, -0.00009127418, -0.00030786215, -107713.586, -107713.586, 0.0, 2.5004754, 2.4986289 
2.7880293e+2, 3.123115e+1, -65321.395, -577966.44, 121.770645, -0.00027336858, 0.00006513607, -65321.363, -65321.363, 0.0, 2.5004761, 2.4987786 
2.7880293e+2, 3.3729932e+1, -64267.125, -575780.3, -2576.2334, -0.0001291813, -0.000033108554, -64254.15, -64254.15, 0.0, 2.5004761, 2.4987824 
2.7880293e+2, 3.6228713e+1, -64419.684, -575952.2, -2596.6572, 0.000004590686, -0.00012993181, -64406.5, -64406.5, 0.0, 2.500476, 2.4987822 
2.7880293e+2, 3.8727498e+1, -64664.34, -576170.7, -2605.1343, 0.00012597285, -0.00022170415, -64651.07, -64651.07, 0.0, 2.5004756, 2.498782 
2.7880293e+2, 4.1226357e+1, -23069.932, -490109.22, 107.31399, 0.00013437857, 0.0003187657, -23069.906, -23069.906, 0.0, 2.500476, 2.4989295 
2.7880293e+2, 4.372529e+1, -21394.656, -486813.38, -2288.252, -0.000030159066, 0.00006311651, -21383.406, -21383.406, 0.0, 2.5004761, 2.498935 
2.7880293e+2, 4.6224225e+1, -21437.113, -486932.94, -2281.1396, -0.00020868066, -0.00019437096, -21425.936, -21425.936, 0.0, 2.5004761, 2.4989347 
2.788029e+2, 4.872316e+1, -21574.764, -487101.1, -2262.557, -0.0004008272, -0.00044698975, -21563.768, -21563.768, 0.0, 2.5004761, 2.4989345 
2.7880293e+2, 5.122217e+1, 19633.9, -401630.66, -187.00214, -0.00039588803, 0.00022640516, 19633.984, 19633.984, 0.0, 2.5004764, 2.4990811 
2.7880293e+2, 5.3721255e+1, 21604.238, -397404.25, -1574.7179, -0.00020902173, 0.0000023583266, 21610.156, 21610.156, 0.0, 2.5004761, 2.4990885 
2.7880293e+2, 5.622034e+1, 21356.36, -397609.34, -1495.6075, -0.00003816143, -0.00022896733, 21361.697, 21361.697, 0.0, 2.500476, 2.4990883 
2.7880293e+2, 5.8719426e+1, 20999.771, -397866.53, -1406.7351, 0.00011715875, -0.00045742278, 21004.496, 21004.496, 0.0, 2.5004752, 2.499088 
2.7880293e+2, 6.1218596e+1, 61400.59, -313648.1, -279.45407, 0.00033635154, 0.0003473327, 61400.797, 61400.797, 0.0, 2.500475, 2.4992328 
2.7880293e+2, 6.371783e+1, 63929.477, -308526.97, -262.86288, 0.000048135, -0.000020836102, 63929.664, 63929.664, 0.0, 2.5004752, 2.4992416 
2.7880293e+2, 6.6217065e+1, 63858.313, -308630.75, -138.93065, -0.00025836236, -0.000398197, 63858.363, 63858.363, 0.0, 2.500475, 2.4992414 
2.7880293e+2, 6.87163e+1, 63675.223, -308789.47, -7.158157, -0.00057923223, -0.0007708611, 63675.223, 63675.223, 0.0, 2.5004747, 2.499241 
2.7880293e+2, 7.1215624e+1, 103401.1, -225732.61, -218.42732, -0.000029981287, 0.00039187772, 103401.24, 103401.24, 0.0, 2.5004742, 2.4993842 
2.7880293e+2, 7.3715013e+1, 106043.37, -220112.53, 1140.213, 0.000022964019, 0.00020113798, 106047.36, 106047.36, 0.0, 2.500474, 2.4993937 
2.7880293e+2, 7.62144e+1, 105811.72, -220262.63, 1227.5073, 0.000050016806, -0.000009064995, 105816.336, 105816.336, 0.0, 2.5004737, 2.4993937 
2.7880296e+2, 7.871379e+1, 105451.67, -220474.56, 1321.1504, 0.000061260915, -0.00021854967, 105457.03, 105457.03, 0.0, 2.5004733, 2.4993937 
2.7880293e+2, 8.121326e+1, 144877.3, -137534.66, -129.6923, -0.000014032591, 0.000338652, 144877.36, 144877.36, 0.0, 2.500472, 2.4995365 
2.7880296e+2, 8.37128e+1, 147656.19, -131603.27, 2587.3015, -0.00038017347, -0.0003042582, 147680.16, 147680.16, 0.0, 2.5004718, 2.4995468 
2.7880296e+2, 8.621233e+1, 147430.0, -131725.36, 2709.568, -0.0007645389, -0.00096072286, 147456.3, 147456.3, 0.0, 2.5004716, 2.4995468 
2.7880296e+2, 8.8711876e+1, 147079.19, -131907.48, 2833.4395, -0.0011657529, -0.0016163406, 147107.95, 147107.95, 0.0, 2.5004709, 2.4995468 
2.78803e+2, 9.121151e+1, 185673.95, -50740.656, 767.0018, 0.0015009431, 0.0011048167, 185676.45, 185676.45, 0.0, 2.50047, 2.4996867 
2.78803e+2, 9.37112e+1, 188547.84, -44298.063, 3667.7686, 0.0006607523, 0.0006028938, 188605.6, 188605.6, 0.0, 2.5004694, 2.499698 
2.78803e+2, 9.621089e+1, 188037.56, -44535.12, 3683.8464, -0.00024996765, 0.000026915906, 188095.9, 188095.9, 0.0, 2.5004685, 2.499698 
2.78803e+2, 9.871058e+1, 187302.7, -44880.34, 3693.1274, -0.0011784728, -0.0005710258, 187361.42, 187361.42, 0.0, 2.5004673, 2.499698 
2.813034e+2, 1.2491636e+0, -188977.33, -840832.6, -103.112625, -0.000027067586, -0.0000141766795, -188977.31, -188977.31, 0.0, 2.5004826, 2.4983249 
2.813034e+2, 3.747491e+0, -189323.42, -841441.9, -216.83252, 0.00010160928, -0.000041540425, -189323.34, -189323.34, 0.0, 2.5004823, 2.4983237 
2.813034e+2, 6.245818e+0, -189400.23, -841488.0, -307.54898, 0.00024942038, -0.00006758384, -189400.1, -189400.1, 0.0, 2.5004823, 2.4983237 
2.813034e+2, 8.7441456e+0, -189479.4, -841535.25, -398.2628, 0.00041636624, -0.00009230709, -189479.17, -189479.17, 0.0, 2.500482, 2.4983237 
2.813034e+2, 1.124255e+1, -146889.44, -753105.5, 391.91824, 0.00031163002, 0.0000841521, -146889.19, -146889.19, 0.0, 2.500482, 2.4984753 
2.813034e+2, 1.3741028e+1, -146740.53, -752568.75, -1030.1638, 0.00022378309, 0.000049274146, -146738.77, -146738.77, 0.0, 2.5004818, 2.4984763 
2.813034e+2, 1.6239507e+1, -146909.05, -752688.06, -1158.0073, 0.0001549257, 0.000023183657, -146906.83, -146906.83, 0.0, 2.5004816, 2.4984763 
2.813034e+2, 1.8737988e+1, -147082.05, -752813.9, -1285.8644, 0.00010465996, 0.0000063824277, -147079.33, -147079.33, 0.0, 2.5004814, 2.4984763 
2.813034e+2, 2.1236542e+1, -104970.55, -665263.9, 639.534, 0.000051808496, 0.0002436464, -104969.82, -104969.82, 0.0, 2.5004814, 2.4986265 
2.813034e+2, 2.3735172e+1, -104655.08, -664144.06, -1744.7954, 0.00008713895, 0.000061898085, -104649.64, -104649.64, 0.0, 2.500481, 2.4986286 
2.813034e+2, 2.62338e+1, -104982.03, -664353.75, -1841.3256, 0.00013226928, -0.000112623544, -104975.97, -104975.97, 0.0, 2.5004804, 2.4986284 
2.8130338e+2, 2.873243e+1, -105315.41, -664573.1, -1937.0494, 0.0001869744, -0.00027824217, -105308.695, -105308.695, 0.0, 2.50048, 2.4986284 
2.813034e+2, 3.1231138e+1, -63225.246, -577071.0, 638.2721, 0.000011595312, 0.00010561819, -63224.453, -63224.453, 0.0, 2.5004797, 2.4987783 
2.813034e+2, 3.3729923e+1, -62446.848, -574994.4, -2247.0498, 0.00011043244, 0.000025825984, -62436.996, -62436.996, 0.0, 2.5004792, 2.4987822 
2.8130338e+2, 3.6228707e+1, -62779.63, -575219.1, -2410.7056, 0.00022294291, -0.00004736023, -62768.29, -62768.29, 0.0, 2.5004787, 2.4987822 
2.8130338e+2, 3.872749e+1, -63116.414, -575448.25, -2573.9783, 0.00034728544, -0.00011029214, -63103.484, -63103.484, 0.0, 2.5004783, 2.498782 
2.813034e+2, 4.1226348e+1, -21823.363, -489380.9, 97.060844, 0.0003254104, 0.00044368854, -21823.344, -21823.344, 0.0, 2.500478, 2.4989297 
2.8130338e+2, 4.3725282e+1, -20581.713, -486279.75, -2459.812, 0.00013647147, 0.00017927369, -20568.72, -20568.72, 0.0, 2.5004773, 2.4989355 
2.8130338e+2, 4.6224216e+1, -20954.145, -486525.5, -2588.7832, -0.00004283779, -0.0000805268, -20939.75, -20939.75, 0.0, 2.5004768, 2.4989352 
2.8130338e+2, 4.872315e+1, -21330.998, -486776.2, -2716.8042, -0.00021235614, -0.00032897087, -21315.14, -21315.14, 0.0, 2.5004764, 2.498935 
2.8130338e+2, 5.122216e+1, 19641.709, -401321.38, -779.5875, -0.00020010865, 0.00036058333, 19643.154, 19643.154, 0.0, 2.500476, 2.4990819 
2.8130338e+2, 5.372125e+1, 21515.486, -397135.4, -2413.4766, -0.000039685125, 0.00014418233, 21529.4, 21529.4, 0.0, 2.5004756, 2.4990892 
2.8130338e+2, 5.6220335e+1, 21291.662, -397300.25, -2589.6917, 0.00013080468, -0.00007234386, 21307.684, 21307.684, 0.0, 2.5004754, 2.499089 
2.8130338e+2, 5.871942e+1, 21064.115, -397467.06, -2765.5012, 0.00031193963, -0.00027872977, 21082.389, 21082.389, 0.0, 2.500475, 2.499089 
2.8130338e+2, 6.1218584e+1, 61421.133, -313167.16, -1870.0387, 0.00051102403, 0.00055211096, 61430.47, 61430.47, 0.0, 2.5004745, 2.499234 
2.8130338e+2, 6.3717824e+1, 63726.695, -308165.94, -2092.697, 0.00018736467, 0.00018550095, 63738.47, 63738.47, 0.0, 2.5004742, 2.4992425 
2.8130338e+2, 6.6217065e+1, 63563.7, -308289.72, -2260.5488, -0.00012958182, -0.00018835082, 63577.44, 63577.44, 0.0, 2.500474, 2.4992425 
2.8130338e+2, 6.87163e+1, 63396.89, -308416.03, -2429.3154, -0.00043611875, -0.00055540126, 63412.76, 63412.76, 0.0, 2.5004737, 2.4992423 
2.8130338e+2, 7.1215624e+1, 103135.94, -225327.81, -2911.7312, 0.000121138015, 0.00062778627, 103161.75, 103161.75, 0.0, 2.5004733, 2.4993854 
2.813034e+2, 7.3715013e+1, 105928.14, -219677.28, -1660.5509, 0.00018467504, 0.00042148633, 105936.61, 105936.61, 0.0, 2.5004733, 2.499395 
2.813034e+2, 7.62144e+1, 106007.664, -219662.14, -1783.5424, 0.00025341785, 0.00019505394, 106017.43, 106017.43, 0.0, 2.5004735, 2.499395 
2.813034e+2, 7.87138e+1, 106083.305, -219648.88, -1906.8755, 0.0003373919, -0.000030984018, 106094.47, 106094.47, 0.0, 2.5004737, 2.499395 
2.813034e+2, 8.1213266e+1, 145924.9, -136549.98, -3664.1924, 0.00026781642, 0.0005432271, 145972.42, 145972.42, 0.0, 2.5004733, 2.4995377 
2.813034e+2, 8.37128e+1, 149040.97, -130544.7, -1099.4568, -0.00014167604, -0.000093685616, 149045.3, 149045.3, 0.0, 2.5004737, 2.4995477 
2.813034e+2, 8.621234e+1, 149328.06, -130416.14, -1267.8434, -0.0005339172, -0.0007429914, 149333.81, 149333.81, 0.0, 2.5004745, 2.4995477 
2.8130344e+2, 8.871188e+1, 149609.56, -130290.27, -1436.2623, -0.0009076801, -0.0013899461, 149616.94, 149616.94, 0.0, 2.500475, 2.4995477 
2.8130344e+2, 9.1211516e+1, 188747.34, -48871.008, -3759.9944, 0.0017660974, 0.0014103664, 188806.83, 188806.83, 0.0, 2.5004747, 2.4996874 
2.8130344e+2, 9.371121e+1, 192308.63, -42232.113, -797.5075, 0.00096690416, 0.000843314, 192311.33, 192311.33, 0.0, 2.5004756, 2.4996986 
2.8130347e+2, 9.6210897e+1, 192783.28, -42006.906, -869.3428, 0.00014207854, 0.0002137916, 192786.5, 192786.5, 0.0, 2.5004764, 2.4996986 
2.8130347e+2, 9.8710585e+1, 193253.3, -41783.934, -939.24036, -0.0006561248, -0.00042434927, 193257.05, 193257.05, 0.0, 2.500477, 2.4996986 
2.8380385e+2, 1.2491634e+0, -189137.98, -841166.9, -129.79337, -0.00010271537, -0.000012399521, -189137.97, -189137.97, 0.0, 2.5004826, 2.4983242 
2.8380388e+2, 3.74749e+0, -189488.66, -841786.6, -238.8254, 0.000006857467, -0.000036184232, -189488.56, -189488.56, 0.0, 2.5004823, 2.4983232 
2.8380388e+2, 6.245817e+0, -189567.3, -841837.5, -325.80197, 0.00012447637, -0.000058615642, -189567.14, -189567.14, 0.0, 2.5004823, 2.4983232 
2.8380388e+2, 8.744143e+0, -189648.3, -841889.5, -412.77585, 0.00025014183, -0.000079693935, -189648.03, -189648.03, 0.0, 2.500482, 2.4983232 
2.8380388e+2, 1.1242547e+1, -147092.23, -753547.0, 367.474, 0.00017044696, 0.00008814013, -147092.0, -147092.0, 0.0, 2.500482, 2.4984746 
2.8380388e+2, 1.3741025e+1, -146948.3, -753025.2, -1073.0938, 0.00010545473, 0.000044827426, -146946.4, -146946.4, 0.0, 2.5004818, 2.4984756 
2.8380385e+2, 1.6239505e+1, -147113.7, -753142.6, -1197.2001, 0.000051069648, 0.000008330423, -147111.34, -147111.34, 0.0, 2.5004816, 2.4984756 
2.8380385e+2, 1.8737982e+1, -147283.25, -753265.75, -1321.521, 0.0000069891144, -0.000020863263, -147280.38, -147280.38, 0.0, 2.5004814, 2.4984753 
2.8380388e+2, 2.1236536e+1, -105069.7, -665516.9, 585.5743, -0.000065243745, 0.00020648606, -105069.086, -105069.086, 0.0, 2.5004814, 2.498626 
2.8380385e+2, 2.3735167e+1, -104770.27, -664437.6, -1826.4946, 0.000010028767, 0.000057737747, -104764.31, -104764.31, 0.0, 2.500481, 2.498628 
2.8380385e+2, 2.6233795e+1, -105095.65, -664651.25, -1919.487, 0.00008682489, -0.00008510605, -105089.06, -105089.06, 0.0, 2.5004804, 2.498628 
2.8380385e+2, 2.8732425e+1, -105426.77, -664873.2, -2012.017, 0.00016469082, -0.00022046154, -105419.54, -105419.54, 0.0, 2.50048, 2.4986277 
2.8380388e+2, 3.123113e+1, -63381.535, -577504.9, 598.2342, 0.000017162316, 0.00016067014, -63380.84, -63380.84, 0.0, 2.50048, 2.4987776 
2.8380385e+2, 3.372991e+1, -62620.844, -575473.3, -2330.0837, 0.00004977891, 0.00005012602, -62610.258, -62610.258, 0.0, 2.5004795, 2.4987814 
2.8380385e+2, 3.6228696e+1, -62950.41, -575699.5, -2490.35, 0.000087175074, -0.000055107026, -62938.316, -62938.316, 0.0, 2.500479, 2.4987812 
2.8380385e+2, 3.8727477e+1, -63284.19, -575930.5, -2650.2185, 0.00012787702, -0.00015139519, -63270.49, -63270.49, 0.0, 2.5004785, 2.498781 
2.8380385e+2, 4.1226336e+1, -21856.285, -489610.88, 22.286785, 0.00008807106, 0.00038177235, -21856.285, -21856.285, 0.0, 2.5004783, 2.4989293 
2.8380385e+2, 4.372527e+1, -20630.766, -486552.4, -2551.7578, 0.000029674204, 0.00013265853, -20616.791, -20616.791, 0.0, 2.5004776, 2.4989347 
2.8380385e+2, 4.62242e+1, -20998.738, -486797.84, -2676.9875, -0.000028006327, -0.00011320033, -20983.355, -20983.355, 0.0, 2.500477, 2.4989347 
2.8380385e+2, 4.8723137e+1, -21370.855, -487047.66, -2801.5745, -0.000085197156, -0.00034915732, -21354.002, -21354.002, 0.0, 2.5004766, 2.4989345 
2.8380385e+2, 5.122215e+1, 19610.13, -401617.66, -840.5947, -0.000051170464, 0.00034492588, 19611.807, 19611.807, 0.0, 2.5004761, 2.4990811 
2.8380385e+2, 5.372123e+1, 21448.041, -397515.4, -2465.5845, 0.0000069784055, 0.00012317803, 21462.55, 21462.55, 0.0, 2.500476, 2.4990885 
2.8380385e+2, 5.622032e+1, 21227.44, -397682.34, -2637.4458, 0.000064457876, -0.000100198304, 21244.043, 21244.043, 0.0, 2.5004756, 2.4990883 
2.8380385e+2, 5.871941e+1, 21002.67, -397852.2, -2809.2593, 0.00012200826, -0.00031491357, 21021.51, 21021.51, 0.0, 2.5004752, 2.499088 
2.8380385e+2, 6.121857e+1, 61461.734, -313373.8, -1958.063, 0.00027419816, 0.00051041826, 61471.965, 61471.965, 0.0, 2.5004747, 2.4992332 
2.8380385e+2, 6.3717806e+1, 63730.375, -308455.22, -2130.1372, 0.00003543074, 0.00014344505, 63742.566, 63742.566, 0.0, 2.5004745, 2.4992418 
2.8380385e+2, 6.6217047e+1, 63571.07, -308576.88, -2294.049, -0.00020571655, -0.00023200607, 63585.21, 63585.21, 0.0, 2.5004745, 2.4992418 
2.8380385e+2, 6.871629e+1, 63408.24, -308700.44, -2458.9434, -0.00044587321, -0.0006018792, 63424.484, 63424.484, 0.0, 2.5004742, 2.4992416 
2.8380385e+2, 7.1215606e+1, 103340.54, -225256.19, -2987.8506, 0.0001355655, 0.0005759272, 103367.7, 103367.7, 0.0, 2.5004735, 2.499385 
2.8380385e+2, 7.3714995e+1, 106072.05, -219734.33, -1633.6857, 0.00020389323, 0.0003538447, 106080.24, 106080.24, 0.0, 2.5004737, 2.4993947 
2.8380385e+2, 7.6214385e+1, 106150.35, -219723.75, -1752.9333, 0.00026790914, 0.00011127584, 106159.78, 106159.78, 0.0, 2.500474, 2.4993947 
2.8380388e+2, 7.8713775e+1, 106224.766, -219715.05, -1872.5228, 0.00033741503, -0.00013116539, 106235.52, 106235.52, 0.0, 2.500474, 2.4993944 
2.8380385e+2, 8.121324e+1, 146086.08, -136618.22, -3709.489, 0.00024700805, 0.0004548383, 146134.75, 146134.75, 0.0, 2.5004737, 2.4995372 
2.8380385e+2, 8.3712786e+1, 149128.17, -130766.55, -1017.9411, -0.00021547805, -0.00014900626, 149131.88, 149131.88, 0.0, 2.5004742, 2.499547 
2.8380388e+2, 8.6212325e+1, 149416.64, -130634.49, -1182.1738, -0.0006723149, -0.0007675841, 149421.63, 149421.63, 0.0, 2.5004747, 2.499547 
2.8380388e+2, 8.871186e+1, 149699.52, -130505.14, -1346.439, -0.0011221329, -0.0013860945, 149705.98, 149705.98, 0.0, 2.5004752, 2.499547 
2.838039e+2, 9.1211504e+1, 189193.72, -48430.043, -3783.5378, 0.0014763387, 0.0014878453, 189253.95, 189253.95, 0.0, 2.5004752, 2.4996881 
2.838039e+2, 9.371119e+1, 192655.78, -42004.746, -656.09454, 0.000799168, 0.00083976623, 192657.61, 192657.61, 0.0, 2.5004761, 2.4996986 
2.838039e+2, 9.621088e+1, 193133.73, -41774.3, -725.82715, 0.0000813693, 0.00012591195, 193135.97, 193135.97, 0.0, 2.5004768, 2.4996986 
2.838039e+2, 9.871056e+1, 193603.34, -41547.875, -794.1513, -0.00062650145, -0.00059822435, 193606.02, 193606.02, 0.0, 2.5004778, 2.4996986 
2.8630435e+2, 1.24916315e+0, -189299.27, -841502.44, -156.1113, -0.0001771241, -0.00001168152, -189299.23, -189299.23, 0.0, 2.5004826, 2.4983237 
2.8630435e+2, 3.7474895e+0, -189655.63, -842135.0, -260.43674, -0.000084177154, -0.000034005512, -189655.53, -189655.53, 0.0, 2.5004823, 2.4983225 
2.8630435e+2, 6.245816e+0, -189736.1, -842190.56, -343.67337, 0.0000057276793, -0.000054943237, -189735.92, -189735.92, 0.0, 2.5004823, 2.4983225 
2.8630435e+2, 8.7441415e+0, -189818.9, -842247.3, -426.90735, 0.00009259094, -0.00007449488, -189818.63, -189818.63, 0.0, 2.500482, 2.4983225 
2.8630435e+2, 1.1242544e+1, -147306.89, -754013.2, 348.03915, 0.00001995425, 0.000091027025, -147306.69, -147306.69, 0.0, 2.5004823, 2.4984736 
2.8630435e+2, 1.3741022e+1, -147157.92, -753485.5, -1115.3857, -0.000022100394, 0.000034428405, -147155.88, -147155.88, 0.0, 2.500482, 2.4984748 
2.8630435e+2, 1.62395e+1, -147320.23, -753601.0, -1235.7549, -0.000061883744, -0.000017347395, -147317.7, -147317.7, 0.0, 2.5004818, 2.4984746 
2.8630435e+2, 1.8737978e+1, -147486.4, -753721.7, -1356.4403, -0.000099649624, -0.000063805826, -147483.38, -147483.38, 0.0, 2.5004816, 2.4984746 
2.8630435e+2, 2.1236533e+1, -105184.61, -665802.56, 530.927, -0.00017189348, 0.00016863036, -105184.1, -105184.1, 0.0, 2.5004814, 2.4986255 
2.8630435e+2, 2.3735161e+1, -104886.84, -664734.06, -1907.0282, -0.000054459597, 0.000048994254, -104880.35, -104880.35, 0.0, 2.500481, 2.4986274 
2.8630435e+2, 2.623379e+1, -105210.64, -664951.6, -1996.483, 0.000056118624, -0.00006614943, -105203.516, -105203.516, 0.0, 2.5004804, 2.4986274 
2.8630435e+2, 2.873242e+1, -105539.77, -665176.6, -2085.6694, 0.0001592617, -0.00017521947, -105532.0, -105532.0, 0.0, 2.50048, 2.4986272 
2.8630435e+2, 3.1231126e+1, -63550.996, -577966.1, 569.17194, 0.000004955425, 0.00020827595, -63550.367, -63550.367, 0.0, 2.50048, 2.4987767 
2.8630435e+2, 3.3729905e+1, -62795.938, -575954.6, -2412.0303, -0.000028619266, 0.0000639304, -62784.6, -62784.6, 0.0, 2.5004795, 2.4987805 
2.8630435e+2, 3.6228687e+1, -63122.293, -576182.2, -2568.9072, -0.00006604949, -0.00007645311, -63109.43, -63109.43, 0.0, 2.500479, 2.4987803 
2.8630432e+2, 3.8727465e+1, -63453.04, -576414.9, -2725.4036, -0.00010870021, -0.00020920117, -63438.56, -63438.56, 0.0, 2.5004785, 2.4987803 
2.8630435e+2, 4.1226327e+1, -21904.307, -489872.25, -51.621986, -0.0001366701, 0.00031682348, -21904.3, -21904.3, 0.0, 2.5004783, 2.4989288 
2.8630435e+2, 4.3725258e+1, -20680.883, -486827.28, -2642.631, -0.00006524765, 0.000079381956, -20665.902, -20665.902, 0.0, 2.5004778, 2.4989343 
2.8630432e+2, 4.622419e+1, -21044.398, -487072.4, -2764.1196, -0.0000023059888, -0.00015630726, -21028.004, -21028.004, 0.0, 2.5004773, 2.498934 
2.8630432e+2, 4.8723122e+1, -21411.906, -487321.56, -2885.2751, 0.000051824187, -0.00038354905, -21394.04, -21394.04, 0.0, 2.5004766, 2.4989338 
2.8630432e+2, 5.1222134e+1, 19566.598, -401938.78, -892.4017, 0.000084323496, 0.0003266541, 19568.486, 19568.486, 0.0, 2.5004764, 2.4990807 
2.8630432e+2, 5.372122e+1, 21379.621, -397897.44, -2516.7483, 0.000039861035, 0.000095676354, 21394.727, 21394.727, 0.0, 2.5004761, 2.4990876 
2.8630432e+2, 5.6220305e+1, 21162.24, -398066.47, -2684.256, -0.000015753109, -0.00013858835, 21179.426, 21179.426, 0.0, 2.500476, 2.4990876 
2.8630432e+2, 5.871939e+1, 20940.2, -398239.47, -2852.048, -0.00008187056, -0.00036567124, 20959.604, 20959.604, 0.0, 2.5004754, 2.4990873 
2.8630432e+2, 6.1218554e+1, 61481.938, -313622.84, -2043.7413, 0.000042294872, 0.00046693825, 61493.074, 61493.074, 0.0, 2.5004752, 2.4992328 
2.8630432e+2, 6.3717794e+1, 63733.09, -308746.5, -2167.049, -0.000112708, 0.00009557353, 63745.7, 63745.7, 0.0, 2.500475, 2.4992414 
2.8630432e+2, 6.6217035e+1, 63577.477, -308866.03, -2327.0212, -0.00027943018, -0.00028568888, 63592.016, 63592.016, 0.0, 2.5004747, 2.499241 
2.8630432e+2, 6.8716264e+1, 63418.48, -308987.16, -2487.9856, -0.00045458064, -0.00066259655, 63435.1, 63435.1, 0.0, 2.5004745, 2.499241 
2.8630432e+2, 7.121558e+1, 103529.305, -225217.47, -3055.2917, 0.00014035382, 0.0005250257, 103557.695, 103557.695, 0.0, 2.500474, 2.499385 
2.8630435e+2, 7.371497e+1, 106215.09, -219793.19, -1606.3413, 0.00021561366, 0.0002840348, 106223.01, 106223.01, 0.0, 2.5004742, 2.4993944 
2.8630435e+2, 7.6214373e+1, 106292.17, -219787.17, -1721.8452, 0.00027717426, 0.000021962136, 106301.26, 106301.26, 0.0, 2.5004742, 2.4993942 
2.8630435e+2, 7.871376e+1, 106365.37, -219783.03, -1837.691, 0.0003344836, -0.0002402497, 106375.72, 106375.72, 0.0, 2.5004745, 2.4993942 
2.8630435e+2, 8.1213224e+1, 146229.6, -136723.16, -3745.937, 0.00021613181, 0.0003660023, 146279.17, 146279.17, 0.0, 2.5004742, 2.499537 
2.8630435e+2, 8.371276e+1, 149214.69, -130989.85, -936.83374, -0.00029906354, -0.00020762726, 149217.83, 149217.83, 0.0, 2.5004747, 2.4995465 
2.8630435e+2, 8.62123e+1, 149504.52, -130854.31, -1096.9127, -0.0008201087, -0.0007984771, 149508.81, 149508.81, 0.0, 2.5004752, 2.4995465 
2.8630435e+2, 8.8711846e+1, 149788.75, -130721.46, -1257.024, -0.0013455945, -0.0013915432, 149794.38, 149794.38, 0.0, 2.5004756, 2.4995465 
2.8630438e+2, 9.121148e+1, 189606.81, -48046.42, -3794.595, 0.0011732376, 0.0015792596, 189667.39, 189667.39, 0.0, 2.5004756, 2.4996884 
2.8630438e+2, 9.371117e+1, 192985.14, -41787.26, -511.33813, 0.00061987137, 0.0008450211, 192986.25, 192986.25, 0.0, 2.5004766, 2.4996989 
2.863044e+2, 9.6210855e+1, 193459.83, -41554.74, -574.2326, 0.000010917102, 0.00004130979, 193461.23, 193461.23, 0.0, 2.5004773, 2.4996989 
2.863044e+2, 9.871054e+1, 193926.17, -41326.234, -635.71857, -0.00060480187, -0.00077434717, 193927.89, 193927.89, 0.0, 2.5004783, 2.4996989 
2.8880483e+2, 1.2491628e+0, -192141.23, -843140.7, -243.36469, -0.00023849148, -0.0000119802435, -192141.14, -192141.14, 0.0, 2.5004778, 2.498323 
2.8880483e+2, 3.7474886e+0, -192331.19, -843704.56, -462.9387, -0.00016109916, -0.000034834382, -192330.86, -192330.86, 0.0, 2.500478, 2.498322 
2.8880483e+2, 6.2458146e+0, -192315.61, -843717.4, -657.70917, -0.000097075266, -0.000056212506, -192314.94, -192314.94, 0.0, 2.500478, 2.498322 
2.8880483e+2, 8.7441397e+0, -192377.73, -843767.75, -847.6466, -0.000046419213, -0.000076114826, -192376.64, -192376.64, 0.0, 2.500478, 2.4983218 
2.8880483e+2, 1.12425424e+1, -149854.02, -755629.5, -172.11609, -0.00013001617, 0.000093562405, -149853.97, -149853.97, 0.0, 2.5004783, 2.498473 
2.8880483e+2, 1.3741018e+1, -149553.83, -755008.8, -1749.5267, -0.00014960542, 0.000018943008, -149548.78, -149548.78, 0.0, 2.5004783, 2.498474 
2.8880483e+2, 1.6239494e+1, -149624.3, -755079.0, -1945.3805, -0.0001749071, -0.00005277665, -149618.05, -149618.05, 0.0, 2.5004783, 2.498474 
2.8880483e+2, 1.8737972e+1, -149745.8, -755176.7, -2134.1414, -0.00020617283, -0.00012107393, -149738.27, -149738.27, 0.0, 2.500478, 2.498474 
2.8880483e+2, 2.1236524e+1, -107222.76, -667042.2, -309.98813, -0.00025963888, 0.00013158274, -107222.586, -107222.586, 0.0, 2.5004783, 2.4986248 
2.8880483e+2, 2.3735154e+1, -106679.836, -665841.3, -2780.1138, -0.000098736076, 0.00003717945, -106666.016, -106666.016, 0.0, 2.5004783, 2.498627 
2.8880483e+2, 2.623378e+1, -106845.71, -665986.3, -2858.1245, 0.00004757696, -0.00005411194, -106831.1, -106831.1, 0.0, 2.500478, 2.4986267 
2.8880483e+2, 2.873241e+1, -107092.66, -666174.56, -2920.003, 0.00017869817, -0.00014062323, -107077.41, -107077.41, 0.0, 2.5004776, 2.4986267 
2.8880483e+2, 3.1231117e+1, -65034.016, -579076.44, -166.411, -0.000017239327, 0.00025055555, -65033.965, -65033.965, 0.0, 2.5004778, 2.498776 
2.8880483e+2, 3.3729896e+1, -64052.492, -576952.5, -3147.3938, -0.00011826496, 0.00006953616, -64033.18, -64033.18, 0.0, 2.5004778, 2.4987795 
2.888048e+2, 3.6228675e+1, -64220.684, -577105.56, -3221.8262, -0.00023099582, -0.000108853936, -64200.445, -64200.445, 0.0, 2.5004776, 2.4987795 
2.888048e+2, 3.8727456e+1, -64458.547, -577295.44, -3279.847, -0.00035694733, -0.00028084678, -64437.574, -64437.574, 0.0, 2.5004773, 2.4987793 
2.888048e+2, 4.1226315e+1, -22661.467, -490487.63, -473.7201, -0.00034375675, 0.00025201813, -22660.986, -22660.986, 0.0, 2.5004773, 2.498928 
2.888048e+2, 4.3725246e+1, -21247.914, -487339.97, -2916.8186, -0.00014374295, 0.000022948214, -21229.662, -21229.662, 0.0, 2.500477, 2.4989338 
2.888048e+2, 4.6224177e+1, -21522.031, -487542.7, -2855.5742, 0.000039019887, -0.00020595477, -21504.535, -21504.535, 0.0, 2.5004766, 2.4989336 
2.888048e+2, 4.872311e+1, -21893.41, -487794.3, -2779.9707, 0.00020438075, -0.00042780535, -21876.822, -21876.822, 0.0, 2.5004761, 2.4989333 
2.888048e+2, 5.122212e+1, 19139.451, -402446.3, -536.4117, 0.0002118784, 0.00031046534, 19140.133, 19140.133, 0.0, 2.5004761, 2.49908 
2.888048e+2, 5.372121e+1, 21093.064, -398367.6, -1942.6094, 0.00006320289, 0.00006668231, 21102.06, 21102.06, 0.0, 2.500476, 2.4990869 
2.888048e+2, 5.6220293e+1, 20934.08, -398511.1, -1866.5514, -0.00010601828, -0.00018213446, 20942.387, 20942.387, 0.0, 2.500476, 2.4990869 
2.888048e+2, 5.871937e+1, 20671.041, -398706.44, -1777.486, -0.0002954818, -0.00042518115, 20678.576, 20678.576, 0.0, 2.5004754, 2.4990866 
2.888048e+2, 6.121854e+1, 61241.81, -314010.53, -742.8086, -0.00018035214, 0.0004277887, 61243.277, 61243.277, 0.0, 2.500475, 2.499232 
2.888048e+2, 6.3717777e+1, 63483.996, -309139.56, -541.9078, -0.00025300062, 0.00004819073, 63484.78, 63484.78, 0.0, 2.5004747, 2.4992406 
2.888048e+2, 6.621701e+1, 63219.56, -309310.4, -413.27368, -0.0003462311, -0.00034283657, 63220.016, 63220.016, 0.0, 2.5004745, 2.4992406 
2.888048e+2, 6.8716246e+1, 62850.742, -309531.56, -278.0549, -0.00045658622, -0.00073066144, 62850.953, 62850.953, 0.0, 2.5004737, 2.4992404 
2.888048e+2, 7.121557e+1, 102954.984, -225551.81, -590.709, 0.00014147545, 0.00048216412, 102956.05, 102956.05, 0.0, 2.500473, 2.4993849 
2.888048e+2, 7.371496e+1, 105492.734, -220249.78, 1221.1398, 0.0002252031, 0.00021921635, 105497.31, 105497.31, 0.0, 2.500473, 2.4993942 
2.888048e+2, 7.621435e+1, 105343.13, -220356.38, 1394.3813, 0.0002866975, -0.000065573826, 105349.11, 105349.11, 0.0, 2.5004728, 2.499394 
2.8880483e+2, 7.871374e+1, 105081.53, -220516.92, 1575.924, 0.0003349237, -0.00035069432, 105089.16, 105089.16, 0.0, 2.5004723, 2.499394 
2.888048e+2, 8.1213206e+1, 144592.2, -137697.45, -136.66072, 0.00018211539, 0.00028422993, 144592.27, 144592.27, 0.0, 2.5004716, 2.4995365 
2.888048e+2, 8.3712745e+1, 147195.86, -132211.83, 2992.401, -0.00038501428, -0.00026226306, 147227.9, 147227.9, 0.0, 2.5004716, 2.499546 
2.8880483e+2, 8.621228e+1, 147018.31, -132298.58, 3045.9192, -0.0009683404, -0.00082848215, 147051.53, 147051.53, 0.0, 2.500471, 2.499546 
2.8880483e+2, 8.871182e+1, 146707.95, -132449.28, 3097.0964, -0.0015665164, -0.0013990728, 146742.31, 146742.31, 0.0, 2.5004706, 2.499546 
2.8880483e+2, 9.121146e+1, 186292.08, -49490.727, 665.8255, 0.0008692789, 0.0016914798, 186293.95, 186293.95, 0.0, 2.50047, 2.4996889 
2.8880486e+2, 9.371115e+1, 189064.33, -43609.797, 4271.6626, 0.00044149545, 0.0008651689, 189142.72, 189142.72, 0.0, 2.5004697, 2.4996989 
2.8880486e+2, 9.621084e+1, 188737.75, -43759.887, 4388.604, -0.000054774493, -0.000034718698, 188820.56, 188820.56, 0.0, 2.5004692, 2.4996989 
2.888049e+2, 9.8710525e+1, 188153.33, -44034.156, 4501.4253, -0.00057247956, -0.0009482323, 188240.56, 188240.56, 0.0, 2.5004683, 2.4996989 
2.9130533e+2, 1.2491622e+0, -188392.63, -842005.9, -186.17984, 0.00018616085, -0.000008748007, -188392.58, -188392.58, 0.0, 2.500485, 2.4983215 
2.9130533e+2, 3.7474865e+0, -188687.81, -842613.6, -334.88715, 0.0001685616, -0.000023189592, -188687.64, -188687.64, 0.0, 2.500485, 2.4983206 
2.9130533e+2, 6.2458104e+0, -188698.16, -842627.4, -463.75818, 0.00016825044, -0.000033557688, -188697.83, -188697.83, 0.0, 2.500485, 2.4983203 
2.9130533e+2, 8.744135e+0, -188709.94, -842641.8, -592.85846, 0.00018522791, -0.00003985247, -188709.4, -188709.4, 0.0, 2.500485, 2.4983203 
2.9130533e+2, 1.1242536e+1, -146360.69, -754531.0, 172.95177, 0.0000984233, 0.00013062263, -146360.63, -146360.63, 0.0, 2.500485, 2.4984715 
2.9130533e+2, 1.3741012e+1, -146304.88, -754006.44, -1332.8806, 0.000096951706, 0.000050468312, -146301.95, -146301.95, 0.0, 2.5004845, 2.4984727 
2.9130533e+2, 1.6239487e+1, -146570.72, -754148.2, -1447.4855, 0.00010267555, -0.000022560249, -146567.27, -146567.27, 0.0, 2.500484, 2.4984727 
2.9130533e+2, 1.8737963e+1, -146838.89, -754293.1, -1562.5118, 0.00011533969, -0.000087947505, -146834.88, -146834.88, 0.0, 2.5004835, 2.4984727 
2.9130533e+2, 2.1236515e+1, -104444.16, -666097.9, 319.605, 0.00004995102, 0.0001752521, -104443.98, -104443.98, 0.0, 2.5004835, 2.4986238 
2.9130533e+2, 2.3735143e+1, -104091.75, -664948.7, -2246.146, 0.00015137052, 0.000090276764, -104082.76, -104082.76, 0.0, 2.500483, 2.4986262 
2.9130533e+2, 2.623377e+1, -104370.12, -665105.44, -2410.6033, 0.00026779997, 0.00001406448, -104359.75, -104359.75, 0.0, 2.5004826, 2.498626 
2.913053e+2, 2.8732398e+1, -104652.086, -665266.7, -2575.215, 0.00039864553, -0.000051696265, -104640.26, -104640.26, 0.0, 2.500482, 2.498626 
2.9130533e+2, 3.1231105e+1, -62941.98, -578200.8, 165.38747, 0.00019229915, 0.00034957804, -62941.926, -62941.926, 0.0, 2.5004816, 2.4987757 
2.913053e+2, 3.3729884e+1, -62251.88, -576184.44, -2893.5186, 0.00006480267, 0.00016096578, -62235.59, -62235.59, 0.0, 2.5004811, 2.4987793 
2.913053e+2, 3.6228666e+1, -62635.652, -576396.0, -3029.3752, -0.000053842276, -0.000021690701, -62617.79, -62617.79, 0.0, 2.5004804, 2.4987793 
2.913053e+2, 3.8727444e+1, -63022.734, -576612.06, -3165.0737, -0.00016514926, -0.00019459323, -63003.23, -63003.23, 0.0, 2.5004797, 2.4987793 
2.913053e+2, 4.12263e+1, -21407.018, -489753.13, -469.09775, -0.00015927416, 0.00035186604, -21406.549, -21406.549, 0.0, 2.5004792, 2.4989285 
2.913053e+2, 4.3725234e+1, -20239.002, -486713.16, -3179.7036, 0.00002245088, 0.00014123792, -20217.33, -20217.33, 0.0, 2.5004787, 2.498934 
2.913053e+2, 4.6224168e+1, -20645.61, -486937.88, -3386.9185, 0.00021381032, -0.00006692668, -20621.01, -20621.01, 0.0, 2.500478, 2.498934 
2.913053e+2, 4.87231e+1, -21056.602, -487167.16, -3594.4104, 0.00041460284, -0.00026572027, -21028.885, -21028.885, 0.0, 2.5004773, 2.4989338 
2.913053e+2, 5.122211e+1, 19767.928, -401733.22, -1538.8419, 0.00039552743, 0.00049477274, 19773.545, 19773.545, 0.0, 2.5004766, 2.499081 
2.913053e+2, 5.37212e+1, 21417.725, -397817.66, -3167.48, 0.00019428882, 0.00025534641, 21441.654, 21441.654, 0.0, 2.5004761, 2.4990878 
2.9130527e+2, 5.622028e+1, 21090.252, -398005.9, -3331.181, 0.0000047515764, 0.000013869112, 21116.727, 21116.727, 0.0, 2.5004756, 2.4990878 
2.9130527e+2, 5.8719367e+1, 20759.506, -398196.75, -3495.616, -0.00017296782, -0.00021874785, 20788.67, 20788.67, 0.0, 2.5004752, 2.4990876 
2.9130527e+2, 6.121853e+1, 61248.297, -313448.66, -2711.4094, -0.000046463174, 0.0006394491, 61267.914, 61267.914, 0.0, 2.5004745, 2.4992335 
2.9130527e+2, 6.371777e+1, 63370.508, -308680.47, -2766.962, -0.00010472751, 0.00025169097, 63391.086, 63391.086, 0.0, 2.500474, 2.4992418 
2.9130527e+2, 6.621701e+1, 63131.55, -308814.44, -2947.9368, -0.00015574237, -0.00014482612, 63154.914, 63154.914, 0.0, 2.5004735, 2.4992418 
2.9130527e+2, 6.8716246e+1, 62889.367, -308949.94, -3129.745, -0.00019610497, -0.0005354263, 62915.71, 62915.71, 0.0, 2.5004733, 2.4992416 
2.9130527e+2, 7.121557e+1, 103103.19, -224841.36, -3754.1702, 0.00036132988, 0.0007094323, 103146.16, 103146.16, 0.0, 2.5004725, 2.4993863 
2.913053e+2, 7.371496e+1, 105613.65, -219622.78, -2219.9768, 0.00038868847, 0.00046393374, 105628.8, 105628.8, 0.0, 2.5004725, 2.4993954 
2.913053e+2, 7.621435e+1, 105601.34, -219643.16, -2406.6482, 0.0004215541, 0.0001996017, 105619.15, 105619.15, 0.0, 2.5004725, 2.4993954 
2.913053e+2, 7.8713745e+1, 105585.05, -219665.44, -2593.612, 0.00046817088, -0.000061701874, 105605.73, 105605.73, 0.0, 2.5004725, 2.4993954 
2.913053e+2, 8.121321e+1, 145242.63, -136785.0, -4590.791, 0.00037289932, 0.00056998583, 145317.33, 145317.33, 0.0, 2.500472, 2.499538 
2.913053e+2, 8.371275e+1, 147962.27, -131367.02, -1511.6202, -0.00013761835, -0.00001969065, 147970.45, 147970.45, 0.0, 2.5004723, 2.499547 
2.913053e+2, 8.621229e+1, 148106.5, -131298.58, -1611.0306, -0.000624115, -0.0006236487, 148115.8, 148115.8, 0.0, 2.5004725, 2.499547 
2.913053e+2, 8.871183e+1, 148244.89, -131232.95, -1710.2211, -0.001084704, -0.0012264418, 148255.36, 148255.36, 0.0, 2.5004728, 2.499547 
2.9130533e+2, 9.1211474e+1, 188316.73, -48091.652, -4329.194, 0.0011742756, 0.0019294288, 188395.98, 188395.98, 0.0, 2.500473, 2.4996898 
2.9130533e+2, 9.371116e+1, 191408.5, -42235.688, -894.76953, 0.0007651259, 0.0010705558, 191411.92, 191411.92, 0.0, 2.5004735, 2.4996996 
2.9130536e+2, 9.6210843e+1, 191744.86, -42077.883, -1045.429, 0.00036567528, 0.00013678156, 191749.53, 191749.53, 0.0, 2.5004742, 2.4996996 
2.9130536e+2, 9.871053e+1, 192060.63, -41929.992, -1194.0282, 0.00001893668, -0.0008103966, 192066.72, 192066.72, 0.0, 2.5004747, 2.4996996 
2.938058e+2, 1.2491617e+0, -188630.83, -842501.5, -191.75267, 0.00015365868, -0.0000059442955, -188630.78, -188630.78, 0.0, 2.500485, 2.4983206 
2.938058e+2, 3.7474853e+0, -188925.47, -843109.6, -339.6345, 0.000090017355, -0.00001548905, -188925.3, -188925.3, 0.0, 2.500485, 2.4983196 
2.938058e+2, 6.2458086e+0, -188934.13, -843121.25, -466.14877, 0.000036747177, -0.000021907777, -188933.8, -188933.8, 0.0, 2.500485, 2.4983196 
2.938058e+2, 8.744132e+0, -188944.2, -843133.6, -592.89233, -0.0000061512683, -0.000025200654, -188943.67, -188943.67, 0.0, 2.500485, 2.4983196 
2.938058e+2, 1.1242533e+1, -146535.66, -754911.3, 102.08558, -0.00007332256, 0.00013177794, -146535.64, -146535.64, 0.0, 2.500485, 2.498471 
2.938058e+2, 1.3741007e+1, -146491.22, -754415.7, -1403.2935, -0.0000027753933, 0.00005189622, -146487.98, -146487.98, 0.0, 2.5004845, 2.498472 
2.938058e+2, 1.623948e+1, -146755.56, -754559.56, -1515.4835, 0.00007032482, -0.000022145674, -146751.78, -146751.78, 0.0, 2.500484, 2.498472 
2.938058e+2, 1.8737957e+1, -147021.3, -754704.56, -1628.3303, 0.00014575553, -0.00008986786, -147016.94, -147016.94, 0.0, 2.5004835, 2.498472 
2.938058e+2, 2.1236508e+1, -104675.78, -666623.3, 265.6894, 0.000058228063, 0.00015988563, -104675.66, -104675.66, 0.0, 2.5004835, 2.4986231 
2.938058e+2, 2.3735136e+1, -104331.83, -665497.06, -2323.6194, 0.00007979554, 0.00007024092, -104322.2, -104322.2, 0.0, 2.500483, 2.4986253 
2.9380578e+2, 2.6233763e+1, -104608.38, -665655.4, -2485.1897, 0.00011040181, -0.000011360026, -104597.375, -104597.375, 0.0, 2.5004826, 2.498625 
2.9380578e+2, 2.873239e+1, -104887.35, -665815.75, -2647.4248, 0.00014937045, -0.0000832823, -104874.86, -104874.86, 0.0, 2.500482, 2.498625 
2.9380578e+2, 3.1231093e+1, -63051.445, -578529.5, 59.840397, 0.000004297987, 0.00031497332, -63051.44, -63051.44, 0.0, 2.5004818, 2.498775 
2.9380578e+2, 3.3729875e+1, -62377.332, -576553.0, -2996.4275, -0.00000065530963, 0.00013429261, -62359.87, -62359.87, 0.0, 2.5004811, 2.4987786 
2.9380578e+2, 3.6228654e+1, -62758.926, -576766.44, -3130.0217, -0.0000023676187, -0.00004118416, -62739.867, -62739.867, 0.0, 2.5004804, 2.4987786 
2.9380578e+2, 3.8727432e+1, -63143.25, -576983.2, -3264.0674, -0.0000020037378, -0.00020765839, -63122.516, -63122.516, 0.0, 2.50048, 2.4987786 
2.9380578e+2, 4.122629e+1, -21559.188, -490217.06, -568.624, -0.000047964626, 0.00032927687, -21558.498, -21558.498, 0.0, 2.5004795, 2.4989276 
2.9380578e+2, 4.372522e+1, -20433.787, -487273.88, -3287.1914, 0.000021932296, 0.00012034302, -20410.643, -20410.643, 0.0, 2.5004787, 2.498933 
2.9380575e+2, 4.6224153e+1, -20837.3, -487500.22, -3491.0886, 0.00009417948, -0.000086829474, -20811.186, -20811.186, 0.0, 2.5004783, 2.4989328 
2.9380575e+2, 4.8723084e+1, -21244.863, -487730.44, -3695.5608, 0.00016804371, -0.00028547496, -21215.588, -21215.588, 0.0, 2.5004776, 2.4989328 
2.9380575e+2, 5.12221e+1, 19761.074, -401966.16, -1649.1594, 0.00015456493, 0.00046269727, 19767.523, 19767.523, 0.0, 2.5004768, 2.4990802 
2.9380575e+2, 5.372118e+1, 21370.959, -398140.4, -3255.441, 0.000063114836, 0.00022165383, 21396.22, 21396.22, 0.0, 2.5004764, 2.499087 
2.9380575e+2, 5.6220263e+1, 21046.191, -398329.5, -3415.6992, -0.000024520721, -0.000021985408, 21074.01, 21074.01, 0.0, 2.500476, 2.499087 
2.9380575e+2, 5.871935e+1, 20718.652, -398520.13, -3576.944, -0.00010803582, -0.00025740883, 20749.168, 20749.168, 0.0, 2.5004754, 2.4990869 
2.9380575e+2, 6.121851e+1, 61311.527, -313598.03, -2818.9573, 0.000021411255, 0.00057318894, 61332.723, 61332.723, 0.0, 2.5004747, 2.499233 
2.9380575e+2, 6.371775e+1, 63355.004, -308999.56, -2828.6897, -0.000049760038, 0.00016715952, 63376.492, 63376.492, 0.0, 2.5004742, 2.499241 
2.9380575e+2, 6.621699e+1, 63118.348, -309134.4, -3006.3398, -0.00012036938, -0.00024840995, 63142.625, 63142.625, 0.0, 2.500474, 2.499241 
2.9380575e+2, 6.871622e+1, 62878.465, -309270.78, -3184.823, -0.00018749779, -0.00065903575, 62905.72, 62905.72, 0.0, 2.5004735, 2.499241 
2.9380575e+2, 7.1215546e+1, 103211.05, -224968.61, -3824.0405, 0.00027364746, 0.00061019266, 103255.6, 103255.6, 0.0, 2.500473, 2.499386 
2.9380575e+2, 7.3714936e+1, 105646.77, -219907.2, -2223.1484, 0.0002460668, 0.00041891498, 105661.95, 105661.95, 0.0, 2.500473, 2.4993947 
2.9380575e+2, 7.6214325e+1, 105634.914, -219927.88, -2406.5247, 0.0002166934, 0.00020787472, 105652.695, 105652.695, 0.0, 2.500473, 2.4993947 
2.9380575e+2, 7.871372e+1, 105619.06, -219950.47, -2590.193, 0.00019293261, -0.0000009226401, 105639.67, 105639.67, 0.0, 2.500473, 2.4993947 
2.9380575e+2, 8.121319e+1, 145581.69, -136495.27, -4654.406, 0.00020239767, 0.00060609035, 145658.47, 145658.47, 0.0, 2.5004725, 2.4995382 
2.9380575e+2, 8.371272e+1, 148196.28, -131294.0, -1469.1676, -0.00016378536, -0.000071529474, 148204.02, 148204.02, 0.0, 2.5004728, 2.499547 
2.9380578e+2, 8.6212265e+1, 148339.16, -131226.03, -1564.7484, -0.0005179128, -0.0007646658, 148347.9, 148347.9, 0.0, 2.500473, 2.499547 
2.9380578e+2, 8.871181e+1, 148476.2, -131160.86, -1660.1177, -0.0008570371, -0.0014579719, 148486.06, 148486.06, 0.0, 2.5004733, 2.499547 
2.9380578e+2, 9.121145e+1, 188679.36, -47837.34, -4295.4546, 0.001067259, 0.0017457467, 188757.34, 188757.34, 0.0, 2.5004735, 2.4996898 
2.938058e+2, 9.371114e+1, 191638.08, -42265.277, -789.028, 0.0006175717, 0.0009829458, 191640.75, 191640.75, 0.0, 2.500474, 2.499699 
2.938058e+2, 9.6210825e+1, 191987.08, -42095.773, -934.617, 0.00015976743, 0.00014392553, 191990.81, 191990.81, 0.0, 2.5004747, 2.499699 
2.9380584e+2, 9.8710513e+1, 192322.61, -41932.758, -1078.4987, -0.0002693504, -0.00070895016, 192327.58, 192327.58, 0.0, 2.5004752, 2.499699 
2.963063e+2, 1.24916136e+0, -188869.44, -842998.0, -196.88567, 0.000120847544, -0.0000040047357, -188869.38, -188869.38, 0.0, 2.500485, 2.4983199 
2.963063e+2, 3.747484e+0, -189164.47, -843608.4, -344.34482, 0.000010546222, -0.000010380964, -189164.28, -189164.28, 0.0, 2.500485, 2.4983187 
2.963063e+2, 6.245807e+0, -189171.42, -843617.94, -468.50238, -0.00009630088, -0.000014578629, -189171.1, -189171.1, 0.0, 2.500485, 2.4983187 
2.963063e+2, 8.744129e+0, -189179.8, -843628.25, -592.8892, -0.00019969315, -0.000016597907, -189179.27, -189179.27, 0.0, 2.500485, 2.4983187 
2.963063e+2, 1.1242529e+1, -146720.06, -755311.3, 32.330128, -0.0002428384, 0.00013434057, -146720.06, -146720.06, 0.0, 2.500485, 2.4984703 
2.963063e+2, 1.3741003e+1, -146678.98, -754827.9, -1472.9471, -0.000099042154, 0.000050368326, -146675.42, -146675.42, 0.0, 2.5004845, 2.4984713 
2.963063e+2, 1.6239478e+1, -146941.83, -754973.9, -1582.7225, 0.000042650696, -0.000029074014, -146937.72, -146937.72, 0.0, 2.500484, 2.4984713 
2.9630628e+2, 1.8737951e+1, -147205.75, -755120.4, -1693.2261, 0.00018206426, -0.00010351823, -147201.05, -147201.05, 0.0, 2.5004838, 2.4984713 
2.963063e+2, 2.1236502e+1, -104924.54, -667184.4, 214.74474, 0.00005971833, 0.00014340148, -104924.45, -104924.45, 0.0, 2.5004835, 2.498622 
2.9630628e+2, 2.3735128e+1, -104573.11, -666047.94, -2400.2275, 0.000002303974, 0.000045111614, -104562.85, -104562.85, 0.0, 2.500483, 2.4986243 
2.9630628e+2, 2.6233754e+1, -104847.87, -666207.9, -2558.9114, -0.00005198012, -0.00004591884, -104836.195, -104836.195, 0.0, 2.5004826, 2.498624 
2.9630628e+2, 2.873238e+1, -105124.49, -666368.7, -2718.5144, -0.0001039556, -0.0001280435, -105111.33, -105111.33, 0.0, 2.5004823, 2.498624 
2.9630628e+2, 3.123108e+1, -63172.277, -578881.75, -40.10387, -0.00018078112, 0.00027772956, -63172.273, -63172.273, 0.0, 2.5004818, 2.4987743 
2.9630628e+2, 3.3729863e+1, -62503.766, -576923.6, -3098.328, -0.00006268096, 0.00010185249, -62485.105, -62485.105, 0.0, 2.5004811, 2.4987779 
2.9630628e+2, 3.6228642e+1, -62883.18, -577138.94, -3229.6597, 0.000052999163, -0.00006966297, -62862.9, -62862.9, 0.0, 2.5004807, 2.4987779 
2.9630625e+2, 3.8727418e+1, -63264.816, -577356.5, -3361.742, 0.00016549371, -0.00023292725, -63242.836, -63242.836, 0.0, 2.50048, 2.4987779 
2.9630628e+2, 4.1226277e+1, -21723.213, -490705.63, -662.7309, 0.000057242563, 0.00030404568, -21722.275, -21722.275, 0.0, 2.5004797, 2.4989266 
2.9630625e+2, 4.3725204e+1, -20629.422, -487836.38, -3393.6455, 0.000014972877, 0.000093537186, -20604.773, -20604.773, 0.0, 2.500479, 2.498932 
2.9630625e+2, 4.6224135e+1, -21029.84, -488064.34, -3594.2249, -0.000032133175, -0.00011602566, -21002.182, -21002.182, 0.0, 2.5004783, 2.498932 
2.9630625e+2, 4.872307e+1, -21433.758, -488295.03, -3795.6025, -0.0000854382, -0.00031790548, -21402.9, -21402.9, 0.0, 2.5004778, 2.4989316 
2.9630625e+2, 5.1222074e+1, 19737.553, -402233.72, -1753.067, -0.000084614694, 0.00042879567, 19744.836, 19744.836, 0.0, 2.500477, 2.4990797 
2.9630625e+2, 5.372116e+1, 21323.29, -398465.03, -3342.5388, -0.00006667856, 0.00018168853, 21349.902, 21349.902, 0.0, 2.5004766, 2.4990864 
2.9630622e+2, 5.6220245e+1, 21001.229, -398654.97, -3499.3542, -0.000052919768, -0.0000686977, 21030.406, 21030.406, 0.0, 2.5004761, 2.4990864 
2.9630622e+2, 5.871933e+1, 20676.531, -398846.16, -3657.2239, -0.00004273787, -0.0003115126, 20708.41, 20708.41, 0.0, 2.5004756, 2.4990864 
2.9630622e+2, 6.1218494e+1, 61356.668, -313785.0, -2919.1719, 0.000083755236, 0.000509355, 61379.38, 61379.38, 0.0, 2.500475, 2.4992325 
2.9630622e+2, 6.371773e+1, 63338.742, -309320.22, -2889.799, -0.0000005432383, 0.00008104746, 63361.152, 63361.152, 0.0, 2.5004747, 2.4992404 
2.9630622e+2, 6.6216964e+1, 63104.387, -309455.94, -3064.1243, -0.000090901005, -0.00035783838, 63129.586, 63129.586, 0.0, 2.5004742, 2.4992404 
2.9630622e+2, 6.8716204e+1, 62866.805, -309593.22, -3239.2825, -0.00018494915, -0.0007927537, 62894.977, 62894.977, 0.0, 2.5004737, 2.4992404 
2.9630622e+2, 7.121552e+1, 103300.33, -225134.47, -3885.7046, 0.00018228767, 0.00051186525, 103346.29, 103346.29, 0.0, 2.5004733, 2.4993856 
2.9630622e+2, 7.371491e+1, 105679.24, -220192.98, -2226.2524, 0.000100256446, 0.00037144698, 105694.45, 105694.45, 0.0, 2.5004733, 2.499394 
2.9630625e+2, 7.62143e+1, 105667.83, -220213.95, -2406.3333, 0.000009090315, 0.0002101495, 105685.59, 105685.59, 0.0, 2.5004733, 2.499394 
2.9630625e+2, 7.87137e+1, 105652.43, -220236.86, -2586.7068, -0.000084601656, 0.00005030936, 105672.96, 105672.96, 0.0, 2.5004733, 2.499394 
2.9630622e+2, 8.1213164e+1, 145902.64, -136243.16, -4706.519, 0.000021616053, 0.00064340676, 145981.14, 145981.14, 0.0, 2.500473, 2.4995384 
2.9630625e+2, 8.37127e+1, 148429.66, -131222.33, -1427.0627, -0.00019843013, -0.00012561915, 148436.94, 148436.94, 0.0, 2.5004733, 2.4995468 
2.9630625e+2, 8.621224e+1, 148571.16, -131154.81, -1518.814, -0.00041828357, -0.00091158005, 148579.4, 148579.4, 0.0, 2.5004735, 2.4995468 
2.9630625e+2, 8.8711774e+1, 148706.84, -131090.11, -1610.3535, -0.00063403836, -0.0016990454, 148716.11, 148716.11, 0.0, 2.5004737, 2.4995468 
2.9630628e+2, 9.1211426e+1, 189008.95, -47640.926, -4244.566, 0.00093963445, 0.0015782067, 189085.06, 189085.06, 0.0, 2.500474, 2.49969 
2.9630628e+2, 9.3711114e+1, 191848.1, -42306.14, -677.60016, 0.00045011463, 0.0009044393, 191850.05, 191850.05, 0.0, 2.5004747, 2.4996989 
2.963063e+2, 9.62108e+1, 192192.8, -42133.098, -812.4718, -0.00006510126, 0.0001526926, 192195.61, 192195.61, 0.0, 2.5004752, 2.4996989 
2.963063e+2, 9.871049e+1, 192524.02, -41966.547, -945.636, -0.00057565555, -0.0006133599, 192527.83, 192527.83, 0.0, 2.5004756, 2.4996989 
2.988068e+2, 1.249161e+0, -190550.75, -844200.75, -266.01263, 0.000097305456, -0.000002807147, -190550.64, -190550.64, 0.0, 2.5004826, 2.498319 
2.988068e+2, 3.747483e+0, -190777.78, -844781.75, -541.45233, -0.00006081054, -0.000007474425, -190777.33, -190777.33, 0.0, 2.5004828, 2.498318 
2.988068e+2, 6.245805e+0, -190759.52, -844777.75, -789.3912, -0.00022201802, -0.000010878068, -190758.56, -190758.56, 0.0, 2.5004828, 2.498318 
2.9880676e+2, 8.7441266e+0, -190788.48, -844796.56, -1035.7247, -0.0003863164, -0.000013018207, -190786.84, -190786.84, 0.0, 2.5004828, 2.498318 
2.988068e+2, 1.1242525e+1, -148255.66, -756385.06, -586.425, -0.00040127663, 0.00013947624, -148255.1, -148255.1, 0.0, 2.5004826, 2.4984696 
2.9880676e+2, 1.3740999e+1, -148116.55, -755851.3, -2176.2656, -0.00018364146, 0.000047030062, -148108.75, -148108.75, 0.0, 2.5004823, 2.4984705 
2.9880676e+2, 1.6239472e+1, -148316.98, -755969.25, -2356.8086, 0.000027609687, -0.000042159954, -148307.84, -148307.84, 0.0, 2.500482, 2.4984705 
2.9880676e+2, 1.8737943e+1, -148551.02, -756103.3, -2526.9436, 0.00023236155, -0.00012761365, -148540.5, -148540.5, 0.0, 2.5004816, 2.4984705 
2.988068e+2, 2.1236494e+1, -106291.625, -668315.1, -642.5527, 0.00006224007, 0.00012726677, -106290.89, -106290.89, 0.0, 2.5004816, 2.498621 
2.9880676e+2, 2.373512e+1, -105827.51, -667090.06, -3302.1467, -0.00007410354, 0.000016591302, -105808.08, -105808.08, 0.0, 2.5004814, 2.4986231 
2.9880676e+2, 2.6233745e+1, -106055.875, -667229.0, -3460.9102, -0.00021283685, -0.00008769255, -106034.53, -106034.53, 0.0, 2.5004811, 2.4986231 
2.9880676e+2, 2.873237e+1, -106330.08, -667389.94, -3606.8843, -0.0003549893, -0.00018386154, -106306.89, -106306.89, 0.0, 2.5004807, 2.4986231 
2.9880676e+2, 3.1231073e+1, -64208.652, -579688.56, -902.8713, -0.00035709605, 0.00024012013, -64207.074, -64207.074, 0.0, 2.5004804, 2.4987736 
2.9880676e+2, 3.372985e+1, -63404.813, -577661.9, -3878.0583, -0.00011611412, 0.00006615135, -63375.57, -63375.57, 0.0, 2.50048, 2.4987774 
2.9880673e+2, 3.6228627e+1, -63700.69, -577838.56, -3900.7878, 0.00011719897, -0.00010431808, -63671.098, -63671.098, 0.0, 2.5004795, 2.4987772 
2.9880673e+2, 3.8727406e+1, -64046.945, -578039.94, -3907.9036, 0.00034252668, -0.00026721758, -64017.234, -64017.234, 0.0, 2.500479, 2.4987772 
2.9880673e+2, 4.1226262e+1, -22509.17, -491499.7, -1051.164, 0.00016125411, 0.0002796211, -22506.813, -22506.813, 0.0, 2.5004787, 2.4989257 
2.9880673e+2, 4.3725193e+1, -21363.678, -488645.22, -3622.5898, 0.0000056519134, 0.000064421685, -21335.594, -21335.594, 0.0, 2.5004783, 2.498931 
2.9880673e+2, 4.622412e+1, -21739.977, -488863.3, -3625.7527, -0.00016130506, -0.00015071774, -21711.834, -21711.834, 0.0, 2.5004776, 2.498931 
2.988067e+2, 4.8723054e+1, -22170.564, -489107.78, -3612.4922, -0.0003417061, -0.00035897366, -22142.617, -22142.617, 0.0, 2.5004768, 2.4989307 
2.988067e+2, 5.122206e+1, 19173.352, -402769.03, -1333.6041, -0.00031802568, 0.00039745538, 19177.566, 19177.566, 0.0, 2.5004764, 2.4990792 
2.988067e+2, 5.372115e+1, 20825.373, -398987.53, -2656.4832, -0.00019171026, 0.00014028771, 20842.182, 20842.182, 0.0, 2.5004761, 2.499086 
2.988067e+2, 5.622023e+1, 20509.117, -399175.56, -2537.629, -0.000077073404, -0.000121013305, 20524.459, 20524.459, 0.0, 2.5004756, 2.4990857 
2.988067e+2, 5.8719313e+1, 20118.537, -399399.38, -2402.9126, 0.00002688525, -0.00037541956, 20132.3, 20132.3, 0.0, 2.500475, 2.4990857 
2.988067e+2, 6.1218476e+1, 60824.758, -314257.0, -1381.743, 0.0001447232, 0.0004538188, 60829.848, 60829.848, 0.0, 2.5004742, 2.499232 
2.988067e+2, 6.371771e+1, 62762.207, -309888.63, -1020.7365, 0.000046779314, -0.0000005912504, 62765.004, 62765.004, 0.0, 2.500474, 2.4992397 
2.988067e+2, 6.621694e+1, 62468.098, -310054.2, -879.4758, -0.000063222695, -0.00046681653, 62470.176, 62470.176, 0.0, 2.5004735, 2.4992397 
2.988067e+2, 6.871618e+1, 62109.613, -310250.78, -726.22473, -0.00018352954, -0.0009299861, 62111.03, 62111.03, 0.0, 2.5004728, 2.4992397 
2.988067e+2, 7.12155e+1, 102520.02, -225726.47, -1054.2401, 0.00009263908, 0.0004211468, 102523.414, 102523.414, 0.0, 2.5004723, 2.499385 
2.988067e+2, 7.371489e+1, 104777.99, -220906.78, 960.64874, -0.00004324796, 0.0003281532, 104780.83, 104780.83, 0.0, 2.500472, 2.4993935 
2.988067e+2, 7.621429e+1, 104614.45, -221001.08, 1096.613, -0.00019502168, 0.0002129902, 104618.15, 104618.15, 0.0, 2.5004718, 2.4993932 
2.988067e+2, 7.871368e+1, 104376.31, -221131.31, 1240.0314, -0.00035682783, 0.000098513534, 104381.04, 104381.04, 0.0, 2.5004714, 2.4993932 
2.988067e+2, 8.121314e+1, 144710.52, -136731.17, -645.9537, -0.00016115693, 0.0006883669, 144712.0, 144712.0, 0.0, 2.5004709, 2.4995384 
2.988067e+2, 8.371268e+1, 147009.69, -131930.34, 2945.585, -0.00023320691, -0.0001755751, 147040.78, 147040.78, 0.0, 2.5004709, 2.4995468 
2.9880673e+2, 8.621222e+1, 146886.9, -131989.72, 3092.0298, -0.0003160239, -0.0010579488, 146921.19, 146921.19, 0.0, 2.5004706, 2.4995468 
2.9880673e+2, 8.8711756e+1, 146653.89, -132102.17, 3242.914, -0.00040484584, -0.0019430573, 146691.61, 146691.61, 0.0, 2.5004702, 2.4995468 
2.9880673e+2, 9.12114e+1, 186734.53, -48731.35, 823.5082, 0.0008034847, 0.0014332567, 186737.4, 186737.4, 0.0, 2.5004702, 2.49969 
2.9880676e+2, 9.371109e+1, 189199.78, -43716.617, 4585.949, 0.0002762936, 0.00084109535, 189290.03, 189290.03, 0.0, 2.5004702, 2.4996986 
2.9880676e+2, 9.621078e+1, 189043.83, -43779.316, 4610.2183, -0.00029207516, 0.00016879465, 189135.08, 189135.08, 0.0, 2.50047, 2.4996986 
2.988068e+2, 9.8710465e+1, 188659.94, -43951.785, 4632.007, -0.00087794877, -0.00051822036, 188752.14, 188752.14, 0.0, 2.5004692, 2.4996986 
3.013073e+2, 1.2491602e+0, -187408.0, -843455.25, -221.36685, 0.0003163129, 0.000000015683751, -187407.94, -187407.94, 0.0, 2.5004888, 2.4983172 
3.013073e+2, 3.7474805e+0, -187839.89, -844129.3, -398.5369, 0.00016935269, 0.0000019696106, -187839.64, -187839.64, 0.0, 2.5004885, 2.4983163 
3.0130726e+2, 6.2458e+0, -187980.33, -844195.5, -546.69403, 0.00003260377, 0.000006487849, -187979.88, -187979.88, 0.0, 2.5004883, 2.4983163 
3.0130726e+2, 8.7441206e+0, -188122.23, -844262.4, -695.0651, -0.00009393325, 0.000013570212, -188121.5, -188121.5, 0.0, 2.500488, 2.4983163 
3.013073e+2, 1.1242518e+1, -145628.75, -755772.3, -193.18596, -0.000107445674, 0.00016884704, -145628.69, -145628.69, 0.0, 2.5004878, 2.498468 
3.0130726e+2, 1.374099e+1, -145488.47, -755211.2, -1755.8291, 0.000064518375, 0.000079071, -145483.42, -145483.42, 0.0, 2.5004876, 2.498469 
3.0130726e+2, 1.6239461e+1, -145652.83, -755280.9, -1921.4524, 0.00024356329, -0.000005055199, -145646.78, -145646.78, 0.0, 2.5004873, 2.498469 
3.0130726e+2, 1.8737935e+1, -145818.45, -755351.1, -2087.6348, 0.00042958756, -0.000083058534, -145811.31, -145811.31, 0.0, 2.500487, 2.498469 
3.0130726e+2, 2.1236482e+1, -103742.195, -667563.0, -189.96825, 0.00023978752, 0.00017893103, -103742.13, -103742.13, 0.0, 2.5004866, 2.49862 
3.0130726e+2, 2.3735107e+1, -103476.45, -666396.9, -2843.8977, 0.00009886485, 0.00006885358, -103462.086, -103462.086, 0.0, 2.500486, 2.4986222 
3.0130726e+2, 2.623373e+1, -103856.92, -666570.4, -3000.5427, -0.00003328106, -0.000034793742, -103840.93, -103840.93, 0.0, 2.5004852, 2.4986222 
3.0130723e+2, 2.8732356e+1, -104239.1, -666744.6, -3157.831, -0.0001577141, -0.00013027216, -104221.375, -104221.375, 0.0, 2.5004847, 2.4986222 
3.0130726e+2, 3.1231058e+1, -62314.043, -578918.3, -537.74603, -0.0001612824, 0.00029718125, -62313.484, -62313.484, 0.0, 2.5004838, 2.4987733 
3.0130723e+2, 3.3729836e+1, -61706.613, -576965.4, -3666.6865, 0.000054538225, 0.000139005, -61680.523, -61680.523, 0.0, 2.500483, 2.4987772 
3.0130723e+2, 3.6228612e+1, -62132.563, -577157.0, -3872.8035, 0.0002791886, -0.000012719558, -62103.44, -62103.44, 0.0, 2.5004823, 2.4987772 
3.0130723e+2, 3.872739e+1, -62560.297, -577349.5, -4080.013, 0.00051238557, -0.00015396006, -62527.965, -62527.965, 0.0, 2.5004816, 2.4987772 
3.0130723e+2, 4.1226247e+1, -21144.277, -490670.03, -1386.9811, 0.00029790268, 0.00040367557, -21140.182, -21140.182, 0.0, 2.500481, 2.4989262 
3.0130723e+2, 4.3725178e+1, -20153.494, -487903.84, -4108.5146, 0.00011508159, 0.00019091071, -20117.41, -20117.41, 0.0, 2.5004802, 2.4989312 
3.013072e+2, 4.6224105e+1, -20592.691, -488103.63, -4274.5967, -0.000059194357, -0.000019177865, -20553.611, -20553.611, 0.0, 2.5004795, 2.4989312 
3.013072e+2, 4.872304e+1, -21034.432, -488304.63, -4441.708, -0.00022723609, -0.00021976687, -20992.213, -20992.213, 0.0, 2.5004785, 2.4989314 
3.013072e+2, 5.122205e+1, 20117.857, -401866.0, -2385.0806, -0.000196826, 0.000539384, 20131.336, 20131.336, 0.0, 2.5004776, 2.4990802 
3.013072e+2, 5.3721136e+1, 21478.244, -398266.66, -4004.517, -0.00007503472, 0.00029621858, 21516.445, 21516.445, 0.0, 2.5004768, 2.4990866 
3.013072e+2, 5.622022e+1, 20997.58, -398489.8, -4226.747, 0.000056310728, 0.00004792258, 21040.166, 21040.166, 0.0, 2.500476, 2.4990866 
3.0130717e+2, 5.87193e+1, 20514.344, -398714.22, -4449.84, 0.00019824109, -0.00019460042, 20561.57, 20561.57, 0.0, 2.5004752, 2.4990869 
3.0130717e+2, 6.121847e+1, 61205.8, -313422.6, -3727.7139, 0.00029462235, 0.0006492649, 61242.89, 61242.89, 0.0, 2.5004742, 2.4992335 
3.0130717e+2, 6.3717705e+1, 63000.93, -309194.25, -3652.2322, 0.00018399223, 0.00020702154, 63036.766, 63036.766, 0.0, 2.5004737, 2.499241 
3.0130717e+2, 6.621694e+1, 62691.574, -309333.47, -3833.9827, 0.000080728154, -0.00024481994, 62731.082, 62731.082, 0.0, 2.5004733, 2.499241 
3.0130717e+2, 6.871618e+1, 62378.934, -309474.28, -4016.725, -0.000013896569, -0.0006913292, 62422.316, 62422.316, 0.0, 2.5004725, 2.499241 
3.0130717e+2, 7.12155e+1, 102729.04, -224885.97, -4633.381, 0.00022787298, 0.0006599086, 102794.555, 102794.555, 0.0, 2.5004718, 2.4993868 
3.0130717e+2, 7.371489e+1, 104745.98, -220299.31, -2851.279, 0.00009090308, 0.0005526202, 104770.984, 104770.984, 0.0, 2.5004714, 2.4993947 
3.0130717e+2, 7.621429e+1, 104495.65, -220419.02, -3002.5298, -0.000039982002, 0.00042351976, 104523.4, 104523.4, 0.0, 2.5004709, 2.4993947 
3.013072e+2, 7.871368e+1, 104240.734, -220540.9, -3153.9065, -0.00015961478, 0.00029543397, 104271.36, 104271.36, 0.0, 2.5004706, 2.4993947 
3.0130717e+2, 8.121314e+1, 144649.81, -136073.1, -5308.188, 0.000113839174, 0.00088797515, 144750.16, 144750.16, 0.0, 2.50047, 2.49954 
3.013072e+2, 8.3712685e+1, 146970.69, -131404.73, -1949.2261, 0.00007466252, 0.00002453941, 146984.34, 146984.34, 0.0, 2.5004702, 2.499548 
3.013072e+2, 8.621222e+1, 147071.48, -131343.94, -2106.674, 0.000051484312, -0.0008538421, 147087.42, 147087.42, 0.0, 2.5004704, 2.499548 
3.0130723e+2, 8.871176e+1, 147165.53, -131286.39, -2263.8337, 0.000049674753, -0.0017313235, 147183.92, 147183.92, 0.0, 2.5004704, 2.499548 
3.0130723e+2, 9.121141e+1, 187323.6, -47936.96, -4795.6196, 0.0009591174, 0.0016637146, 187421.31, 187421.31, 0.0, 2.5004706, 2.4996912 
3.0130723e+2, 9.3711096e+1, 189777.78, -43175.59, -1099.8307, 0.000549416, 0.0010544829, 189782.97, 189782.97, 0.0, 2.5004709, 2.499699 
3.0130726e+2, 9.621079e+1, 189976.19, -43073.484, -1175.8169, 0.00016405959, 0.00036536137, 189982.11, 189982.11, 0.0, 2.500471, 2.499699 
3.0130726e+2, 9.871048e+1, 190154.25, -42981.176, -1248.5148, -0.00017965856, -0.000337861, 190160.94, 190160.94, 0.0, 2.5004716, 2.499699 
3.0380777e+2, 1.2491596e+0, -187676.28, -844013.6, -259.08762, 0.000054952652, -0.000004125856, -187676.19, -187676.19, 0.0, 2.5004888, 2.4983163 
3.0380777e+2, 3.7474787e+0, -188105.14, -844683.4, -438.11816, 0.00003277079, -0.000010727533, -188104.86, -188104.86, 0.0, 2.5004885, 2.4983153 
3.0380777e+2, 6.245798e+0, -188244.48, -844749.3, -584.0833, 0.000013937693, -0.000015128268, -188243.95, -188243.95, 0.0, 2.5004883, 2.4983153 
3.0380774e+2, 8.744117e+0, -188385.3, -844815.9, -730.2624, -0.0000015460505, -0.00001732825, -188384.48, -188384.48, 0.0, 2.500488, 2.4983153 
3.0380777e+2, 1.12425126e+1, -145899.75, -756350.9, -250.2395, -0.000025886684, 0.00012900998, -145899.64, -145899.64, 0.0, 2.5004878, 2.498467 
3.0380774e+2, 1.3740984e+1, -145764.67, -755805.4, -1805.6898, 0.000035165373, 0.00005410666, -145759.33, -145759.33, 0.0, 2.5004876, 2.4984682 
3.0380774e+2, 1.6239454e+1, -145926.64, -755874.94, -1968.8135, 0.00009878045, -0.000015491443, -145920.3, -145920.3, 0.0, 2.5004873, 2.4984682 
3.0380774e+2, 1.8737927e+1, -146089.89, -755945.06, -2132.496, 0.00016482624, -0.000079340665, -146082.44, -146082.44, 0.0, 2.500487, 2.4984682 
3.0380774e+2, 2.1236473e+1, -103942.85, -668023.2, -310.63156, 0.000012498094, 0.00017746375, -103942.68, -103942.68, 0.0, 2.5004866, 2.498619 
3.0380774e+2, 2.3735099e+1, -103697.375, -666904.7, -2952.2317, -0.00000026184478, 0.00006494831, -103681.9, -103681.9, 0.0, 2.500486, 2.4986215 
3.0380774e+2, 2.623372e+1, -104075.18, -667078.06, -3106.2026, -0.000010381273, -0.00004106623, -104058.04, -104058.04, 0.0, 2.5004854, 2.4986215 
3.038077e+2, 2.8732345e+1, -104454.695, -667252.2, -3260.8171, -0.000018745506, -0.00013886827, -104435.8, -104435.8, 0.0, 2.5004847, 2.4986215 
3.0380774e+2, 3.1231046e+1, -62536.324, -579474.3, -694.097, -0.00006578483, 0.0002621252, -62535.39, -62535.39, 0.0, 2.500484, 2.4987724 
3.038077e+2, 3.372982e+1, -61959.406, -577592.75, -3787.6763, 0.000039189337, 0.000109541805, -61931.586, -61931.586, 0.0, 2.5004833, 2.498776 
3.038077e+2, 3.62286e+1, -62381.984, -577785.2, -3991.294, 0.00014776419, -0.000036891513, -62351.08, -62351.08, 0.0, 2.5004826, 2.498776 
3.038077e+2, 3.8727376e+1, -62806.348, -577978.5, -4196.004, 0.00025930814, -0.00017337126, -62772.176, -62772.176, 0.0, 2.5004816, 2.498776 
3.038077e+2, 4.1226232e+1, -21227.492, -490974.16, -1527.7627, 0.000076204924, 0.0003695313, -21222.523, -21222.523, 0.0, 2.5004811, 2.4989254 
3.0380768e+2, 4.372516e+1, -20286.637, -488318.3, -4234.1235, 0.000013378389, 0.00015229046, -20248.334, -20248.334, 0.0, 2.5004802, 2.4989305 
3.0380768e+2, 4.6224087e+1, -20723.521, -488519.88, -4397.232, -0.000048532926, -0.00006237459, -20682.191, -20682.191, 0.0, 2.5004795, 2.4989305 
3.0380768e+2, 4.8723018e+1, -21162.947, -488722.66, -4561.3706, -0.00011153361, -0.00026773912, -21118.453, -21118.453, 0.0, 2.5004787, 2.4989305 
3.0380768e+2, 5.1222026e+1, 20056.13, -402209.34, -2564.2068, -0.00009055845, 0.00045937172, 20071.701, 20071.701, 0.0, 2.5004778, 2.4990795 
3.0380765e+2, 5.372111e+1, 21328.168, -398799.13, -4140.205, -0.000025312349, 0.00021603305, 21368.965, 21368.965, 0.0, 2.500477, 2.4990857 
3.0380765e+2, 5.62202e+1, 20848.93, -399024.25, -4359.2554, 0.00004286185, -0.000032189764, 20894.184, 20894.184, 0.0, 2.5004761, 2.4990857 
3.0380765e+2, 5.871928e+1, 20367.117, -399250.63, -4579.168, 0.000114598246, -0.000274725, 20417.082, 20417.082, 0.0, 2.5004754, 2.4990857 
3.0380765e+2, 6.121844e+1, 61269.19, -313565.0, -3839.4114, 0.00016382233, 0.0005658725, 61308.516, 61308.516, 0.0, 2.5004745, 2.4992332 
3.0380765e+2, 6.3717675e+1, 62982.953, -309510.13, -3741.441, 0.0000734939, 0.00015895929, 63020.527, 63020.527, 0.0, 2.500474, 2.4992404 
3.0380765e+2, 6.621691e+1, 62674.246, -309652.0, -3919.9631, -0.000016123786, -0.00025797798, 62715.51, 62715.51, 0.0, 2.5004735, 2.4992404 
3.0380765e+2, 6.871615e+1, 62362.25, -309795.47, -4099.4775, -0.00010408093, -0.00067023083, 62407.402, 62407.402, 0.0, 2.500473, 2.4992404 
3.0380762e+2, 7.121547e+1, 102951.38, -224778.58, -4749.3027, 0.00011571037, 0.0006340786, 103020.195, 103020.195, 0.0, 2.5004723, 2.4993868 
3.0380765e+2, 7.3714864e+1, 104849.305, -220437.52, -2922.3586, 0.0000367402, 0.00046008217, 104875.555, 104875.555, 0.0, 2.5004718, 2.4993944 
3.0380765e+2, 7.6214254e+1, 104595.62, -220561.67, -3069.7876, -0.00004426388, 0.00026511797, 104624.59, 104624.59, 0.0, 2.5004714, 2.4993944 
3.0380765e+2, 7.8713644e+1, 104337.336, -220688.05, -3217.3425, -0.00012289936, 0.00007158732, 104369.18, 104369.18, 0.0, 2.5004709, 2.4993944 
3.0380765e+2, 8.1213117e+1, 144917.97, -135949.66, -5337.229, 0.00016621445, 0.00068283046, 145019.34, 145019.34, 0.0, 2.5004704, 2.49954 
3.0380765e+2, 8.3712655e+1, 147120.39, -131523.75, -1925.3986, 0.00006288927, -0.0000813492, 147133.7, 147133.7, 0.0, 2.5004706, 2.4995475 
3.0380765e+2, 8.6212194e+1, 147217.61, -131465.52, -2078.9023, -0.000035289275, -0.00086126965, 147233.11, 147233.11, 0.0, 2.5004706, 2.4995475 
3.0380768e+2, 8.871173e+1, 147308.61, -131410.27, -2232.3872, -0.00012266544, -0.0016410106, 147326.48, 147326.48, 0.0, 2.5004709, 2.4995477 
3.0380768e+2, 9.121138e+1, 187876.66, -47301.008, -4772.942, 0.00047308553, 0.0017136085, 187973.48, 187973.48, 0.0, 2.500471, 2.499692 
3.0380768e+2, 9.371107e+1, 190138.02, -42946.23, -1037.3715, 0.00026457166, 0.0010325311, 190142.63, 190142.63, 0.0, 2.5004714, 2.4996994 
3.038077e+2, 9.621076e+1, 190344.08, -42839.53, -1111.0177, 0.000060602128, 0.0002730296, 190349.38, 190349.38, 0.0, 2.5004718, 2.4996994 
3.0380774e+2, 9.871045e+1, 190536.0, -42739.65, -1183.1267, -0.00012764828, -0.0004998836, 190542.0, 190542.0, 0.0, 2.500472, 2.4996994 
3.0630827e+2, 1.2491591e+0, -187944.89, -844572.7, -296.5267, -0.00020660243, -0.000008946265, -187944.77, -187944.77, 0.0, 2.5004888, 2.4983153 
3.0630827e+2, 3.7474772e+0, -188371.45, -845239.7, -477.5058, -0.000104395614, -0.000025461286, -188371.11, -188371.11, 0.0, 2.5004885, 2.4983144 
3.0630827e+2, 6.2457955e+0, -188509.69, -845305.25, -621.279, -0.0000057025504, -0.000040138733, -188509.11, -188509.11, 0.0, 2.5004883, 2.4983144 
3.0630827e+2, 8.744114e+0, -188649.4, -845371.56, -765.2661, 0.00008947733, -0.000052978798, -188648.52, -188648.52, 0.0, 2.500488, 2.4983144 
3.0630827e+2, 1.1242508e+1, -146179.34, -756947.25, -306.3625, 0.00005740304, 0.000089384666, -146179.19, -146179.19, 0.0, 2.5004878, 2.498466 
3.0630824e+2, 1.3740978e+1, -146042.17, -756402.3, -1855.0121, 0.0000065019544, 0.000025277603, -146036.55, -146036.55, 0.0, 2.5004876, 2.498467 
3.0630824e+2, 1.6239448e+1, -146201.77, -756471.75, -2015.636, -0.000046363326, -0.000033885553, -146195.11, -146195.11, 0.0, 2.5004873, 2.498467 
3.0630824e+2, 1.8737918e+1, -146362.63, -756541.75, -2176.819, -0.000101346515, -0.000087673805, -146354.86, -146354.86, 0.0, 2.500487, 2.4984672 
3.0630824e+2, 2.1236466e+1, -104159.94, -668517.5, -430.01062, -0.00021217683, 0.00017716801, -104159.61, -104159.61, 0.0, 2.5004866, 2.4986184 
3.0630824e+2, 2.3735088e+1, -103919.375, -667414.7, -3059.9622, -0.00009819479, 0.000058336187, -103902.76, -103902.76, 0.0, 2.5004861, 2.4986205 
3.0630824e+2, 2.623371e+1, -104294.51, -667588.0, -3211.2593, 0.000012270074, -0.00005400118, -104276.2, -104276.2, 0.0, 2.5004854, 2.4986205 
3.063082e+2, 2.8732333e+1, -104671.36, -667762.06, -3363.1997, 0.00011853245, -0.00015808245, -104651.27, -104651.27, 0.0, 2.5004847, 2.4986205 
3.063082e+2, 3.123103e+1, -62771.902, -580057.94, -845.3728, 0.000032326872, 0.00022587359, -62770.523, -62770.523, 0.0, 2.500484, 2.4987712 
3.063082e+2, 3.372981e+1, -62213.086, -578222.0, -3907.6716, 0.000025539486, 0.000075687414, -62183.496, -62183.496, 0.0, 2.5004833, 2.4987748 
3.063082e+2, 3.6228585e+1, -62632.293, -578415.2, -4108.7896, 0.00001708389, -0.00006873718, -62599.566, -62599.566, 0.0, 2.5004826, 2.4987748 
3.0630818e+2, 3.872736e+1, -63053.285, -578609.25, -4311.0, 0.0000060198563, -0.00020373866, -63017.242, -63017.242, 0.0, 2.5004818, 2.4987748 
3.0630818e+2, 4.122621e+1, -21323.21, -491304.25, -1667.059, -0.00014357934, 0.00033167578, -21317.299, -21317.299, 0.0, 2.5004811, 2.498925 
3.0630818e+2, 4.372514e+1, -20420.467, -488734.25, -4358.7793, -0.00008671652, 0.000107112195, -20379.902, -20379.902, 0.0, 2.5004804, 2.4989297 
3.0630818e+2, 4.6224073e+1, -20855.04, -488937.56, -4518.9146, -0.000036588215, -0.00011505901, -20811.418, -20811.418, 0.0, 2.5004797, 2.4989297 
3.0630815e+2, 4.8723e+1, -21292.152, -489142.1, -4680.0796, 0.000005127147, -0.00032812875, -21245.34, -21245.34, 0.0, 2.500479, 2.4989297 
3.0630815e+2, 5.122201e+1, 19977.23, -402588.4, -2732.4216, 0.000013477836, 0.00038293222, 19994.898, 19994.898, 0.0, 2.500478, 2.4990788 
3.0630815e+2, 5.372109e+1, 21177.258, -399333.3, -4275.1416, 0.000022549302, 0.0001353036, 21220.717, 21220.717, 0.0, 2.5004773, 2.4990847 
3.0630815e+2, 5.6220174e+1, 20699.445, -399560.4, -4491.012, 0.000027943579, -0.00011716798, 20747.434, 20747.434, 0.0, 2.5004764, 2.4990847 
3.063081e+2, 5.8719254e+1, 20219.059, -399788.75, -4707.7446, 0.000029877338, -0.0003640374, 20271.82, 20271.82, 0.0, 2.5004756, 2.4990847 
3.063081e+2, 6.1218417e+1, 61315.31, -313743.28, -3943.7332, 0.00003178453, 0.00048387362, 61356.773, 61356.773, 0.0, 2.500475, 2.4992328 
3.063081e+2, 6.371766e+1, 62964.16, -309827.72, -3829.7825, -0.000036763475, 0.000107868385, 63003.5, 63003.5, 0.0, 2.5004742, 2.4992397 
3.063081e+2, 6.6216886e+1, 62656.1, -309972.22, -4005.0767, -0.000111263, -0.00027874816, 62699.14, 62699.14, 0.0, 2.5004737, 2.4992397 
3.063081e+2, 6.8716127e+1, 62344.754, -310118.34, -4181.363, -0.00019108078, -0.000661328, 62391.688, 62391.688, 0.0, 2.5004733, 2.4992397 
3.063081e+2, 7.1215445e+1, 103150.664, -224719.1, -4852.2773, -0.0000041987114, 0.0006142114, 103222.46, 103222.46, 0.0, 2.5004725, 2.4993865 
3.063081e+2, 7.3714834e+1, 104951.76, -220577.53, -2993.1902, -0.000021761345, 0.00036916672, 104979.28, 104979.28, 0.0, 2.500472, 2.499394 
3.063081e+2, 7.6214224e+1, 104694.71, -220706.17, -3136.797, -0.00004933295, 0.000103706574, 104724.945, 104724.945, 0.0, 2.5004718, 2.499394 
3.063081e+2, 7.8713614e+1, 104433.06, -220837.02, -3280.5303, -0.00008341967, -0.00015990112, 104466.15, 104466.15, 0.0, 2.5004714, 2.499394 
3.063081e+2, 8.1213087e+1, 145166.34, -135867.28, -5348.7334, 0.00020766772, 0.00047979708, 145268.11, 145268.11, 0.0, 2.5004709, 2.4995399 
3.063081e+2, 8.371263e+1, 147269.25, -131644.55, -1901.6022, 0.000044274526, -0.0001893873, 147282.2, 147282.2, 0.0, 2.500471, 2.4995472 
3.0630815e+2, 8.6212164e+1, 147362.86, -131588.88, -2051.1619, -0.00012462317, -0.00087529037, 147377.94, 147377.94, 0.0, 2.500471, 2.4995472 
3.0630815e+2, 8.871171e+1, 147450.27, -131536.2, -2200.7024, -0.00029328477, -0.0015617348, 147467.63, 147467.63, 0.0, 2.5004714, 2.4995472 
3.0630815e+2, 9.1211355e+1, 188394.08, -46725.223, -4729.936, -0.00002885788, 0.0017783764, 188489.19, 188489.19, 0.0, 2.5004716, 2.4996927 
3.0630818e+2, 9.371104e+1, 190475.95, -42729.04, -963.4243, -0.000029790122, 0.0010194738, 190479.92, 190479.92, 0.0, 2.500472, 2.4996994 
3.0630818e+2, 9.621073e+1, 190672.78, -42625.895, -1026.3832, -0.00004571246, 0.00018316605, 190677.3, 190677.3, 0.0, 2.5004723, 2.4996994 
3.063082e+2, 9.871042e+1, 190855.45, -42529.563, -1087.8049, -0.00007183331, -0.0006658653, 190860.53, 190860.53, 0.0, 2.5004725, 2.4996994 
3.0880874e+2, 1.2491585e+0, -188593.95, -845325.94, -396.6709, -0.00045877634, -0.000014388852, -188593.7, -188593.7, 0.0, 2.5004883, 2.4983144 
3.0880874e+2, 3.7474757e+0, -188920.7, -845944.0, -705.2374, -0.00023380155, -0.000042036474, -188919.94, -188919.94, 0.0, 2.500488, 2.4983132 
3.0880874e+2, 6.2457925e+0, -189027.31, -845994.4, -970.56006, -0.000018541656, -0.000068176436, -189025.89, -189025.89, 0.0, 2.500488, 2.4983132 
3.0880874e+2, 8.744109e+0, -189203.13, -846078.1, -1234.3754, 0.00018700385, -0.00009280895, -189200.8, -189200.8, 0.0, 2.5004876, 2.4983132 
3.0880874e+2, 1.1242503e+1, -146771.78, -757715.9, -900.9393, 0.00015017911, 0.000050812065, -146770.45, -146770.45, 0.0, 2.5004873, 2.4984648 
3.088087e+2, 1.3740973e+1, -146609.36, -757148.0, -2527.5356, -0.000014133473, -0.0000062451313, -146598.9, -146598.9, 0.0, 2.500487, 2.498466 
3.088087e+2, 1.623944e+1, -146807.67, -757236.44, -2762.279, -0.00018441193, -0.000058719426, -146795.17, -146795.17, 0.0, 2.5004869, 2.498466 
3.088087e+2, 1.873791e+1, -147064.23, -757353.0, -2989.839, -0.0003608221, -0.000106175234, -147049.6, -147049.6, 0.0, 2.5004864, 2.498466 
3.088087e+2, 2.1236455e+1, -104834.4, -669259.75, -1357.0437, -0.00042660587, 0.00018005488, -104831.13, -104831.13, 0.0, 2.500486, 2.4986174 
3.088087e+2, 2.3735079e+1, -104506.01, -668102.5, -3985.28, -0.00018883294, 0.000051002553, -104477.83, -104477.83, 0.0, 2.5004854, 2.4986196 
3.0880868e+2, 2.62337e+1, -104862.15, -668266.7, -4131.8315, 0.00003987836, -0.00007159025, -104831.85, -104831.85, 0.0, 2.500485, 2.4986196 
3.0880868e+2, 2.873232e+1, -105281.1, -668461.2, -4267.679, 0.00025906408, -0.00018583453, -105248.766, -105248.766, 0.0, 2.5004842, 2.4986196 
3.0880868e+2, 3.123102e+1, -63449.63, -580870.56, -1743.5696, 0.00013774744, 0.00019067092, -63443.754, -63443.754, 0.0, 2.5004833, 2.4987702 
3.0880868e+2, 3.3729795e+1, -62918.11, -579063.5, -4686.8965, 0.00001791643, 0.000039889208, -62875.555, -62875.555, 0.0, 2.5004826, 2.4987736 
3.0880865e+2, 3.622857e+1, -63411.137, -579293.3, -4777.2827, -0.00010838026, -0.00010563235, -63366.902, -63366.902, 0.0, 2.5004818, 2.4987736 
3.0880865e+2, 3.872734e+1, -63961.55, -579550.8, -4852.2896, -0.00024235182, -0.0002422867, -63915.89, -63915.89, 0.0, 2.500481, 2.4987736 
3.0880865e+2, 4.1226196e+1, -22118.154, -491977.75, -2082.0664, -0.00035684754, 0.0002930977, -22108.928, -22108.928, 0.0, 2.5004802, 2.4989243 
3.0880865e+2, 4.3725124e+1, -21168.56, -489432.38, -4585.428, -0.00018197375, 0.000058708716, -21123.662, -21123.662, 0.0, 2.5004795, 2.498929 
3.0880862e+2, 4.6224052e+1, -21617.45, -489644.1, -4550.554, -0.000020481068, -0.00017356483, -21573.209, -21573.209, 0.0, 2.5004787, 2.498929 
3.0880862e+2, 4.872298e+1, -22158.744, -489900.34, -4498.883, 0.0001262971, -0.00039694682, -22115.477, -22115.477, 0.0, 2.5004778, 2.498929 
3.0880862e+2, 5.122199e+1, 19094.975, -403362.0, -2348.6445, 0.000118958145, 0.00031424913, 19108.031, 19108.031, 0.0, 2.5004768, 2.4990778 
3.0880862e+2, 5.372107e+1, 20278.174, -400208.25, -3596.0903, 0.00007141683, 0.000058347723, 20308.926, 20308.926, 0.0, 2.5004761, 2.4990838 
3.088086e+2, 5.622015e+1, 19782.082, -400445.6, -3521.0608, 0.000014195927, -0.00020251241, 19811.582, 19811.582, 0.0, 2.5004754, 2.4990838 
3.088086e+2, 5.871923e+1, 19224.846, -400712.4, -3431.3213, -0.00005292577, -0.00045780756, 19252.88, 19252.88, 0.0, 2.5004745, 2.4990838 
3.088086e+2, 6.121839e+1, 60459.426, -314360.0, -2332.6316, -0.000098244236, 0.00040815072, 60473.94, 60473.94, 0.0, 2.5004735, 2.4992323 
3.088086e+2, 6.3717633e+1, 62060.504, -310548.22, -1906.8511, -0.0001432955, 0.000058660677, 62070.26, 62070.26, 0.0, 2.500473, 2.499239 
3.088086e+2, 6.621687e+1, 61676.414, -310731.28, -1759.8976, -0.00020017379, -0.00030227934, 61684.73, 61684.73, 0.0, 2.5004723, 2.499239 
3.0880857e+2, 6.87161e+1, 61211.574, -310953.25, -1597.2471, -0.0002685562, -0.00065992074, 61218.43, 61218.43, 0.0, 2.5004716, 2.499239 
3.0880857e+2, 7.121542e+1, 102180.58, -225236.86, -1953.1425, -0.00012502827, 0.0006050247, 102192.234, 102192.234, 0.0, 2.5004709, 2.4993865 
3.0880857e+2, 7.371481e+1, 104005.69, -221200.64, 229.7411, -0.00007856083, 0.00028486934, 104005.85, 104005.85, 0.0, 2.5004706, 2.4993935 
3.088086e+2, 7.62142e+1, 103749.28, -221331.17, 405.0115, -0.000048895054, -0.00005550329, 103749.79, 103749.79, 0.0, 2.5004702, 2.4993935 
3.088086e+2, 7.871359e+1, 103393.5, -221509.58, 590.8791, -0.000033588658, -0.00039366708, 103394.57, 103394.57, 0.0, 2.5004697, 2.4993935 
3.0880857e+2, 8.121306e+1, 144232.89, -136366.98, -1124.214, 0.00024680613, 0.00028420106, 144237.4, 144237.4, 0.0, 2.5004694, 2.4995399 
3.088086e+2, 8.37126e+1, 146298.45, -132287.28, 2573.9702, 0.000027895285, -0.00029438018, 146322.23, 146322.23, 0.0, 2.5004697, 2.4995468 
3.088086e+2, 8.621214e+1, 146323.27, -132265.45, 2666.928, -0.00020612006, -0.0008908466, 146348.8, 146348.8, 0.0, 2.5004697, 2.4995468 
3.0880862e+2, 8.871168e+1, 146233.23, -132298.94, 2765.1821, -0.00044961457, -0.0014885798, 146260.69, 146260.69, 0.0, 2.5004694, 2.4995468 
3.088086e+2, 9.1211325e+1, 187518.53, -46853.41, 457.5184, -0.0005331211, 0.001862682, 187519.42, 187519.42, 0.0, 2.5004697, 2.4996934 
3.0880862e+2, 9.371102e+1, 189504.38, -43134.36, 4377.7285, -0.0003189798, 0.0010198042, 189586.73, 189586.73, 0.0, 2.5004702, 2.4996996 
3.0880865e+2, 9.6210706e+1, 189445.52, -43153.582, 4463.0933, -0.00013640572, 0.00010021419, 189531.13, 189531.13, 0.0, 2.5004702, 2.4996996 
3.0880868e+2, 9.8710394e+1, 189064.44, -43327.97, 4551.089, 0.000012745331, -0.0008312941, 189153.53, 189153.53, 0.0, 2.5004694, 2.4996996 
3.1130925e+2, 1.2491576e+0, -186291.5, -845055.75, -367.4452, -0.00018998058, -0.000013410277, -186291.3, -186291.3, 0.0, 2.500493, 2.4983125 
3.1130925e+2, 3.7474728e+0, -186645.73, -845673.44, -602.1221, -0.000008538502, -0.000038534214, -186645.19, -186645.19, 0.0, 2.5004928, 2.4983115 
3.1130925e+2, 6.2457883e+0, -186715.83, -845697.9, -791.3228, 0.00018637991, -0.00006139509, -186714.88, -186714.88, 0.0, 2.5004928, 2.4983115 
3.1130925e+2, 8.7441033e+0, -186787.77, -845723.1, -980.79944, 0.00039477524, -0.00008199309, -186786.31, -186786.31, 0.0, 2.5004926, 2.4983115 
3.1130925e+2, 1.12424955e+1, -144384.0, -757317.3, -606.62787, 0.00034389828, 0.000066327964, -144383.39, -144383.39, 0.0, 2.5004923, 2.4984632 
3.1130925e+2, 1.3740963e+1, -144375.38, -756808.7, -2177.829, 0.000167359, 0.000019762369, -144367.64, -144367.64, 0.0, 2.5004919, 2.4984643 
3.1130922e+2, 1.623943e+1, -144666.6, -756920.06, -2371.372, 0.0000045014685, -0.00002162291, -144657.42, -144657.42, 0.0, 2.5004911, 2.4984643 
3.1130922e+2, 1.8737897e+1, -144959.7, -757032.3, -2565.1963, -0.00014486631, -0.00005739779, -144948.95, -144948.95, 0.0, 2.5004907, 2.4984646 
3.1130922e+2, 2.1236442e+1, -102861.75, -668788.44, -975.5012, -0.00019934813, 0.00022746038, -102860.07, -102860.07, 0.0, 2.50049, 2.4986162 
3.1130922e+2, 2.3735064e+1, -102617.63, -667650.8, -3617.3586, -0.000008254487, 0.00010033923, -102594.48, -102594.48, 0.0, 2.5004892, 2.4986186 
3.1130916e+2, 2.6233682e+1, -102985.97, -667783.56, -3823.5105, 0.00019612613, -0.000018329214, -102960.086, -102960.086, 0.0, 2.5004885, 2.4986186 
3.1130916e+2, 2.8732303e+1, -103356.31, -667917.4, -4030.614, 0.00041344052, -0.00012669324, -103327.54, -103327.54, 0.0, 2.5004878, 2.4986188 
3.1130916e+2, 3.1231e+1, -61498.04, -580141.6, -1622.4645, 0.00025621976, 0.00024714196, -61492.96, -61492.96, 0.0, 2.5004869, 2.4987698 
3.1130916e+2, 3.3729774e+1, -61070.563, -578389.8, -4625.533, 0.00011813174, 0.000105239196, -61029.207, -61029.207, 0.0, 2.5004861, 2.498773 
3.1130913e+2, 3.622855e+1, -61579.375, -578579.94, -4819.1143, -0.000008746936, -0.00003115544, -61534.46, -61534.46, 0.0, 2.5004852, 2.4987733 
3.1130913e+2, 3.8727322e+1, -62090.598, -578771.2, -5013.474, -0.00012582768, -0.00015850687, -62041.957, -62041.957, 0.0, 2.5004842, 2.4987733 
3.1130913e+2, 4.1226178e+1, -20470.063, -491027.63, -2438.7578, -0.00022447325, 0.00037326632, -20457.424, -20457.424, 0.0, 2.5004828, 2.4989247 
3.113091e+2, 4.3725106e+1, -19788.383, -488638.44, -5139.9814, -0.00007400984, 0.00015372179, -19732.04, -19732.04, 0.0, 2.5004818, 2.4989293 
3.113091e+2, 4.6224034e+1, -20365.637, -488863.66, -5372.532, 0.000101318525, -0.0000636424, -20304.035, -20304.035, 0.0, 2.5004807, 2.4989293 
3.113091e+2, 4.8722962e+1, -20945.645, -489090.25, -5605.911, 0.0003004445, -0.00027221176, -20878.523, -20878.523, 0.0, 2.5004797, 2.4989295 
3.113091e+2, 5.1221967e+1, 20328.963, -402311.0, -3712.3645, 0.0002552871, 0.00044580046, 20361.568, 20361.568, 0.0, 2.5004785, 2.499079 
3.1130907e+2, 5.372105e+1, 21295.799, -399325.63, -5188.078, 0.00016126523, 0.00019984739, 21359.781, 21359.781, 0.0, 2.5004776, 2.4990845 
3.1130907e+2, 5.622013e+1, 20708.549, -399563.9, -5371.5186, 0.00007721064, -0.000048543276, 20777.191, 20777.191, 0.0, 2.5004764, 2.4990847 
3.1130907e+2, 5.871922e+1, 20118.05, -399803.72, -5556.0645, 0.0000023350608, -0.0002888939, 20191.55, 20191.55, 0.0, 2.5004754, 2.4990847 
3.1130904e+2, 6.121838e+1, 61209.746, -313296.9, -4707.6787, -0.000032129996, 0.00056547334, 61268.914, 61268.914, 0.0, 2.5004742, 2.4992337 
3.1130904e+2, 6.371762e+1, 62477.34, -309753.28, -4591.3286, -0.000033874716, 0.00022197574, 62533.965, 62533.965, 0.0, 2.5004733, 2.4992404 
3.1130904e+2, 6.6216856e+1, 61928.67, -309978.8, -4789.7666, -0.000019029989, -0.00013586936, 61990.348, 61990.348, 0.0, 2.500472, 2.4992404 
3.1130904e+2, 6.8716097e+1, 61376.168, -310206.2, -4988.5786, 0.000012674473, -0.00049362844, 61443.13, 61443.13, 0.0, 2.500471, 2.4992406 
3.1130904e+2, 7.1215415e+1, 102254.805, -224403.88, -5613.033, 0.0000932697, 0.0007603028, 102351.22, 102351.22, 0.0, 2.5004702, 2.4993882 
3.1130904e+2, 7.3714805e+1, 103771.56, -220647.98, -3741.506, 0.00009072532, 0.00044677968, 103814.71, 103814.71, 0.0, 2.5004697, 2.4993951 
3.1130904e+2, 7.6214194e+1, 103400.08, -220807.95, -3900.7727, 0.00011000713, 0.000110673485, 103447.0, 103447.0, 0.0, 2.500469, 2.4993951 
3.1130904e+2, 7.8713584e+1, 103023.58, -220970.34, -4060.5896, 0.00015232111, -0.00022579623, 103074.46, 103074.46, 0.0, 2.5004683, 2.4993951 
3.1130904e+2, 8.121306e+1, 143786.53, -135833.81, -5914.862, 0.00049743307, 0.00045178257, 143911.6, 143911.6, 0.0, 2.5004678, 2.4995415 
3.1130904e+2, 8.37126e+1, 145449.88, -132130.61, -2416.947, 0.00032849397, -0.00011634999, 145470.9, 145470.9, 0.0, 2.5004675, 2.499548 
3.1130907e+2, 8.621214e+1, 145298.22, -132185.97, -2527.9229, 0.00017271402, -0.0007022078, 145321.25, 145321.25, 0.0, 2.5004673, 2.499548 
3.1130907e+2, 8.8711685e+1, 145139.19, -132244.89, -2638.5374, 0.000036050376, -0.0012892552, 145164.28, 145164.28, 0.0, 2.5004668, 2.4995482 
3.1130907e+2, 9.1211337e+1, 186113.05, -46903.85, -5023.9443, -0.00035199488, 0.0020169157, 186221.31, 186221.31, 0.0, 2.5004668, 2.4996948 
3.1130907e+2, 9.371102e+1, 187862.64, -43571.168, -1263.1611, -0.000011482053, 0.0011526264, 187869.53, 187869.53, 0.0, 2.500467, 2.4997003 
3.113091e+2, 9.621072e+1, 188033.05, -43477.176, -1362.935, 0.00039614819, 0.00021804798, 188041.08, 188041.08, 0.0, 2.5004673, 2.4997003 
3.1130913e+2, 9.8710406e+1, 188178.11, -43395.395, -1460.5007, 0.0008625705, -0.0007226518, 188187.31, 188187.31, 0.0, 2.5004675, 2.4997003 
3.1380972e+2, 1.249157e+0, -186627.02, -845753.6, -388.30978, -0.000102841695, -0.000010764392, -186626.78, -186626.78, 0.0, 2.500493, 2.4983113 
3.1380972e+2, 3.747471e+0, -186973.88, -846357.7, -624.23065, -0.000018737946, -0.00003073278, -186973.28, -186973.28, 0.0, 2.5004928, 2.4983103 
3.1380972e+2, 6.245785e+0, -187042.16, -846380.0, -810.3887, 0.00007000462, -0.000048619753, -187041.17, -187041.17, 0.0, 2.5004928, 2.4983103 
3.1380972e+2, 8.7440985e+0, -187112.3, -846403.25, -996.8225, 0.00016338658, -0.00006442549, -187110.8, -187110.8, 0.0, 2.5004926, 2.4983103 
3.1380972e+2, 1.12424895e+1, -144690.23, -757965.75, -705.96716, 0.00010034446, 0.00007600698, -144689.42, -144689.42, 0.0, 2.5004923, 2.4984622 
3.1380972e+2, 1.3740955e+1, -144692.88, -757484.7, -2263.8064, 0.00004084533, 0.000019625972, -144684.52, -144684.52, 0.0, 2.5004919, 2.4984632 
3.138097e+2, 1.6239423e+1, -144982.67, -757597.25, -2454.14, -0.000012357475, -0.00003135381, -144972.84, -144972.84, 0.0, 2.5004914, 2.4984632 
3.138097e+2, 1.8737888e+1, -145274.34, -757710.7, -2644.7546, -0.000059481237, -0.000076508426, -145262.92, -145262.92, 0.0, 2.5004907, 2.4984634 
3.138097e+2, 2.1236432e+1, -103135.29, -669408.25, -1143.0728, -0.00011037835, 0.00017149326, -103132.984, -103132.984, 0.0, 2.50049, 2.4986153 
3.138097e+2, 2.3735051e+1, -102913.85, -668326.06, -3726.8582, -0.0000036769368, 0.000055633223, -102889.29, -102889.29, 0.0, 2.5004892, 2.4986174 
3.1380966e+2, 2.623367e+1, -103276.93, -668456.06, -3929.4966, 0.00010845608, -0.000052443527, -103249.61, -103249.61, 0.0, 2.5004885, 2.4986174 
3.1380966e+2, 2.8732288e+1, -103642.02, -668587.06, -4133.0864, 0.00022563642, -0.00015108245, -103611.79, -103611.79, 0.0, 2.5004878, 2.4986176 
3.1380966e+2, 3.1230986e+1, -61692.207, -580614.25, -1813.412, 0.00006349134, 0.00021387202, -61685.87, -61685.87, 0.0, 2.500487, 2.4987688 
3.1380966e+2, 3.372976e+1, -61312.0, -578967.3, -4776.5547, 0.000020847554, 0.00007492787, -61267.93, -61267.93, 0.0, 2.5004861, 2.4987721 
3.1380963e+2, 3.6228532e+1, -61818.0, -579158.4, -4966.86, -0.000019123481, -0.000058393474, -61770.32, -61770.32, 0.0, 2.5004852, 2.4987721 
3.1380963e+2, 3.87273e+1, -62326.406, -579350.5, -5157.944, -0.000057838635, -0.00018262607, -62274.957, -62274.957, 0.0, 2.5004842, 2.4987724 
3.1380963e+2, 4.1226158e+1, -20636.625, -491532.44, -2688.8826, -0.00014306534, 0.00031981076, -20621.271, -20621.271, 0.0, 2.500483, 2.4989238 
3.138096e+2, 4.3725082e+1, -20018.568, -489281.44, -5308.871, -0.000037498223, 0.00010557746, -19958.516, -19958.516, 0.0, 2.5004818, 2.498928 
3.138096e+2, 4.622401e+1, -20594.213, -489508.75, -5537.9585, 0.000083520885, -0.00010547188, -20528.818, -20528.818, 0.0, 2.500481, 2.498928 
3.1380957e+2, 4.8722938e+1, -21172.611, -489737.38, -5767.8745, 0.0002189151, -0.00030706328, -21101.621, -21101.621, 0.0, 2.50048, 2.4989283 
3.1380957e+2, 5.122195e+1, 20310.232, -402544.0, -3903.697, 0.00012337354, 0.00039649117, 20346.268, 20346.268, 0.0, 2.5004787, 2.4990785 
3.1380957e+2, 5.372103e+1, 21202.748, -399718.53, -5359.5015, 0.000061007104, 0.00016247976, 21270.979, 21270.979, 0.0, 2.5004778, 2.4990838 
3.1380954e+2, 5.622011e+1, 20617.684, -399957.63, -5539.3296, -0.0000006140805, -0.00007344034, 20690.627, 20690.627, 0.0, 2.5004766, 2.4990838 
3.1380954e+2, 5.8719194e+1, 20029.371, -400198.3, -5720.263, -0.00006270829, -0.00030102648, 20107.223, 20107.223, 0.0, 2.5004756, 2.499084 
3.1380954e+2, 6.121836e+1, 61296.258, -313403.47, -4897.6055, -0.00007059968, 0.0005017006, 61360.26, 61360.26, 0.0, 2.5004745, 2.4992335 
3.1380954e+2, 6.371759e+1, 62439.64, -310119.34, -4753.172, -0.000021193584, 0.00013814111, 62500.273, 62500.273, 0.0, 2.5004735, 2.4992397 
3.1380954e+2, 6.6216826e+1, 61887.582, -310352.47, -4947.447, 0.000035662957, -0.00023773659, 61953.33, 61953.33, 0.0, 2.5004725, 2.4992397 
3.138095e+2, 6.871607e+1, 61331.695, -310587.44, -5142.095, 0.00010017584, -0.00061209867, 61402.777, 61402.777, 0.0, 2.5004716, 2.4992397 
3.138095e+2, 7.1215385e+1, 102470.84, -224314.44, -5730.79, 0.00007452406, 0.0006203304, 102571.31, 102571.31, 0.0, 2.5004706, 2.4993882 
3.138095e+2, 7.3714775e+1, 103864.91, -220814.53, -3848.8367, -0.0000059013414, 0.00036845423, 103910.53, 103910.53, 0.0, 2.50047, 2.4993947 
3.138095e+2, 7.6214164e+1, 103494.04, -220973.4, -4004.3406, -0.00007394255, 0.00009386001, 103543.445, 103543.445, 0.0, 2.5004692, 2.4993947 
3.138095e+2, 7.8713554e+1, 103118.15, -221134.67, -4160.395, -0.00012970016, -0.00018181065, 103171.52, 103171.52, 0.0, 2.5004687, 2.4993947 
3.138095e+2, 8.121303e+1, 144182.19, -135443.45, -5951.9604, 0.00028611498, 0.00046177994, 144308.81, 144308.81, 0.0, 2.5004683, 2.499542 
3.138095e+2, 8.371257e+1, 145688.78, -132061.98, -2463.8833, 0.00025047528, -0.00016175286, 145710.63, 145710.63, 0.0, 2.500468, 2.499548 
3.1380954e+2, 8.621211e+1, 145531.64, -132123.78, -2569.7935, 0.00021388527, -0.0008025658, 145555.42, 145555.42, 0.0, 2.5004678, 2.499548 
3.1380954e+2, 8.8711655e+1, 145367.13, -132189.13, -2675.342, 0.00018310195, -0.0014446619, 145392.9, 145392.9, 0.0, 2.5004673, 2.499548 
3.1380954e+2, 9.12113e+1, 186623.45, -46362.605, -5015.868, -0.0005365157, 0.0017852775, 186731.39, 186731.39, 0.0, 2.5004673, 2.4996955 
3.1380957e+2, 9.371099e+1, 188187.05, -43414.65, -1210.616, -0.00019440778, 0.0009826898, 188193.36, 188193.36, 0.0, 2.5004675, 2.4997003 
3.138096e+2, 9.621069e+1, 188371.97, -43309.125, -1310.2632, 0.00019418579, 0.00010953103, 188379.39, 188379.39, 0.0, 2.5004678, 2.4997003 
3.138096e+2, 9.871037e+1, 188542.22, -43210.676, -1408.4916, 0.0006144442, -0.00077123806, 188550.78, 188550.78, 0.0, 2.5004683, 2.4997003 
3.163102e+2, 1.2491564e+0, -186962.84, -846452.2, -408.39133, -0.000016287779, -0.000009035794, -186962.6, -186962.6, 0.0, 2.500493, 2.49831 
3.163102e+2, 3.7474692e+0, -187303.3, -847044.56, -646.21875, -0.000030692274, -0.000025683208, -187302.67, -187302.67, 0.0, 2.5004928, 2.4983091 
3.163102e+2, 6.245782e+0, -187369.78, -847064.8, -829.3339, -0.000049295442, -0.000040430856, -187368.75, -187368.75, 0.0, 2.5004928, 2.4983091 
3.163102e+2, 8.744095e+0, -187438.13, -847086.0, -1012.725, -0.000072096744, -0.000053278905, -187436.56, -187436.56, 0.0, 2.5004926, 2.4983091 
3.163102e+2, 1.1242484e+1, -145007.16, -758636.3, -805.96704, -0.00013645287, 0.000087378394, -145006.1, -145006.1, 0.0, 2.5004923, 2.498461 
3.163102e+2, 1.374095e+1, -145011.66, -758163.3, -2349.304, -0.000079742684, 0.000017377268, -145002.66, -145002.66, 0.0, 2.5004919, 2.498462 
3.1631017e+2, 1.6239414e+1, -145300.03, -758277.06, -2536.428, -0.00002415038, -0.00004702673, -145289.53, -145289.53, 0.0, 2.5004914, 2.4984622 
3.1631017e+2, 1.873788e+1, -145590.28, -758391.75, -2723.8333, 0.00003011028, -0.00010539079, -145578.17, -145578.17, 0.0, 2.5004907, 2.4984622 
3.1631017e+2, 2.123642e+1, -103422.53, -670056.56, -1305.4615, -0.000024280667, 0.00011345887, -103419.52, -103419.52, 0.0, 2.50049, 2.498614 
3.1631017e+2, 2.3735039e+1, -103211.3, -669003.8, -3835.653, -0.0000051616375, 0.000004627143, -103185.29, -103185.29, 0.0, 2.5004892, 2.4986162 
3.1631014e+2, 2.6233655e+1, -103569.12, -669131.1, -4034.7778, 0.000011567216, -0.00009714222, -103540.336, -103540.336, 0.0, 2.5004888, 2.4986162 
3.1631014e+2, 2.8732273e+1, -103928.95, -669259.4, -4234.8545, 0.000025456975, -0.00019034035, -103897.234, -103897.234, 0.0, 2.500488, 2.4986165 
3.1631014e+2, 3.123097e+1, -61904.707, -581124.94, -2009.8953, -0.000113114096, 0.00017915163, -61896.93, -61896.93, 0.0, 2.500487, 2.4987679 
3.1631014e+2, 3.372974e+1, -61554.176, -579546.4, -4926.78, -0.000061321676, 0.000040779156, -61507.32, -61507.32, 0.0, 2.5004861, 2.4987712 
3.163101e+2, 3.622851e+1, -62057.363, -579738.3, -5113.809, -0.000015613068, -0.00009196551, -62006.855, -62006.855, 0.0, 2.5004852, 2.4987712 
3.163101e+2, 3.8727283e+1, -62562.957, -579931.44, -5301.617, 0.000022809365, -0.0002155759, -62508.637, -62508.637, 0.0, 2.5004845, 2.4987714 
3.1631008e+2, 4.1226137e+1, -20813.602, -492058.9, -2924.3918, -0.00007366163, 0.00026600136, -20795.455, -20795.455, 0.0, 2.500483, 2.4989226 
3.1631008e+2, 4.3725064e+1, -20249.395, -489925.78, -5476.866, -0.000013785252, 0.000054681295, -20185.537, -20185.537, 0.0, 2.500482, 2.4989269 
3.1631005e+2, 4.6223986e+1, -20823.43, -490155.16, -5702.49, 0.00005236675, -0.00015255054, -20754.154, -20754.154, 0.0, 2.5004811, 2.4989269 
3.1631005e+2, 4.8722917e+1, -21400.22, -490385.84, -5928.943, 0.00012347139, -0.00034966128, -21325.28, -21325.28, 0.0, 2.50048, 2.498927 
3.1631005e+2, 5.122192e+1, 20276.818, -402807.5, -4095.4187, 0.000006016392, 0.00034553756, 20316.459, 20316.459, 0.0, 2.500479, 2.4990778 
3.1631002e+2, 5.3721005e+1, 21109.035, -400112.78, -5529.936, -0.00002482908, 0.000120537494, 21181.621, 21181.621, 0.0, 2.5004778, 2.499083 
3.1631002e+2, 5.6220084e+1, 20526.156, -400352.75, -5706.1523, -0.00006449035, -0.000105928535, 20603.504, 20603.504, 0.0, 2.5004768, 2.499083 
3.1631002e+2, 5.8719164e+1, 19940.03, -400594.25, -5883.4736, -0.00011427665, -0.00032376667, 20022.326, 20022.326, 0.0, 2.500476, 2.499083 
3.1631e+2, 6.121833e+1, 61360.04, -313557.25, -5071.975, -0.00012013155, 0.00044532152, 61428.645, 61428.645, 0.0, 2.5004747, 2.499233 
3.1631e+2, 6.371756e+1, 62400.785, -310487.78, -4914.184, -0.000016434375, 0.000057231948, 62465.54, 62465.54, 0.0, 2.5004737, 2.4992387 
3.1631e+2, 6.6216797e+1, 61845.344, -310728.5, -5104.2954, 0.00008588723, -0.00034140592, 61915.26, 61915.26, 0.0, 2.5004728, 2.499239 
3.1631e+2, 6.871603e+1, 61286.074, -310971.1, -5294.781, 0.0001866618, -0.00073709857, 61361.367, 61361.367, 0.0, 2.5004718, 2.499239 
3.1630996e+2, 7.1215355e+1, 102671.336, -224257.28, -5836.6177, 0.00005742831, 0.00048333185, 102775.51, 102775.51, 0.0, 2.500471, 2.4993882 
3.1630996e+2, 7.3714745e+1, 103957.54, -220982.6, -3955.963, -0.000099897414, 0.00029020116, 104005.69, 104005.69, 0.0, 2.5004704, 2.4993942 
3.1630996e+2, 7.6214135e+1, 103587.28, -221140.33, -4107.7046, -0.0002543234, 0.00007405103, 103639.234, 103639.234, 0.0, 2.5004697, 2.4993942 
3.1631e+2, 7.8713524e+1, 103212.01, -221300.5, -4259.9966, -0.00040721425, -0.00014388846, 103267.92, 103267.92, 0.0, 2.500469, 2.4993942 
3.1630996e+2, 8.1213e+1, 144559.1, -135092.03, -5976.533, 0.000073135256, 0.0004756333, 144686.77, 144686.77, 0.0, 2.5004687, 2.4995425 
3.1631e+2, 8.371254e+1, 145926.69, -131995.45, -2510.748, 0.00017571312, -0.0002081215, 145949.36, 145949.36, 0.0, 2.5004685, 2.4995477 
3.1631e+2, 8.621208e+1, 145764.06, -132063.67, -2611.5923, 0.0002633091, -0.0009088929, 145788.61, 145788.61, 0.0, 2.5004683, 2.4995477 
3.1631002e+2, 8.871162e+1, 145594.06, -132135.44, -2712.0752, 0.00034340215, -0.0016110411, 145620.55, 145620.55, 0.0, 2.5004678, 2.499548 
3.1631e+2, 9.1211265e+1, 187107.7, -45878.27, -4982.711, -0.00073794957, 0.0015659247, 187214.22, 187214.22, 0.0, 2.5004678, 2.499696 
3.1631002e+2, 9.371096e+1, 188507.97, -43260.97, -1147.4517, -0.0003922074, 0.00082047965, 188513.66, 188513.66, 0.0, 2.5004683, 2.4997003 
3.1631005e+2, 9.6210647e+1, 188689.17, -43152.72, -1236.4768, -0.000020131269, 0.000003780013, 188695.77, 188695.77, 0.0, 2.5004685, 2.4997003 
3.1631008e+2, 9.871034e+1, 188855.69, -43051.547, -1324.0833, 0.00035647987, -0.00082201755, 188863.23, 188863.23, 0.0, 2.5004687, 2.4997003 
3.188107e+2, 1.2491558e+0, -186597.11, -846823.0, -488.81805, 0.000077430916, -0.000008070446, -186596.75, -186596.75, 0.0, 2.5004942, 2.498309 
3.188107e+2, 3.7474674e+0, -186907.17, -847393.5, -847.044, -0.00003714457, -0.000022920362, -186906.08, -186906.08, 0.0, 2.5004942, 2.498308 
3.188107e+2, 6.245779e+0, -187010.88, -847430.25, -1142.9965, -0.00016403667, -0.000036048088, -187008.9, -187008.9, 0.0, 2.500494, 2.498308 
3.188107e+2, 8.74409e+0, -187180.45, -847498.75, -1436.4766, -0.00030324477, -0.000047453774, -187177.33, -187177.33, 0.0, 2.5004938, 2.498308 
3.188107e+2, 1.1242478e+1, -144795.95, -759076.56, -1412.148, -0.00035823733, 0.00010170438, -144792.7, -144792.7, 0.0, 2.5004933, 2.4984598 
3.188107e+2, 1.3740942e+1, -144772.89, -758581.75, -3017.7996, -0.00018760325, 0.000014309096, -144758.06, -144758.06, 0.0, 2.5004928, 2.4984608 
3.188107e+2, 1.6239405e+1, -145098.42, -758714.5, -3270.73, -0.000025000794, -0.00006732693, -145080.98, -145080.98, 0.0, 2.500492, 2.4984608 
3.1881067e+2, 1.8737867e+1, -145484.47, -758876.44, -3514.9883, 0.0001293885, -0.00014271743, -145464.33, -145464.33, 0.0, 2.5004916, 2.498461 
3.1881067e+2, 2.1236408e+1, -103397.875, -670578.44, -2211.9905, 0.000064126776, 0.00005488425, -103389.25, -103389.25, 0.0, 2.5004907, 2.4986129 
3.1881067e+2, 2.3735026e+1, -103273.44, -669571.25, -4705.84, -0.000007698749, -0.00005073973, -103234.336, -103234.336, 0.0, 2.5004897, 2.498615 
3.1881064e+2, 2.6233643e+1, -103766.01, -669762.2, -4903.222, -0.0000891072, -0.0001500486, -103723.53, -103723.53, 0.0, 2.500489, 2.498615 
3.1881064e+2, 2.873226e+1, -104311.52, -669978.7, -5090.539, -0.00018064675, -0.00024162758, -104265.71, -104265.71, 0.0, 2.5004878, 2.4986153 
3.1881064e+2, 3.1230956e+1, -62338.08, -581766.4, -2919.984, -0.00026770352, 0.00014589292, -62321.664, -62321.664, 0.0, 2.5004869, 2.498767 
3.188106e+2, 3.3729726e+1, -62024.01, -580230.06, -5698.5073, -0.00012442612, 0.000005465718, -61961.355, -61961.355, 0.0, 2.500486, 2.49877 
3.188106e+2, 3.6228496e+1, -62614.81, -580465.3, -5782.0024, 0.000004665914, -0.00012938777, -62550.258, -62550.258, 0.0, 2.5004847, 2.4987702 
3.1881058e+2, 3.8727266e+1, -63274.113, -580733.56, -5851.765, 0.00011880383, -0.0002550105, -63207.945, -63207.945, 0.0, 2.5004835, 2.4987702 
3.1881058e+2, 4.1226116e+1, -21599.004, -492883.0, -3413.0264, -0.000013626613, 0.00021425867, -21574.29, -21574.29, 0.0, 2.5004823, 2.4989216 
3.1881058e+2, 4.372504e+1, -21150.725, -490880.75, -5745.598, -0.00000057064005, 0.0000036142196, -21080.457, -21080.457, 0.0, 2.5004811, 2.4989257 
3.1881055e+2, 4.6223965e+1, -21843.182, -491168.63, -5783.7656, 0.000010192062, -0.00020227779, -21771.916, -21771.916, 0.0, 2.50048, 2.4989257 
3.1881055e+2, 4.872289e+1, -22586.607, -491481.06, -5804.8594, 0.0000168552, -0.0003975259, -22514.756, -22514.756, 0.0, 2.5004785, 2.498926 
3.1881052e+2, 5.1221895e+1, 19186.904, -403584.94, -3775.2385, -0.00009433511, 0.00029539494, 19220.613, 19220.613, 0.0, 2.5004773, 2.4990773 
3.1881052e+2, 5.3720975e+1, 19969.943, -400992.06, -4936.2373, -0.00009427084, 0.00007658007, 20027.818, 20027.818, 0.0, 2.5004764, 2.4990823 
3.1881052e+2, 5.622006e+1, 19314.043, -401267.9, -4841.7256, -0.000111843576, -0.00014352924, 19369.773, 19369.773, 0.0, 2.5004752, 2.4990823 
3.188105e+2, 5.871914e+1, 18582.498, -401580.16, -4732.0264, -0.00014811526, -0.00035490125, 18635.785, 18635.785, 0.0, 2.5004737, 2.4990823 
3.188105e+2, 6.12183e+1, 60078.082, -314373.25, -3630.3188, -0.00017585001, 0.00039856276, 60113.277, 60113.277, 0.0, 2.5004728, 2.4992325 
3.188105e+2, 6.371753e+1, 61107.38, -311439.16, -3187.0046, -0.000015608537, -0.00001808752, 61134.64, 61134.64, 0.0, 2.5004718, 2.499238 
3.1881046e+2, 6.6216767e+1, 60569.69, -311676.3, -3071.3486, 0.00013539832, -0.0004438422, 60595.03, 60595.03, 0.0, 2.5004709, 2.499238 
3.1881046e+2, 6.8716e+1, 59979.633, -311938.75, -2941.3306, 0.00027630874, -0.00086528837, 60002.895, 60002.895, 0.0, 2.50047, 2.4992383 
3.1881046e+2, 7.1215326e+1, 101651.86, -224789.52, -3117.598, 0.000046730307, 0.00035258022, 101681.63, 101681.63, 0.0, 2.5004692, 2.499388 
3.1881046e+2, 7.3714715e+1, 102989.82, -221639.14, -961.7973, -0.00018584136, 0.00021505688, 102992.67, 102992.67, 0.0, 2.500469, 2.4993937 
3.1881046e+2, 7.6214105e+1, 102705.44, -221754.33, -817.2727, -0.00042438527, 0.000054206546, 102707.5, 102707.5, 0.0, 2.5004685, 2.4993937 
3.1881046e+2, 7.87135e+1, 102356.41, -221900.67, -668.9387, -0.0006714875, -0.000108985085, 102357.78, 102357.78, 0.0, 2.5004678, 2.4993937 
3.1881043e+2, 8.121297e+1, 144103.34, -135152.72, -2029.1633, -0.00013191078, 0.0004964741, 144118.08, 144118.08, 0.0, 2.5004678, 2.4995427 
3.1881046e+2, 8.3712506e+1, 145603.73, -132181.8, 1638.7113, 0.00011375493, -0.00025227154, 145613.39, 145613.39, 0.0, 2.500468, 2.4995477 
3.188105e+2, 8.6212045e+1, 145614.45, -132170.16, 1782.66, 0.00033155674, -0.0010178748, 145625.89, 145625.89, 0.0, 2.500468, 2.4995477 
3.188105e+2, 8.8711584e+1, 145542.38, -132198.4, 1929.8839, 0.00052961713, -0.001784872, 145555.78, 145555.78, 0.0, 2.5004678, 2.4995477 
3.1881046e+2, 9.1211236e+1, 187495.78, -45472.293, -56.370277, -0.00094185484, 0.0013624262, 187495.8, 187495.8, 0.0, 2.5004683, 2.4996965 
3.188105e+2, 9.371093e+1, 189014.73, -43007.434, 3913.7407, -0.0005888375, 0.00066947093, 189080.73, 189080.73, 0.0, 2.500469, 2.4997003 
3.1881052e+2, 9.6210617e+1, 189259.47, -42864.62, 3950.0586, -0.00022768571, -0.00009592446, 189326.67, 189326.67, 0.0, 2.5004694, 2.4997003 
3.1881055e+2, 9.871031e+1, 189300.97, -42819.676, 3980.0835, 0.00011234492, -0.0008720068, 189369.2, 189369.2, 0.0, 2.5004694, 2.4997005 
3.213112e+2, 1.24915466e+0, -184633.7, -846815.75, -473.52014, 0.00031113645, -0.0000035438784, -184633.36, -184633.36, 0.0, 2.5004985, 2.4983068 
3.213112e+2, 3.747464e+0, -185006.97, -847397.94, -772.00116, 0.0001560515, -0.000009662732, -185006.06, -185006.06, 0.0, 2.5004985, 2.4983058 
3.2131118e+2, 6.245774e+0, -185116.45, -847429.5, -1006.03235, 0.000014410621, -0.000014488888, -185114.92, -185114.92, 0.0, 2.5004983, 2.4983058 
3.2131118e+2, 8.7440836e+0, -185227.55, -847461.9, -1240.2728, -0.000113785674, -0.000018022523, -185225.22, -185225.22, 0.0, 2.500498, 2.498306 
3.2131118e+2, 1.124247e+1, -142868.45, -758948.75, -1232.2931, -0.00015555091, 0.00013223565, -142866.0, -142866.0, 0.0, 2.5004973, 2.498458 
3.2131118e+2, 1.374093e+1, -142876.56, -758450.44, -2777.3257, -0.0000115170205, 0.00004344296, -142864.03, -142864.03, 0.0, 2.5004969, 2.498459 
3.2131118e+2, 1.6239391e+1, -143169.27, -758541.94, -3005.8943, 0.00014321697, -0.000039790433, -143154.6, -143154.6, 0.0, 2.5004964, 2.498459 
3.2131118e+2, 1.8737854e+1, -143463.22, -758634.06, -3234.9395, 0.0003085184, -0.000116982825, -143446.22, -143446.22, 0.0, 2.5004957, 2.4984593 
3.2131118e+2, 2.1236393e+1, -101331.14, -670167.9, -2004.7358, 0.00021181995, 0.00007390098, -101324.08, -101324.08, 0.0, 2.5004947, 2.4986115 
3.2131115e+2, 2.3735008e+1, -101296.98, -669210.06, -4477.843, 0.000111817404, -0.000013485955, -101261.67, -101261.67, 0.0, 2.5004938, 2.4986136 
3.2131115e+2, 2.6233622e+1, -101803.38, -669374.44, -4714.175, 0.000024160689, -0.00009273605, -101764.234, -101764.234, 0.0, 2.5004928, 2.4986138 
3.2131112e+2, 2.873224e+1, -102311.21, -669539.44, -4951.1934, -0.000051814863, -0.00016250616, -102268.0, -102268.0, 0.0, 2.5004919, 2.498614 
3.2131112e+2, 3.1230935e+1, -60426.105, -581117.44, -2952.4514, -0.000111897934, 0.00022377909, -60409.367, -60409.367, 0.0, 2.5004904, 2.4987664 
3.213111e+2, 3.3729702e+1, -60206.918, -579627.5, -5788.67, -0.00000966812, 0.00007737367, -60142.414, -60142.414, 0.0, 2.5004892, 2.4987695 
3.213111e+2, 3.6228475e+1, -60798.16, -579821.2, -6022.615, 0.00011030885, -0.00006081259, -60728.285, -60728.285, 0.0, 2.5004883, 2.4987698 
3.2131106e+2, 3.8727245e+1, -61391.547, -580015.94, -6257.482, 0.00024758652, -0.00018718788, -61316.06, -61316.06, 0.0, 2.500487, 2.49877 
3.2131106e+2, 4.1226092e+1, -19683.91, -491894.3, -4041.178, 0.00007847038, 0.0002714809, -19649.328, -19649.328, 0.0, 2.5004854, 2.4989219 
3.2131106e+2, 4.3725017e+1, -19429.146, -490032.88, -6469.082, 0.000061716746, 0.000073833624, -19340.238, -19340.238, 0.0, 2.500484, 2.4989257 
3.2131103e+2, 4.622394e+1, -20205.828, -490313.9, -6673.952, 0.000054639113, -0.00012270725, -20111.1, -20111.1, 0.0, 2.5004826, 2.498926 
3.21311e+2, 4.872287e+1, -20984.482, -490595.88, -6879.765, 0.000055038632, -0.00031242613, -20883.717, -20883.717, 0.0, 2.5004811, 2.4989262 
3.21311e+2, 5.122187e+1, 20704.713, -402449.03, -5079.516, -0.00005496463, 0.00035995286, 20765.678, 20765.678, 0.0, 2.5004795, 2.4990783 
3.21311e+2, 5.372096e+1, 21240.166, -400055.8, -6496.232, -0.000048118214, 0.00015760283, 21340.31, 21340.31, 0.0, 2.500478, 2.499083 
3.2131097e+2, 5.6220037e+1, 20486.53, -400337.78, -6714.825, -0.000019525429, -0.000052096824, 20593.646, 20593.646, 0.0, 2.5004768, 2.499083 
3.2131097e+2, 5.871912e+1, 19729.553, -400621.38, -6933.9536, 0.000029872717, -0.0002594722, 19843.902, 19843.902, 0.0, 2.5004754, 2.4990833 
3.2131094e+2, 6.121828e+1, 61134.004, -313207.94, -6091.2163, -0.0000067664796, 0.00048137706, 61233.094, 61233.094, 0.0, 2.500474, 2.499234 
3.2131094e+2, 6.371752e+1, 61750.46, -310578.13, -5907.305, 0.00013341184, 0.0000797267, 61844.16, 61844.16, 0.0, 2.5004723, 2.4992392 
3.2131094e+2, 6.621675e+1, 60937.92, -310913.06, -6066.419, 0.000287111, -0.00033298627, 61036.863, 61036.863, 0.0, 2.5004709, 2.4992394 
3.2131094e+2, 6.871599e+1, 60122.445, -311249.44, -6226.106, 0.0004528419, -0.0007436072, 60226.797, 60226.797, 0.0, 2.5004694, 2.4992394 
3.213109e+2, 7.121531e+1, 101585.234, -224007.3, -6573.774, 0.00016583696, 0.00044670186, 101717.91, 101717.91, 0.0, 2.5004683, 2.49939 
3.213109e+2, 7.371471e+1, 102445.984, -221257.97, -4726.2656, -0.000068943256, 0.00032806423, 102514.98, 102514.98, 0.0, 2.5004673, 2.4993951 
3.213109e+2, 7.62141e+1, 101861.39, -221503.33, -4876.294, -0.00028760024, 0.00019186037, 101934.91, 101934.91, 0.0, 2.5004663, 2.4993951 
3.213109e+2, 7.8713495e+1, 101272.516, -221750.73, -5026.933, -0.0004937414, 0.000058521502, 101350.73, 101350.73, 0.0, 2.5004652, 2.4993954 
3.213109e+2, 8.121296e+1, 142736.1, -134958.48, -6512.8706, 0.00013246137, 0.00065285276, 142888.75, 142888.75, 0.0, 2.5004644, 2.4995446 
3.213109e+2, 8.37125e+1, 143584.27, -132516.38, -3121.9475, 0.0004488303, -0.000107924374, 143619.56, 143619.56, 0.0, 2.5004637, 2.4995492 
3.2131094e+2, 8.6212045e+1, 143159.31, -132704.89, -3214.478, 0.00077395234, -0.00088243233, 143196.77, 143196.77, 0.0, 2.500463, 2.4995492 
3.2131094e+2, 8.8711584e+1, 142727.13, -132896.9, -3306.8677, 0.0011165504, -0.0016555208, 142766.8, 142766.8, 0.0, 2.5004623, 2.4995492 
3.2131094e+2, 9.1211236e+1, 184453.94, -46234.973, -5262.227, -0.0006985235, 0.001406848, 184573.9, 184573.9, 0.0, 2.5004623, 2.4996982 
3.2131097e+2, 9.371093e+1, 185514.75, -44272.484, -1441.3954, -0.00025976045, 0.00075953826, 185523.8, 185523.8, 0.0, 2.5004625, 2.4997013 
3.21311e+2, 9.621062e+1, 185656.33, -44193.746, -1508.7483, 0.000235805, 0.000040053477, 185666.23, 185666.23, 0.0, 2.5004628, 2.4997013 
3.21311e+2, 9.871031e+1, 185785.17, -44121.14, -1573.2443, 0.00075158017, -0.0006916029, 185795.94, 185795.94, 0.0, 2.500463, 2.4997013 
3.238117e+2, 1.24915384e+0, -185047.19, -847675.7, -506.28265, 0.00015706441, -0.000006038304, -185046.81, -185046.81, 0.0, 2.5004985, 2.4983053 
3.238117e+2, 3.7474614e+0, -185411.08, -848240.25, -806.54016, 0.000066556546, -0.000017168291, -185410.1, -185410.1, 0.0, 2.5004985, 2.4983044 
3.238117e+2, 6.245769e+0, -185520.73, -848274.0, -1038.0198, -0.000017939114, -0.00002703533, -185519.11, -185519.11, 0.0, 2.5004983, 2.4983044 
3.238117e+2, 8.7440777e+0, -185632.0, -848308.56, -1269.7087, -0.00009642211, -0.000035639594, -185629.56, -185629.56, 0.0, 2.500498, 2.4983044 
3.238117e+2, 1.1242462e+1, -143232.23, -759716.8, -1362.3522, -0.00012297762, 0.00009787535, -143229.22, -143229.22, 0.0, 2.5004976, 2.4984567 
3.2381168e+2, 1.3740923e+1, -143252.48, -759247.3, -2866.0005, -0.00002230772, 0.00001980334, -143239.16, -143239.16, 0.0, 2.5004969, 2.4984577 
3.2381168e+2, 1.6239382e+1, -143542.88, -759337.44, -3091.8735, 0.000083603154, -0.000052838845, -143527.36, -143527.36, 0.0, 2.5004964, 2.498458 
3.2381168e+2, 1.8737842e+1, -143834.52, -759428.2, -3318.2231, 0.0001946555, -0.00011962111, -143816.63, -143816.63, 0.0, 2.500496, 2.498458 
3.2381168e+2, 2.123638e+1, -101648.06, -670870.56, -2211.7415, 0.00008171078, 0.000068648915, -101639.47, -101639.47, 0.0, 2.5004947, 2.4986103 
3.2381165e+2, 2.3734993e+1, -101652.64, -669999.0, -4628.7095, 0.000028764334, -0.000015774156, -101614.945, -101614.945, 0.0, 2.5004938, 2.4986122 
3.2381165e+2, 2.6233608e+1, -102157.22, -670165.1, -4862.6567, -0.000017323999, -0.00009183799, -102115.59, -102115.59, 0.0, 2.5004928, 2.4986124 
3.2381162e+2, 2.8732222e+1, -102663.23, -670332.0, -5097.29, -0.00005727242, -0.00015822957, -102617.45, -102617.45, 0.0, 2.500492, 2.4986126 
3.2381162e+2, 3.1230915e+1, -60685.7, -581749.8, -3226.951, -0.00010749616, 0.00019261993, -60665.715, -60665.715, 0.0, 2.5004904, 2.4987652 
3.238116e+2, 3.3729684e+1, -60506.215, -580349.3, -5965.6436, -0.000016640233, 0.000050562394, -60437.76, -60437.76, 0.0, 2.5004895, 2.498768 
3.238116e+2, 3.622845e+1, -61094.227, -580543.1, -6196.7456, 0.000085191576, -0.00008276673, -61020.313, -61020.313, 0.0, 2.5004883, 2.4987683 
3.2381156e+2, 3.8727224e+1, -61684.38, -580737.94, -6428.769, 0.00019753385, -0.00020407105, -61604.77, -61604.77, 0.0, 2.500487, 2.4987686 
3.2381156e+2, 4.122607e+1, -19811.346, -492304.2, -4335.143, 0.000025612622, 0.00023783917, -19771.572, -19771.572, 0.0, 2.5004857, 2.4989212 
3.2381153e+2, 4.3724996e+1, -19619.932, -490580.53, -6696.8384, 0.000023097746, 0.00004659692, -19524.725, -19524.725, 0.0, 2.5004842, 2.4989247 
3.2381153e+2, 4.6223918e+1, -20394.533, -490863.13, -6899.1567, 0.000023716735, -0.00014218937, -20293.383, -20293.383, 0.0, 2.5004828, 2.498925 
3.238115e+2, 4.8722842e+1, -21171.111, -491146.72, -7102.418, 0.00002529909, -0.00032298782, -21063.8, -21063.8, 0.0, 2.5004814, 2.4989252 
3.238115e+2, 5.122185e+1, 20657.666, -402767.47, -5356.084, -0.00010239472, 0.00030883358, 20725.406, 20725.406, 0.0, 2.5004797, 2.4990776 
3.2381147e+2, 5.372093e+1, 21092.838, -400584.9, -6717.8457, -0.00006684159, 0.000117442985, 21199.834, 21199.834, 0.0, 2.5004783, 2.4990819 
3.2381147e+2, 5.6220007e+1, 20337.51, -400872.16, -6932.936, -0.000017645885, -0.00007793642, 20451.592, 20451.592, 0.0, 2.500477, 2.499082 
3.2381144e+2, 5.8719087e+1, 19578.842, -401161.03, -7148.5615, 0.000043871285, -0.00026818935, 19700.266, 19700.266, 0.0, 2.5004756, 2.4990823 
3.2381144e+2, 6.121825e+1, 61254.848, -313248.3, -6333.8066, -0.000013537059, 0.0004469031, 61361.938, 61361.938, 0.0, 2.5004742, 2.499234 
3.238114e+2, 6.3717484e+1, 61773.88, -310823.44, -6140.08, 0.000111449925, 0.000057526166, 61875.035, 61875.035, 0.0, 2.5004728, 2.4992387 
3.238114e+2, 6.621672e+1, 60961.297, -311160.28, -6296.678, 0.00024354926, -0.000340859, 61067.813, 61067.813, 0.0, 2.5004714, 2.4992387 
3.238114e+2, 6.871596e+1, 60145.777, -311498.53, -6453.8496, 0.0003810077, -0.0007355902, 60257.82, 60257.82, 0.0, 2.50047, 2.499239 
3.2381138e+2, 7.121528e+1, 101816.3, -223885.47, -6724.364, 0.000029250128, 0.0004042445, 101955.07, 101955.07, 0.0, 2.5004687, 2.49939 
3.2381138e+2, 7.371467e+1, 102547.58, -221409.78, -4894.606, -0.00017848406, 0.0002788299, 102621.51, 102621.51, 0.0, 2.5004678, 2.4993947 
3.2381138e+2, 7.6214063e+1, 101963.84, -221657.22, -5041.3633, -0.0003776025, 0.00013555761, 102042.36, 102042.36, 0.0, 2.5004666, 2.4993947 
3.2381138e+2, 7.871345e+1, 101375.83, -221906.72, -5188.7305, -0.00057266635, -0.0000059226636, 101459.086, 101459.086, 0.0, 2.5004656, 2.499395 
3.2381138e+2, 8.1212926e+1, 143150.72, -134526.45, -6588.566, 0.00011251106, 0.0005681372, 143306.97, 143306.97, 0.0, 2.500465, 2.499545 
3.2381138e+2, 8.371247e+1, 143843.38, -132410.06, -3240.247, 0.0004501577, -0.00015834306, 143881.38, 143881.38, 0.0, 2.5004642, 2.4995492 
3.238114e+2, 8.6212003e+1, 143420.98, -132594.94, -3328.7202, 0.00078444154, -0.0009003264, 143461.13, 143461.13, 0.0, 2.5004635, 2.4995492 
3.2381144e+2, 8.871155e+1, 142991.38, -132783.31, -3417.0522, 0.0011247024, -0.001643098, 143033.7, 143033.7, 0.0, 2.5004628, 2.4995492 
3.238114e+2, 9.1211206e+1, 185008.95, -45605.996, -5174.933, -0.0010750475, 0.0012816335, 185125.02, 185125.02, 0.0, 2.5004628, 2.4996989 
3.2381144e+2, 9.3710893e+1, 185876.94, -44042.73, -1396.888, -0.00055566203, 0.0006941004, 185885.42, 185885.42, 0.0, 2.500463, 2.4997015 
3.2381147e+2, 9.621059e+1, 186023.03, -43953.887, -1467.7644, 0.0000056580125, 0.000037178437, 186032.4, 186032.4, 0.0, 2.5004632, 2.4997015 
3.238115e+2, 9.871028e+1, 186156.97, -43870.902, -1536.7212, 0.00056550227, -0.0006320347, 186167.23, 186167.23, 0.0, 2.5004635, 2.4997015 
3.2631218e+2, 1.249153e+0, -185461.06, -848536.5, -538.97314, 0.0000033661438, -0.000009321784, -185460.63, -185460.63, 0.0, 2.5004985, 2.498304 
3.2631218e+2, 3.747459e+0, -185816.44, -849085.1, -840.6825, -0.000021817004, -0.000027041016, -185815.38, -185815.38, 0.0, 2.5004985, 2.498303 
3.2631218e+2, 6.245765e+0, -185926.27, -849121.1, -1069.6105, -0.00004841982, -0.00004352705, -185924.53, -185924.53, 0.0, 2.5004983, 2.498303 
3.2631218e+2, 8.744072e+0, -186037.69, -849157.9, -1298.7478, -0.00007644188, -0.000058780046, -186035.14, -186035.14, 0.0, 2.500498, 2.498303 
3.2631218e+2, 1.12424545e+1, -143605.16, -760503.94, -1490.9243, -0.00009279648, 0.000063704, -143601.55, -143601.55, 0.0, 2.5004976, 2.4984553 
3.2631218e+2, 1.3740914e+1, -143629.84, -760047.1, -2954.278, -0.000036679932, -0.000007852467, -143615.69, -143615.69, 0.0, 2.5004969, 2.4984562 
3.2631215e+2, 1.6239372e+1, -143917.92, -760135.9, -3177.4556, 0.000019232359, -0.00007412767, -143901.55, -143901.55, 0.0, 2.5004964, 2.4984565 
3.2631215e+2, 1.8737832e+1, -144207.23, -760225.3, -3401.1096, 0.000074860174, -0.00013472403, -144188.47, -144188.47, 0.0, 2.500496, 2.4984565 
3.2631215e+2, 2.1236366e+1, -101982.01, -671608.7, -2417.0776, -0.000039307553, 0.00006380745, -101971.75, -101971.75, 0.0, 2.500495, 2.498609 
3.2631212e+2, 2.373498e+1, -102009.34, -670790.06, -4778.755, -0.000045689114, -0.00002076161, -101969.195, -101969.195, 0.0, 2.500494, 2.498611 
3.2631212e+2, 2.623359e+1, -102512.1, -670958.06, -5010.3174, -0.000050779807, -0.00009682573, -102467.945, -102467.945, 0.0, 2.500493, 2.498611 
3.263121e+2, 2.8732204e+1, -103016.28, -671126.7, -5242.566, -0.000055271823, -0.00016302532, -102967.91, -102967.91, 0.0, 2.500492, 2.4986112 
3.263121e+2, 3.1230897e+1, -60954.88, -582402.2, -3494.4, -0.00011028586, 0.00015660998, -60931.465, -60931.465, 0.0, 2.5004907, 2.498764 
3.2631207e+2, 3.3729663e+1, -60806.363, -581073.0, -6141.768, -0.000032506763, 0.000016182108, -60733.87, -60733.87, 0.0, 2.5004895, 2.498767 
3.2631207e+2, 3.622843e+1, -61391.145, -581266.8, -6370.0264, 0.00004958518, -0.00011505531, -61313.105, -61313.105, 0.0, 2.5004885, 2.4987671 
3.2631204e+2, 3.87272e+1, -61978.07, -581461.6, -6599.2065, 0.00013539738, -0.00023405405, -61894.25, -61894.25, 0.0, 2.5004873, 2.4987674 
3.2631204e+2, 4.1226047e+1, -19957.092, -492752.1, -4626.8857, -0.000014066984, 0.00020294124, -19911.816, -19911.816, 0.0, 2.500486, 2.4989202 
3.26312e+2, 4.372497e+1, -19811.44, -491129.66, -6923.585, -0.0000033333095, 0.000015199236, -19709.754, -19709.754, 0.0, 2.5004845, 2.4989238 
3.26312e+2, 4.622389e+1, -20583.963, -491413.88, -7123.3516, 0.000003748869, -0.00016886056, -20476.215, -20476.215, 0.0, 2.500483, 2.4989238 
3.2631198e+2, 4.8722813e+1, -21358.46, -491699.06, -7324.0605, 0.000005280632, -0.00034376667, -21244.441, -21244.441, 0.0, 2.5004816, 2.498924 
3.2631195e+2, 5.1221824e+1, 20594.885, -403118.6, -5620.7075, -0.00015686093, 0.00025936053, 20669.434, 20669.434, 0.0, 2.50048, 2.4990768 
3.2631195e+2, 5.37209e+1, 20944.766, -401115.56, -6938.4883, -0.00009220012, 0.00007579404, 21058.8, 21058.8, 0.0, 2.5004785, 2.499081 
3.2631192e+2, 5.621998e+1, 20187.746, -401408.1, -7150.0757, -0.000021806241, -0.00010855239, 20308.975, 20308.975, 0.0, 2.5004773, 2.4990811 
3.2631192e+2, 5.8719057e+1, 19427.387, -401702.22, -7362.198, 0.000052425217, -0.00028497013, 19556.055, 19556.055, 0.0, 2.500476, 2.4990811 
3.263119e+2, 6.121822e+1, 61358.574, -313324.25, -6566.333, -0.000013307702, 0.0004121489, 61473.613, 61473.613, 0.0, 2.5004745, 2.4992335 
3.263119e+2, 6.3717455e+1, 61796.67, -311070.06, -6372.1963, 0.000097013144, 0.000032213942, 61905.54, 61905.54, 0.0, 2.500473, 2.4992383 
3.263119e+2, 6.621669e+1, 60984.047, -311408.78, -6526.279, 0.00020788005, -0.0003547934, 61098.387, 61098.387, 0.0, 2.5004716, 2.4992383 
3.2631186e+2, 6.871592e+1, 60168.484, -311748.9, -6680.9346, 0.00031743338, -0.00073658477, 60288.457, 60288.457, 0.0, 2.5004702, 2.4992385 
3.2631186e+2, 7.121524e+1, 102028.805, -223802.16, -6864.0024, -0.00010714635, 0.0003660365, 102173.34, 102173.34, 0.0, 2.500469, 2.49939 
3.2631186e+2, 7.371464e+1, 102648.39, -221563.22, -5062.31, -0.00028691912, 0.0002306843, 102727.414, 102727.414, 0.0, 2.500468, 2.4993942 
3.2631183e+2, 7.621403e+1, 102065.516, -221812.73, -5205.7954, -0.0004654845, 0.00007697301, 102149.17, 102149.17, 0.0, 2.500467, 2.4993942 
3.2631183e+2, 7.871342e+1, 101478.36, -222064.33, -5349.8916, -0.00064845645, -0.00007601923, 101566.8, 101566.8, 0.0, 2.5004659, 2.4993944 
3.2631183e+2, 8.121289e+1, 143549.44, -134127.48, -6656.4683, 0.00009635108, 0.00048488448, 143708.92, 143708.92, 0.0, 2.5004654, 2.4995456 
3.2631186e+2, 8.3712435e+1, 144101.84, -132305.06, -3358.9634, 0.0004542213, -0.00021023733, 144142.66, 144142.66, 0.0, 2.5004647, 2.4995492 
3.2631186e+2, 8.6211973e+1, 143682.05, -132486.3, -3443.3787, 0.0007966108, -0.0009227673, 143724.97, 143724.97, 0.0, 2.500464, 2.4995492 
3.263119e+2, 8.871152e+1, 143255.0, -132671.0, -3527.653, 0.0011334781, -0.0016382933, 143300.1, 143300.1, 0.0, 2.5004632, 2.4995492 
3.2631186e+2, 9.1211164e+1, 185543.3, -45019.34, -5076.4507, -0.0014371834, 0.0011695354, 185655.02, 185655.02, 0.0, 2.5004635, 2.4996996 
3.263119e+2, 9.3710864e+1, 186234.63, -43816.42, -1347.2122, -0.0008414651, 0.0006373062, 186242.52, 186242.52, 0.0, 2.5004637, 2.4997015 
3.2631192e+2, 9.621056e+1, 186380.53, -43719.76, -1409.7063, -0.00021890673, 0.000038115348, 186389.16, 186389.16, 0.0, 2.500464, 2.4997015 
3.2631195e+2, 9.8710245e+1, 186514.27, -43628.957, -1470.2808, 0.00038048983, -0.00057348673, 186523.66, 186523.66, 0.0, 2.500464, 2.4997017 
3.2881272e+2, 1.2491522e+0, -184395.13, -848693.5, -625.30743, -0.0001417531, -0.000013298604, -184394.55, -184394.55, 0.0, 2.5005012, 2.4983022 
3.2881272e+2, 3.7474567e+0, -184707.47, -849210.8, -1032.3596, -0.00010198879, -0.00003897193, -184705.88, -184705.88, 0.0, 2.5005012, 2.4983015 
3.2881272e+2, 6.2457615e+0, -184844.38, -849261.6, -1359.2406, -0.000070391034, -0.000063412655, -184841.6, -184841.6, 0.0, 2.5005007, 2.4983015 
3.288127e+2, 8.744065e+0, -185045.22, -849343.25, -1682.5404, -0.000046959558, -0.00008662091, -185040.95, -185040.95, 0.0, 2.5005004, 2.4983015 
3.288127e+2, 1.1242447e+1, -142683.83, -760688.56, -2059.5706, -0.000058196863, 0.000030750427, -142676.97, -142676.97, 0.0, 2.5004997, 2.4984539 
3.288127e+2, 1.3740903e+1, -142784.03, -760265.75, -3556.7622, -0.000048461272, -0.000038354305, -142763.53, -142763.53, 0.0, 2.500499, 2.498455 
3.288127e+2, 1.6239361e+1, -143180.86, -760406.06, -3842.3315, -0.00004399276, -0.00010232578, -143156.95, -143156.95, 0.0, 2.5004983, 2.498455 
3.2881266e+2, 1.8737818e+1, -143611.27, -760562.6, -4120.4165, -0.000044866323, -0.00016077967, -143583.75, -143583.75, 0.0, 2.5004976, 2.498455 
3.2881266e+2, 2.1236354e+1, -101510.59, -671987.75, -3290.3215, -0.00014565817, 0.00006096472, -101491.62, -101491.62, 0.0, 2.5004964, 2.4986076 
3.2881266e+2, 2.3734964e+1, -101690.92, -671258.5, -5601.6406, -0.00010688293, -0.000026920467, -101635.836, -101635.836, 0.0, 2.5004952, 2.4986095 
3.2881263e+2, 2.6233575e+1, -102372.12, -671514.2, -5822.243, -0.000072044284, -0.00010632234, -102312.56, -102312.56, 0.0, 2.500494, 2.4986095 
3.288126e+2, 2.8732187e+1, -103088.82, -671786.94, -6030.8564, -0.000041728963, -0.0001757578, -103024.87, -103024.87, 0.0, 2.5004926, 2.4986098 
3.288126e+2, 3.1230876e+1, -61142.066, -583026.6, -4359.4824, -0.00011645696, 0.00011693815, -61105.652, -61105.652, 0.0, 2.500491, 2.4987628 
3.288126e+2, 3.372964e+1, -61177.195, -581827.3, -6865.639, -0.000053985717, -0.000024287545, -61086.676, -61086.676, 0.0, 2.5004895, 2.4987657 
3.2881257e+2, 3.622841e+1, -61951.883, -582113.25, -7021.796, 0.0000066397124, -0.00015608546, -61857.113, -61857.113, 0.0, 2.500488, 2.4987657 
3.2881254e+2, 3.8727176e+1, -62760.46, -582415.44, -7165.687, 0.00006459068, -0.00027560798, -62661.668, -62661.668, 0.0, 2.5004866, 2.498766 
3.2881254e+2, 4.122602e+1, -20790.941, -493550.78, -5195.9165, -0.000037567803, 0.00016819213, -20733.842, -20733.842, 0.0, 2.5004847, 2.4989192 
3.288125e+2, 4.3724942e+1, -20800.549, -492053.16, -7276.447, -0.000015427224, -0.000019001973, -20688.223, -20688.223, 0.0, 2.500483, 2.4989226 
3.2881248e+2, 4.6223867e+1, -21729.19, -492414.06, -7307.159, -0.0000032715259, -0.00020150513, -21615.777, -21615.777, 0.0, 2.5004814, 2.4989228 
3.2881248e+2, 4.8722786e+1, -22690.98, -492790.94, -7324.672, -0.000002484904, -0.00037378247, -22576.883, -22576.883, 0.0, 2.5004797, 2.498923 
3.2881245e+2, 5.122179e+1, 19240.018, -404101.56, -5460.9106, -0.00021570733, 0.00021244342, 19310.45, 19310.45, 0.0, 2.500478, 2.4990761 
3.2881242e+2, 5.372087e+1, 19457.09, -402275.8, -6539.9346, -0.0001220699, 0.000033569562, 19558.482, 19558.482, 0.0, 2.5004766, 2.49908 
3.2881242e+2, 5.621995e+1, 18607.658, -402616.16, -6525.262, -0.00002990817, -0.00014327894, 18708.719, 18708.719, 0.0, 2.500475, 2.4990802 
3.288124e+2, 5.871903e+1, 17726.629, -402971.75, -6494.0986, 0.000058113008, -0.0003096477, 17826.852, 17826.852, 0.0, 2.5004735, 2.4990802 
3.288124e+2, 6.1218184e+1, 59870.387, -314174.4, -5456.925, -0.0000033144424, 0.00037704504, 59949.98, 59949.98, 0.0, 2.500472, 2.4992332 
3.2881236e+2, 6.371742e+1, 60326.426, -312016.2, -5016.5186, 0.00009280442, 0.0000038707267, 60394.0, 60394.0, 0.0, 2.5004709, 2.4992375 
3.2881236e+2, 6.6216654e+1, 59569.152, -312329.28, -4901.2266, 0.00018335419, -0.0003747523, 59633.73, 59633.73, 0.0, 2.5004694, 2.4992378 
3.2881236e+2, 6.871589e+1, 58781.832, -312656.88, -4774.8755, 0.0002665261, -0.0007467909, 58843.203, 58843.203, 0.0, 2.500468, 2.4992378 
3.2881233e+2, 7.121521e+1, 100939.15, -224354.77, -4590.4526, -0.00023817511, 0.00033177243, 101003.914, 101003.914, 0.0, 2.5004673, 2.49939 
3.2881233e+2, 7.37146e+1, 101686.21, -222208.64, -2573.44, -0.000388634, 0.00018358254, 101706.66, 101706.66, 0.0, 2.5004666, 2.4993937 
3.2881233e+2, 7.621399e+1, 101280.055, -222375.16, -2454.6904, -0.0005443971, 0.000016326654, 101298.664, 101298.664, 0.0, 2.5004659, 2.499394 
3.2881233e+2, 7.871339e+1, 100823.96, -222565.7, -2331.2568, -0.0007122301, -0.00015127947, 100840.766, 100840.766, 0.0, 2.5004652, 2.499394 
3.288123e+2, 8.121286e+1, 143476.03, -133962.66, -3292.048, 0.00009364289, 0.0004036081, 143515.08, 143515.08, 0.0, 2.5004652, 2.499546 
3.2881233e+2, 8.3712393e+1, 144342.97, -132191.0, 162.40443, 0.00047062838, -0.00026312875, 144343.06, 144343.06, 0.0, 2.5004652, 2.4995492 
3.2881233e+2, 8.621194e+1, 144254.77, -132210.3, 293.33154, 0.0008214784, -0.00094908196, 144255.08, 144255.08, 0.0, 2.500465, 2.4995492 
3.2881236e+2, 8.8711476e+1, 144048.75, -132286.33, 419.7393, 0.0011567737, -0.0016400097, 144049.39, 144049.39, 0.0, 2.5004644, 2.4995492 
3.2881233e+2, 9.121113e+1, 186991.67, -44011.56, -738.19653, -0.0017691877, 0.001071984, 186994.03, 186994.03, 0.0, 2.5004656, 2.4997003 
3.2881236e+2, 9.371082e+1, 188055.61, -42874.21, 3055.1892, -0.0011002785, 0.0005908691, 188096.03, 188096.03, 0.0, 2.5004668, 2.4997017 
3.288124e+2, 9.6210515e+1, 188494.3, -42629.38, 3111.0034, -0.00041758796, 0.000045025456, 188536.16, 188536.16, 0.0, 2.5004675, 2.4997017 
3.2881242e+2, 9.8710215e+1, 188684.78, -42504.066, 3157.0225, 0.00022252156, -0.00051318476, 188727.89, 188727.89, 0.0, 2.5004678, 2.4997017 
3.313132e+2, 1.249151e+0, -182347.28, -848728.75, -634.07855, 0.000039351828, -0.00001232086, -182346.67, -182346.67, 0.0, 2.5005057, 2.4983 
3.313132e+2, 3.747453e+0, -182749.44, -849263.94, -988.23334, 0.000067519424, -0.00003505984, -182747.97, -182747.97, 0.0, 2.5005054, 2.4982991 
3.313132e+2, 6.245755e+0, -182923.33, -849322.0, -1263.7233, 0.00011169773, -0.00005526113, -182920.92, -182920.92, 0.0, 2.5005052, 2.4982994 
3.313132e+2, 8.7440574e+0, -183098.98, -849381.0, -1539.4492, 0.00017188715, -0.000072924886, -183095.42, -183095.42, 0.0, 2.5005047, 2.4982994 
3.313132e+2, 1.1242437e+1, -140711.11, -760638.44, -1979.8907, 0.00015057888, 0.00004579988, -140704.8, -140704.8, 0.0, 2.500504, 2.498452 
3.313132e+2, 1.3740891e+1, -140841.81, -760223.0, -3429.1177, 0.000112585236, -0.000015939431, -140822.83, -140822.83, 0.0, 2.5005033, 2.498453 
3.3131316e+2, 1.6239348e+1, -141227.84, -760336.2, -3712.926, 0.00008098619, -0.00007192161, -141205.56, -141205.56, 0.0, 2.5005026, 2.4984531 
3.3131316e+2, 1.8737802e+1, -141615.3, -760450.1, -3997.1497, 0.00005567879, -0.00012177573, -141589.48, -141589.48, 0.0, 2.5005019, 2.4984534 
3.3131316e+2, 2.1236336e+1, -99521.23, -671699.44, -3317.9329, -0.00002693099, 0.00010493916, -99501.984, -99501.984, 0.0, 2.5005004, 2.4986062 
3.3131313e+2, 2.3734945e+1, -99652.57, -670937.5, -5580.911, 0.000008914186, 0.00001529156, -99598.055, -99598.055, 0.0, 2.5004992, 2.498608 
3.313131e+2, 2.6233554e+1, -100235.02, -671113.1, -5838.282, 0.000054437354, -0.00006796712, -100175.32, -100175.32, 0.0, 2.5004983, 2.498608 
3.313131e+2, 2.8732166e+1, -100818.68, -671289.3, -6096.3696, 0.00010922265, -0.0001433478, -100753.54, -100753.54, 0.0, 2.500497, 2.4986084 
3.3131307e+2, 3.1230852e+1, -58768.7, -582256.56, -4603.146, -0.0000021347746, 0.0001305176, -58728.227, -58728.227, 0.0, 2.5004954, 2.4987621 
3.3131307e+2, 3.372962e+1, -58977.82, -581181.75, -7106.6836, 0.000022895269, 0.000005532649, -58881.12, -58881.12, 0.0, 2.5004938, 2.4987648 
3.3131304e+2, 3.6228383e+1, -59846.746, -581478.44, -7358.13, 0.000058422695, -0.000114625676, -59742.973, -59742.973, 0.0, 2.500492, 2.498765 
3.31313e+2, 3.872715e+1, -60717.18, -581775.8, -7610.471, 0.00010338386, -0.00022728927, -60606.047, -60606.047, 0.0, 2.5004904, 2.4987652 
3.31313e+2, 4.1225994e+1, -18768.549, -492611.1, -5870.1367, 0.000020637137, 0.00019996642, -18695.838, -18695.838, 0.0, 2.5004883, 2.4989192 
3.3131298e+2, 4.3724915e+1, -18829.71, -491185.5, -8050.568, 0.000039079667, 0.00002434661, -18692.541, -18692.541, 0.0, 2.5004866, 2.4989226 
3.3131295e+2, 4.622384e+1, -19724.53, -491492.56, -8277.889, 0.000071153576, -0.00014885551, -19579.326, -19579.326, 0.0, 2.500485, 2.4989228 
3.3131292e+2, 4.872276e+1, -20621.844, -491800.8, -8505.975, 0.000115792835, -0.0003143378, -20468.34, -20468.34, 0.0, 2.5004833, 2.498923 
3.3131292e+2, 5.1221764e+1, 21247.756, -402849.94, -6889.2217, -0.00012691318, 0.00025097255, 21359.639, 21359.639, 0.0, 2.5004811, 2.4990766 
3.313129e+2, 5.372084e+1, 21080.594, -401284.6, -8104.9277, -0.000060208957, 0.00007257564, 21236.066, 21236.066, 0.0, 2.5004792, 2.4990804 
3.3131287e+2, 5.6219923e+1, 19949.867, -401720.1, -8284.902, 0.000020541718, -0.00011245044, 20112.586, 20112.586, 0.0, 2.500477, 2.4990807 
3.3131287e+2, 5.8719003e+1, 18816.855, -402156.7, -8465.723, 0.00011217238, -0.00029594963, 18987.031, 18987.031, 0.0, 2.500475, 2.499081 
3.3131284e+2, 6.121816e+1, 60767.082, -313146.53, -7606.3623, 0.000061055725, 0.000359622, 60921.754, 60921.754, 0.0, 2.500473, 2.4992347 
3.3131284e+2, 6.3717395e+1, 60865.117, -311288.0, -7432.1006, 0.00017155158, 0.00003395906, 61013.48, 61013.48, 0.0, 2.500471, 2.4992387 
3.313128e+2, 6.621663e+1, 59874.977, -311686.4, -7599.988, 0.00029517227, -0.0003033978, 60030.363, 60030.363, 0.0, 2.5004694, 2.4992387 
3.313128e+2, 6.8715864e+1, 58881.98, -312086.22, -7768.4297, 0.000430132, -0.0006409778, 59044.586, 59044.586, 0.0, 2.5004675, 2.499239 
3.3131278e+2, 7.121519e+1, 100785.24, -223628.8, -7724.5894, -0.00011163002, 0.00039011205, 100969.07, 100969.07, 0.0, 2.500466, 2.4993916 
3.3131278e+2, 7.3714584e+1, 100815.82, -221995.95, -5949.3965, -0.00024922256, 0.00022848732, 100925.43, 100925.43, 0.0, 2.5004644, 2.4993951 
3.3131278e+2, 7.6213974e+1, 99852.375, -222418.2, -6041.419, -0.0003662583, 0.000048848076, 99965.59, 99965.59, 0.0, 2.5004628, 2.4993954 
3.3131278e+2, 7.8713363e+1, 98884.53, -222842.58, -6134.0713, -0.0004704526, -0.00013087963, 99001.445, 99001.445, 0.0, 2.500461, 2.4993954 
3.3131278e+2, 8.121284e+1, 141125.77, -134252.89, -7126.134, 0.0003856685, 0.00041781247, 141310.05, 141310.05, 0.0, 2.5004601, 2.499548 
3.3131278e+2, 8.371239e+1, 141283.48, -133043.34, -3963.2502, 0.00078562775, -0.00018554354, 141340.73, 141340.73, 0.0, 2.5004592, 2.4995503 
3.313128e+2, 8.621193e+1, 140730.1, -133291.28, -4052.5017, 0.0012084235, -0.00079884054, 140790.02, 140790.02, 0.0, 2.5004582, 2.4995506 
3.313128e+2, 8.871147e+1, 140168.22, -133543.3, -4141.6646, 0.0016648133, -0.0014082361, 140230.86, 140230.86, 0.0, 2.5004573, 2.4995506 
3.3131278e+2, 9.121112e+1, 182614.31, -45288.195, -5173.3394, -0.001474852, 0.0011776391, 182731.69, 182731.69, 0.0, 2.500457, 2.4997022 
3.313128e+2, 9.3710816e+1, 182608.56, -44945.344, -1560.8759, -0.0007254777, 0.00070240715, 182619.27, 182619.27, 0.0, 2.5004568, 2.499703 
3.3131284e+2, 9.621051e+1, 182382.48, -45040.355, -1589.0099, 0.00011254639, 0.00016924027, 182393.6, 182393.6, 0.0, 2.5004563, 2.499703 
3.3131287e+2, 9.8710215e+1, 182149.34, -45138.773, -1615.462, 0.0009780155, -0.000372266, 182160.83, 182160.83, 0.0, 2.5004559, 2.499703 
3.3381373e+2, 1.2491502e+0, -182835.44, -849743.6, -685.73944, -0.000026624462, -0.000011147079, -182834.73, -182834.73, 0.0, 2.5005057, 2.4982982 
3.3381373e+2, 3.7474504e+0, -183226.11, -850256.4, -1039.0833, 0.000014240025, -0.000031761796, -183224.5, -183224.5, 0.0, 2.5005054, 2.4982975 
3.3381373e+2, 6.245751e+0, -183399.05, -850313.9, -1311.8519, 0.00006283196, -0.000050136587, -183396.45, -183396.45, 0.0, 2.5005052, 2.4982977 
3.3381373e+2, 8.744051e+0, -183573.73, -850372.25, -1584.8567, 0.00011915172, -0.0000662716, -183569.97, -183569.97, 0.0, 2.5005047, 2.4982977 
3.338137e+2, 1.12424284e+1, -141170.72, -761605.7, -2140.1233, 0.00008064418, 0.000046227222, -141163.33, -141163.33, 0.0, 2.500504, 2.4984503 
3.338137e+2, 1.3740882e+1, -141318.48, -761228.56, -3546.4856, 0.000046157944, -0.000011827138, -141298.19, -141298.19, 0.0, 2.5005033, 2.4984512 
3.338137e+2, 1.6239335e+1, -141703.7, -761343.0, -3827.7124, 0.000012619071, -0.000063732245, -141680.06, -141680.06, 0.0, 2.5005026, 2.4984515 
3.3381367e+2, 1.8737788e+1, -142090.36, -761458.1, -4109.3545, -0.000020119824, -0.00010913263, -142063.1, -142063.1, 0.0, 2.5005019, 2.4984515 
3.3381367e+2, 2.123632e+1, -99891.914, -672516.94, -3581.9297, -0.0000630873, 0.00009870883, -99869.51, -99869.51, 0.0, 2.5005004, 2.4986048 
3.3381364e+2, 2.3734929e+1, -100044.54, -671804.0, -5754.3647, -0.000007849919, 0.00001071703, -99986.63, -99986.63, 0.0, 2.5004995, 2.4986064 
3.3381364e+2, 2.6233536e+1, -100625.305, -671980.75, -6009.685, 0.000052407602, -0.000070011825, -100562.09, -100562.09, 0.0, 2.5004983, 2.4986067 
3.338136e+2, 2.8732145e+1, -101207.266, -672158.1, -6265.721, 0.00011744426, -0.00014209488, -101138.516, -101138.516, 0.0, 2.500497, 2.498607 
3.338136e+2, 3.123083e+1, -59039.945, -582918.4, -4945.429, -0.000017400118, 0.000116258336, -58993.266, -58993.266, 0.0, 2.5004954, 2.498761 
3.3381358e+2, 3.3729595e+1, -59309.586, -581974.94, -7359.975, -0.000012037018, 0.0000008682891, -59205.97, -59205.97, 0.0, 2.5004938, 2.4987633 
3.3381355e+2, 3.622836e+1, -60176.79, -582273.44, -7609.3013, -0.000000976741, -0.00010825464, -60065.91, -60065.91, 0.0, 2.500492, 2.4987636 
3.3381352e+2, 3.8727123e+1, -61045.5, -582572.56, -7859.523, 0.000014579418, -0.00020858695, -60927.082, -60927.082, 0.0, 2.5004907, 2.4987638 
3.3381352e+2, 4.1225967e+1, -18927.525, -493101.56, -6234.2324, -0.00006194248, 0.0001823953, -18845.574, -18845.574, 0.0, 2.5004885, 2.4989183 
3.338135e+2, 4.372489e+1, -19061.38, -491832.2, -8314.314, 0.000004207081, 0.0000294032, -18915.207, -18915.207, 0.0, 2.5004869, 2.4989214 
3.3381346e+2, 4.6223807e+1, -19954.93, -492141.4, -8538.825, 0.00007746207, -0.00011873953, -19800.568, -19800.568, 0.0, 2.5004852, 2.4989216 
3.3381343e+2, 4.872273e+1, -20850.975, -492451.8, -8764.1, 0.00015675796, -0.00025722556, -20688.16, -20688.16, 0.0, 2.5004835, 2.4989219 
3.338134e+2, 5.1221734e+1, 21237.283, -403099.38, -7265.1953, -0.000094209056, 0.00027942998, 21361.637, 21361.637, 0.0, 2.5004814, 2.4990761 
3.338134e+2, 5.372081e+1, 20995.982, -401691.9, -8426.91, -0.00006328633, 0.00008121791, 21163.918, 21163.918, 0.0, 2.5004795, 2.4990795 
3.3381337e+2, 5.621989e+1, 19864.813, -402131.7, -8604.382, -0.000024073874, -0.0001203417, 20040.18, 20040.18, 0.0, 2.5004773, 2.4990797 
3.338133e+2, 5.871896e+1, 18731.357, -402572.56, -8782.7, 0.000020151174, -0.0003174298, 18914.367, 18914.367, 0.0, 2.5004752, 2.49908 
3.338133e+2, 6.1218125e+1, 60885.977, -313194.4, -7910.9165, -0.000039913513, 0.00029819243, 61053.2, 61053.2, 0.0, 2.5004733, 2.4992344 
3.3381328e+2, 6.371736e+1, 60864.02, -311587.2, -7715.54, 0.0001190973, 0.00003075075, 61023.78, 61023.78, 0.0, 2.5004716, 2.499238 
3.3381328e+2, 6.62166e+1, 59872.453, -311989.97, -7880.3945, 0.00028470735, -0.0002452925, 60039.38, 60039.38, 0.0, 2.5004697, 2.4992383 
3.3381325e+2, 6.871583e+1, 58878.03, -312394.16, -8045.803, 0.00045500457, -0.0005192315, 59052.31, 59052.31, 0.0, 2.500468, 2.4992383 
3.3381322e+2, 7.1215147e+1, 101109.88, -223323.13, -7960.085, -0.00013447192, 0.0004431207, 101305.06, 101305.06, 0.0, 2.5004666, 2.499392 
3.3381322e+2, 7.371455e+1, 101016.664, -221950.83, -6216.162, -0.0002989259, 0.00024015254, 101136.266, 101136.266, 0.0, 2.500465, 2.4993951 
3.3381322e+2, 7.621394e+1, 100053.15, -222375.69, -6304.4126, -0.00045200431, 0.000020269576, 100176.375, 100176.375, 0.0, 2.5004632, 2.4993951 
3.3381322e+2, 7.871333e+1, 99085.234, -222802.66, -6393.2925, -0.0006021717, -0.00019972812, 99212.164, 99212.164, 0.0, 2.5004613, 2.4993954 
3.3381322e+2, 8.1212807e+1, 141522.27, -133864.75, -7215.5913, 0.00023846036, 0.00033627675, 141711.2, 141711.2, 0.0, 2.5004606, 2.4995484 
3.3381322e+2, 8.371235e+1, 141545.5, -132936.03, -4118.9785, 0.0006829013, -0.00017049424, 141607.3, 141607.3, 0.0, 2.5004597, 2.4995503 
3.3381325e+2, 8.621189e+1, 140993.02, -133182.66, -4201.9478, 0.0011321418, -0.0006881582, 141057.39, 141057.39, 0.0, 2.5004587, 2.4995506 
3.3381325e+2, 8.8711435e+1, 140432.03, -133433.36, -4284.828, 0.0015966468, -0.0012034504, 140499.05, 140499.05, 0.0, 2.5004578, 2.4995506 
3.3381322e+2, 9.121108e+1, 183224.72, -44544.047, -5144.2637, -0.0017438922, 0.0012031876, 183340.84, 183340.84, 0.0, 2.5004578, 2.4997032 
3.3381325e+2, 9.3710786e+1, 183061.42, -44528.36, -1611.9047, -0.0009490428, 0.00068017375, 183072.84, 183072.84, 0.0, 2.5004573, 2.4997034 
3.3381328e+2, 9.621048e+1, 182832.72, -44617.5, -1632.3319, -0.00009107028, 0.000100259436, 182844.44, 182844.44, 0.0, 2.5004568, 2.4997034 
3.338133e+2, 9.8710173e+1, 182590.8, -44713.004, -1651.6398, 0.00076530053, -0.0004901318, 182602.8, 182602.8, 0.0, 2.5004566, 2.4997034 
3.363142e+2, 1.2491492e+0, -183324.08, -850759.5, -737.12384, -0.00009277542, -0.000010744474, -183323.27, -183323.27, 0.0, 2.5005057, 2.4982965 
3.363142e+2, 3.7474477e+0, -183704.11, -851251.5, -1089.7592, -0.000039563343, -0.000030777283, -183702.33, -183702.33, 0.0, 2.5005054, 2.4982958 
3.363142e+2, 6.245746e+0, -183876.08, -851308.44, -1359.8066, 0.000013092952, -0.000048867914, -183873.31, -183873.31, 0.0, 2.5005052, 2.4982958 
3.363142e+2, 8.7440443e+0, -184049.81, -851366.2, -1630.0902, 0.00006519382, -0.00006501652, -184045.83, -184045.83, 0.0, 2.5005047, 2.498296 
3.363142e+2, 1.124242e+1, -141639.13, -762591.25, -2299.5127, 0.000012117049, 0.000045638404, -141630.61, -141630.61, 0.0, 2.500504, 2.4984486 
3.363142e+2, 1.3740872e+1, -141796.6, -762237.2, -3663.3667, -0.000018964249, -0.000012159088, -141774.97, -141774.97, 0.0, 2.5005033, 2.4984496 
3.3631417e+2, 1.6239323e+1, -142181.02, -762352.8, -3942.012, -0.000054552936, -0.00006342973, -142155.95, -142155.95, 0.0, 2.5005026, 2.4984496 
3.3631417e+2, 1.8737774e+1, -142566.88, -762469.1, -4221.0728, -0.00009483329, -0.00010781899, -142538.13, -142538.13, 0.0, 2.5005019, 2.4984498 
3.3631414e+2, 2.1236305e+1, -100274.36, -673358.94, -3841.4119, -0.00009882835, 0.0000904779, -100248.61, -100248.61, 0.0, 2.5005007, 2.4986033 
3.3631414e+2, 2.3734911e+1, -100437.7, -672673.0, -5927.053, -0.000025054458, 0.0000009863573, -100376.31, -100376.31, 0.0, 2.5004995, 2.498605 
3.363141e+2, 2.6233518e+1, -101016.77, -672850.94, -6180.3228, 0.000049086353, -0.000080426726, -100949.984, -100949.984, 0.0, 2.5004983, 2.4986053 
3.3631408e+2, 2.873212e+1, -101597.05, -673029.44, -6434.308, 0.00012352332, -0.00015242619, -101524.61, -101524.61, 0.0, 2.5004973, 2.4986055 
3.3631408e+2, 3.1230807e+1, -59325.965, -583610.9, -5282.028, -0.00002956795, 0.00009764032, -59272.754, -59272.754, 0.0, 2.5004954, 2.4987597 
3.3631405e+2, 3.372957e+1, -59642.363, -582770.25, -7612.267, -0.000045057925, -0.000011221507, -59531.617, -59531.617, 0.0, 2.500494, 2.498762 
3.3631402e+2, 3.6228332e+1, -60507.84, -583070.5, -7859.4736, -0.000059690323, -0.00011243918, -60389.656, -60389.656, 0.0, 2.5004923, 2.4987621 
3.36314e+2, 3.8727096e+1, -61374.824, -583371.44, -8107.575, -0.00007476469, -0.00020357034, -61248.93, -61248.93, 0.0, 2.5004907, 2.4987624 
3.36314e+2, 4.1225937e+1, -19102.717, -493625.72, -6591.463, -0.0001399028, 0.00016076368, -19011.174, -19011.174, 0.0, 2.5004885, 2.4989173 
3.3631396e+2, 4.372486e+1, -19293.861, -492480.56, -8577.158, -0.000027375687, 0.000027355507, -19138.44, -19138.44, 0.0, 2.500487, 2.4989202 
3.3631393e+2, 4.6223778e+1, -20186.14, -492791.94, -8798.858, 0.00008568909, -0.00009888106, -20022.383, -20022.383, 0.0, 2.5004854, 2.4989204 
3.363139e+2, 4.87227e+1, -21080.916, -493104.53, -9021.322, 0.00019827034, -0.00021352404, -20908.563, -20908.563, 0.0, 2.5004838, 2.4989207 
3.3631387e+2, 5.12217e+1, 21210.006, -403383.7, -7632.146, -0.000057893587, 0.00030555352, 21347.152, 21347.152, 0.0, 2.5004816, 2.4990757 
3.3631384e+2, 5.372078e+1, 20910.621, -402100.78, -8747.778, -0.000062725434, 0.000084281004, 21091.447, 21091.447, 0.0, 2.5004797, 2.4990788 
3.3631384e+2, 5.621985e+1, 19779.01, -402544.8, -8922.748, -0.00006506216, -0.00013719227, 19967.443, 19967.443, 0.0, 2.5004776, 2.499079 
3.363138e+2, 5.871893e+1, 18645.113, -402989.97, -9098.565, -0.000068253685, -0.00035124944, 18841.361, 18841.361, 0.0, 2.5004754, 2.4990792 
3.3631378e+2, 6.121809e+1, 60982.277, -313289.22, -8205.213, -0.00013759767, 0.00023729287, 61162.08, 61162.08, 0.0, 2.5004735, 2.499234 
3.3631378e+2, 6.3717324e+1, 60862.137, -311888.0, -7998.133, 0.00007084103, 0.000024161307, 61033.676, 61033.676, 0.0, 2.5004718, 2.4992373 
3.3631375e+2, 6.621656e+1, 59869.15, -312295.16, -8159.9546, 0.00027936682, -0.00019466855, 60047.973, 60047.973, 0.0, 2.5004702, 2.4992375 
3.3631375e+2, 6.8715787e+1, 58873.3, -312703.7, -8322.33, 0.0004859279, -0.00040906674, 59059.605, 59059.605, 0.0, 2.5004683, 2.4992375 
3.3631372e+2, 7.1215117e+1, 101413.25, -223061.64, -8183.083, -0.0001539204, 0.0004987164, 101619.49, 101619.49, 0.0, 2.5004668, 2.4993923 
3.363137e+2, 7.3714507e+1, 101216.914, -221906.95, -6482.159, -0.0003437546, 0.00025143748, 101346.9, 101346.9, 0.0, 2.5004652, 2.499395 
3.363137e+2, 7.6213896e+1, 100253.33, -222334.39, -6566.6377, -0.00053135486, -0.000011879142, 100386.945, 100386.945, 0.0, 2.5004635, 2.4993951 
3.363137e+2, 7.8713286e+1, 99285.34, -222763.95, -6651.7456, -0.00072597445, -0.00027533673, 99422.67, 99422.67, 0.0, 2.5004618, 2.4993951 
3.363137e+2, 8.121276e+1, 141900.11, -133515.38, -7296.7363, 0.000094678864, 0.0002564253, 142093.28, 142093.28, 0.0, 2.500461, 2.4995487 
3.363137e+2, 8.371231e+1, 141806.94, -132829.94, -4274.853, 0.0005835308, -0.00015679795, 141873.45, 141873.45, 0.0, 2.5004601, 2.4995503 
3.3631372e+2, 8.6211854e+1, 141255.34, -133075.25, -4351.5405, 0.001059208, -0.0005820156, 141324.36, 141324.36, 0.0, 2.5004592, 2.4995503 
3.3631372e+2, 8.8711405e+1, 140695.27, -133324.64, -4428.1387, 0.0015318204, -0.0010063911, 140766.81, 140766.81, 0.0, 2.5004582, 2.4995506 
3.363137e+2, 9.121105e+1, 183813.69, -43844.465, -5105.2935, -0.0019930282, 0.001244454, 183928.13, 183928.13, 0.0, 2.5004582, 2.4997041 
3.3631372e+2, 9.3710744e+1, 183513.53, -44113.21, -1664.5642, -0.001156636, 0.000668298, 183525.7, 183525.7, 0.0, 2.500458, 2.499704 
3.3631375e+2, 9.6210444e+1, 183288.42, -44193.492, -1673.7866, -0.00028287972, 0.00003587263, 183300.73, 183300.73, 0.0, 2.5004575, 2.499704 
3.3631378e+2, 9.871014e+1, 183050.1, -44280.133, -1681.8894, 0.000560228, -0.00060916774, 183062.53, 183062.53, 0.0, 2.500457, 2.499704 
3.3881474e+2, 1.24914825e+0, -181794.19, -850810.9, -833.419, -0.00015190635, -0.000011026531, -181793.16, -181793.16, 0.0, 2.5005093, 2.4982948 
3.3881474e+2, 3.7474447e+0, -182156.9, -851280.0, -1271.7499, -0.0000870969, -0.00003187675, -182154.5, -182154.5, 0.0, 2.500509, 2.498294 
3.3881474e+2, 6.245741e+0, -182399.28, -851370.5, -1622.0514, -0.000030377432, -0.000051122483, -182395.34, -182395.34, 0.0, 2.5005085, 2.498294 
3.3881474e+2, 8.7440383e+0, -182722.25, -851499.9, -1968.9084, 0.000018252336, -0.00006876381, -182716.45, -182716.45, 0.0, 2.5005078, 2.498294 
3.3881474e+2, 1.1242411e+1, -140434.38, -762789.9, -2821.8438, -0.00004690589, 0.00004453824, -140421.58, -140421.58, 0.0, 2.500507, 2.4984467 
3.388147e+2, 1.3740861e+1, -140670.7, -762480.06, -4203.59, -0.000076087825, -0.000016272123, -140642.28, -140642.28, 0.0, 2.5005062, 2.4984477 
3.388147e+2, 1.6239311e+1, -141188.13, -762660.94, -4535.1104, -0.000114452865, -0.00007024304, -141155.05, -141155.05, 0.0, 2.5005052, 2.498448 
3.3881468e+2, 1.873776e+1, -141764.33, -762870.1, -4862.4507, -0.00016221548, -0.000117006224, -141726.27, -141726.27, 0.0, 2.5005043, 2.4984481 
3.3881468e+2, 2.1236289e+1, -99589.3, -673707.56, -4657.773, -0.00012818456, 0.00008106373, -99551.516, -99551.516, 0.0, 2.5005026, 2.4986017 
3.3881465e+2, 2.3734894e+1, -99945.55, -673118.94, -6669.0386, -0.000037690184, -0.000013156474, -99867.96, -99867.96, 0.0, 2.5005012, 2.4986033 
3.3881462e+2, 2.6233497e+1, -100750.41, -673407.0, -6919.7607, 0.000048959628, -0.00009863595, -100666.805, -100666.805, 0.0, 2.5004995, 2.4986036 
3.3881462e+2, 2.87321e+1, -101591.2, -673712.3, -7162.03, 0.00013185876, -0.00017402881, -101501.56, -101501.56, 0.0, 2.500498, 2.4986038 
3.388146e+2, 3.1230786e+1, -59466.72, -584254.44, -6146.0195, -0.000034616696, 0.00007486194, -59394.75, -59394.75, 0.0, 2.500496, 2.4987583 
3.3881456e+2, 3.3729544e+1, -60017.65, -583584.2, -8351.776, -0.000072814706, -0.00003047336, -59884.457, -59884.457, 0.0, 2.500494, 2.4987605 
3.3881453e+2, 3.6228305e+1, -61116.78, -583998.9, -8541.709, -0.00011451754, -0.00012695108, -60977.28, -60977.28, 0.0, 2.5004919, 2.4987607 
3.388145e+2, 3.872707e+1, -62251.297, -584430.56, -8722.218, -0.00016108502, -0.00021214607, -62105.645, -62105.645, 0.0, 2.50049, 2.498761 
3.388145e+2, 4.122591e+1, -20058.271, -494544.25, -7220.9487, -0.00021003057, 0.0001350718, -19948.406, -19948.406, 0.0, 2.5004876, 2.4989164 
3.3881447e+2, 4.3724826e+1, -20456.672, -493570.2, -9007.174, -0.000053389955, 0.000018058561, -20285.254, -20285.254, 0.0, 2.5004857, 2.498919 
3.3881444e+2, 4.6223748e+1, -21549.338, -493980.13, -9104.219, 0.000097863754, -0.00008980242, -21373.955, -21373.955, 0.0, 2.5004835, 2.4989192 
3.3881438e+2, 4.8722667e+1, -22680.803, -494408.75, -9191.221, 0.00024279338, -0.00018436453, -22501.79, -22501.79, 0.0, 2.5004814, 2.4989195 
3.3881435e+2, 5.122167e+1, 19635.514, -404428.0, -7755.7554, -0.000015501717, 0.00032794135, 19777.313, 19777.313, 0.0, 2.5004792, 2.499075 
3.3881432e+2, 5.372074e+1, 19232.746, -403264.9, -8671.002, -0.00005661014, 0.000080545826, 19410.629, 19410.629, 0.0, 2.500477, 2.499078 
3.388143e+2, 5.6219816e+1, 18015.805, -403753.22, -8668.257, -0.0001004467, -0.00016426081, 18193.879, 18193.879, 0.0, 2.500475, 2.4990783 
3.3881426e+2, 5.8718896e+1, 16772.953, -404254.0, -8653.319, -0.0001503981, -0.000398928, 16950.729, 16950.729, 0.0, 2.5004728, 2.4990783 
3.3881423e+2, 6.1218053e+1, 59262.504, -314279.3, -7527.9707, -0.00022905887, 0.00017507315, 59414.152, 59414.152, 0.0, 2.5004709, 2.4992337 
3.3881423e+2, 6.371729e+1, 59173.684, -312986.38, -7109.483, 0.000029646635, 0.00001207118, 59309.45, 59309.45, 0.0, 2.5004692, 2.4992366 
3.388142e+2, 6.621652e+1, 58268.617, -313354.22, -7050.61, 0.00028259977, -0.00015402082, 58402.336, 58402.336, 0.0, 2.5004675, 2.4992368 
3.388142e+2, 6.871576e+1, 57342.27, -313732.34, -6983.7188, 0.000527595, -0.00031345975, 57473.66, 57473.66, 0.0, 2.5004659, 2.499237 
3.3881417e+2, 7.121508e+1, 100359.32, -223470.63, -6565.2144, -0.00016473973, 0.000553694, 100492.37, 100492.37, 0.0, 2.500465, 2.4993925 
3.3881417e+2, 7.371447e+1, 100384.82, -222343.52, -4719.6914, -0.00037844904, 0.00025927395, 100453.83, 100453.83, 0.0, 2.5004637, 2.499395 
3.3881414e+2, 7.621386e+1, 99680.53, -222648.06, -4591.4795, -0.00059793965, -0.000050572176, 99745.92, 99745.92, 0.0, 2.5004625, 2.499395 
3.3881414e+2, 7.871325e+1, 98926.83, -222976.42, -4454.264, -0.0008332937, -0.0003606275, 98988.45, 98988.45, 0.0, 2.5004613, 2.4993951 
3.3881414e+2, 8.1212723e+1, 142118.81, -133255.88, -4704.0786, -0.000036111618, 0.00017532868, 142199.14, 142199.14, 0.0, 2.5004613, 2.4995492 
3.3881414e+2, 8.3712274e+1, 142510.34, -132495.44, -1575.0815, 0.0004968916, -0.00014729444, 142519.38, 142519.38, 0.0, 2.5004613, 2.4995503 
3.3881414e+2, 8.621181e+1, 142421.1, -132517.25, -1455.8303, 0.0010001586, -0.00048307946, 142428.8, 142428.8, 0.0, 2.500461, 2.4995503 
3.3881417e+2, 8.8711363e+1, 142201.64, -132601.77, -1337.0983, 0.0014833818, -0.00081946736, 142208.14, 142208.14, 0.0, 2.5004609, 2.4995503 
3.3881414e+2, 9.1211015e+1, 186160.95, -42318.83, -1676.1953, -0.002207288, 0.0012995144, 186173.25, 186173.25, 0.0, 2.5004618, 2.499705 
3.3881417e+2, 9.371071e+1, 186416.94, -42506.027, 1752.5839, -0.0013312679, 0.0006656738, 186430.36, 186430.36, 0.0, 2.5004625, 2.4997044 
3.388142e+2, 9.62104e+1, 186618.6, -42374.12, 1839.9133, -0.0004414107, -0.000024141758, 186633.38, 186633.38, 0.0, 2.500463, 2.4997044 
3.3881423e+2, 9.8710096e+1, 186555.08, -42369.91, 1921.4875, 0.00039122038, -0.00072864635, 186571.2, 186571.2, 0.0, 2.5004628, 2.4997044 
3.4131524e+2, 1.24914706e+0, -179664.52, -850894.44, -866.582, 0.00005438513, -0.000008349054, -179663.4, -179663.4, 0.0, 2.500514, 2.4982922 
3.4131524e+2, 3.7474412e+0, -179975.31, -851316.7, -1283.239, 0.0000901374, -0.000024880064, -179972.86, -179972.86, 0.0, 2.5005138, 2.4982917 
3.4131524e+2, 6.245735e+0, -180097.22, -851343.1, -1614.9655, 0.00014250203, -0.000041187668, -180093.34, -180093.34, 0.0, 2.5005136, 2.4982917 
3.4131524e+2, 8.744029e+0, -180221.28, -851370.6, -1946.493, 0.00021147936, -0.000057272016, -180215.64, -180215.64, 0.0, 2.5005133, 2.4982917 
3.413152e+2, 1.1242401e+1, -137847.48, -762523.56, -2909.262, 0.0001493694, 0.000059334987, -137833.94, -137833.94, 0.0, 2.5005126, 2.4984446 
3.413152e+2, 1.3740848e+1, -138153.95, -762241.75, -4219.5864, 0.00008806758, 0.0000019435568, -138125.42, -138125.42, 0.0, 2.5005116, 2.4984455 
3.4131518e+2, 1.6239296e+1, -138679.03, -762411.75, -4531.0854, 0.000045330973, -0.00004936309, -138646.13, -138646.13, 0.0, 2.5005105, 2.4984457 
3.4131518e+2, 1.8737744e+1, -139206.05, -762582.7, -4843.2476, 0.000020975967, -0.000094212046, -139168.42, -139168.42, 0.0, 2.5005095, 2.498446 
3.4131515e+2, 2.1236269e+1, -96969.49, -673225.06, -4796.7603, 0.00004190789, 0.00009366144, -96929.56, -96929.56, 0.0, 2.5005078, 2.4986 
3.4131515e+2, 2.373487e+1, -97408.64, -672691.94, -6775.6875, 0.000089381465, 0.0000005891417, -97328.84, -97328.84, 0.0, 2.5005062, 2.4986017 
3.4131512e+2, 2.6233473e+1, -98238.23, -672969.6, -7084.726, 0.00014631028, -0.00008703669, -98150.91, -98150.91, 0.0, 2.5005047, 2.498602 
3.413151e+2, 2.8732076e+1, -99069.46, -673248.06, -7394.3887, 0.00021274287, -0.0001679323, -98974.25, -98974.25, 0.0, 2.500503, 2.4986022 
3.4131506e+2, 3.123076e+1, -56903.87, -583502.44, -6598.4595, 0.000057114594, 0.00007227848, -56821.203, -56821.203, 0.0, 2.500501, 2.4987574 
3.4131503e+2, 3.3729517e+1, -57446.0, -582855.0, -8765.822, 0.0000063727884, -0.000019460225, -57299.793, -57299.793, 0.0, 2.500499, 2.4987593 
3.41315e+2, 3.6228278e+1, -58467.81, -583205.56, -9024.945, -0.000031954303, -0.00010540606, -58312.633, -58312.633, 0.0, 2.500497, 2.4987595 
3.4131497e+2, 3.872704e+1, -59491.297, -583556.9, -9285.084, -0.00005903165, -0.00018322552, -59326.84, -59326.84, 0.0, 2.5004952, 2.49876 
3.4131497e+2, 4.122588e+1, -17250.668, -493378.84, -7997.385, -0.00012798115, 0.00014284528, -17116.377, -17116.377, 0.0, 2.5004926, 2.498916 
3.4131494e+2, 4.3724796e+1, -17993.217, -492626.4, -9823.046, 0.0000011745328, 0.000021695421, -17790.006, -17790.006, 0.0, 2.50049, 2.4989183 
3.413149e+2, 4.6223712e+1, -19342.227, -493134.16, -10056.25, 0.00014553487, -0.00009802016, -19128.879, -19128.879, 0.0, 2.5004876, 2.4989188 
3.4131488e+2, 4.8722634e+1, -20693.496, -493643.0, -10290.542, 0.0003040283, -0.00021237934, -20469.697, -20469.697, 0.0, 2.5004852, 2.498919 
3.4131485e+2, 5.122163e+1, 21523.725, -403328.97, -9044.553, 0.000055346205, 0.00026658797, 21716.184, 21716.184, 0.0, 2.5004823, 2.4990754 
3.4131482e+2, 5.372071e+1, 20914.926, -402346.28, -10067.726, -0.0000059535923, 0.000056528144, 21154.262, 21154.262, 0.0, 2.50048, 2.4990783 
3.413148e+2, 5.6219786e+1, 19586.68, -402858.63, -10242.529, -0.000050937793, -0.00015781415, 19834.871, 19834.871, 0.0, 2.5004776, 2.4990785 
3.4131476e+2, 5.871886e+1, 18256.209, -403372.03, -10418.149, -0.00008288244, -0.00036934792, 18513.477, 18513.477, 0.0, 2.500475, 2.4990788 
3.4131473e+2, 6.1218023e+1, 60534.023, -313210.25, -9432.621, -0.00017076229, 0.0001683339, 60771.934, 60771.934, 0.0, 2.5004725, 2.4992347 
3.413147e+2, 6.371726e+1, 59809.438, -312338.22, -9172.663, 0.00009983241, -0.0000005336364, 60035.387, 60035.387, 0.0, 2.50047, 2.4992375 
3.413147e+2, 6.621649e+1, 58372.527, -312942.25, -9287.837, 0.00038639206, -0.00017558313, 58604.703, 58604.703, 0.0, 2.5004673, 2.4992375 
3.4131467e+2, 6.871573e+1, 56933.01, -313547.53, -9404.05, 0.00068638916, -0.0003476155, 57171.566, 57171.566, 0.0, 2.500465, 2.4992378 
3.4131464e+2, 7.121505e+1, 99489.12, -223183.64, -9052.563, -0.0000058121827, 0.00046340073, 99742.88, 99742.88, 0.0, 2.5004628, 2.499394 
3.4131464e+2, 7.371444e+1, 98809.36, -222540.17, -7453.7935, -0.00023019234, 0.00020860892, 98982.164, 98982.164, 0.0, 2.5004606, 2.499396 
3.413146e+2, 7.6213837e+1, 97547.484, -223095.94, -7538.5737, -0.00042432456, -0.00006215531, 97724.625, 97724.625, 0.0, 2.5004582, 2.4993963 
3.413146e+2, 7.8713226e+1, 96281.55, -223653.66, -7624.0283, -0.000598578, -0.00033462726, 96463.125, 96463.125, 0.0, 2.500456, 2.4993963 
3.413146e+2, 8.12127e+1, 138946.73, -133946.7, -7781.6274, 0.00021874424, 0.00018257405, 139168.45, 139168.45, 0.0, 2.500455, 2.499551 
3.413146e+2, 8.371225e+1, 138317.3, -133856.1, -4864.96, 0.0007554751, -0.00012463311, 138404.23, 138404.23, 0.0, 2.5004535, 2.4995518 
3.4131464e+2, 8.62118e+1, 137443.33, -134254.95, -4866.301, 0.0013083098, -0.00044105158, 137530.45, 137530.45, 0.0, 2.5004518, 2.4995518 
3.4131464e+2, 8.871135e+1, 136563.92, -134656.4, -4867.7085, 0.0018868039, -0.0007547802, 136651.27, 136651.27, 0.0, 2.5004504, 2.499552 
3.413146e+2, 9.121099e+1, 179720.73, -44553.61, -5005.9917, -0.0018650248, 0.0012172571, 179832.4, 179832.4, 0.0, 2.50045, 2.499707 
3.4131464e+2, 9.371069e+1, 179052.7, -45400.62, -1761.202, -0.00090482045, 0.00065215555, 179066.52, 179066.52, 0.0, 2.5004492, 2.4997058 
3.4131467e+2, 9.621039e+1, 178711.97, -45540.33, -1769.5813, 0.00014696484, 0.00003738962, 178725.94, 178725.94, 0.0, 2.5004487, 2.4997058 
3.413147e+2, 9.8710084e+1, 178360.19, -45685.36, -1775.8489, 0.0012170676, -0.00058880635, 178374.27, 178374.27, 0.0, 2.500448, 2.4997058 
3.4381577e+2, 1.2491459e+0, -180250.94, -852112.7, -911.7469, 0.000042377214, -0.0000075681464, -180249.7, -180249.7, 0.0, 2.500514, 2.4982903 
3.4381577e+2, 3.7474376e+0, -180553.0, -852516.75, -1323.7079, 0.000049708156, -0.000021827062, -180550.39, -180550.39, 0.0, 2.5005138, 2.4982896 
3.4381574e+2, 6.24573e+0, -180676.58, -852546.5, -1652.0569, 0.00006353287, -0.00003491555, -180672.52, -180672.52, 0.0, 2.5005136, 2.4982896 
3.4381574e+2, 8.7440217e+0, -180802.31, -852577.4, -1980.2069, 0.00008385167, -0.00004683375, -180796.48, -180796.48, 0.0, 2.5005133, 2.4982898 
3.4381574e+2, 1.12423904e+1, -138366.4, -763621.4, -3114.0317, 0.000039518203, 0.00007098846, -138350.89, -138350.89, 0.0, 2.5005126, 2.4984426 
3.4381574e+2, 1.3740836e+1, -138677.86, -763353.94, -4371.5977, 0.000023652394, 0.00001328609, -138647.27, -138647.27, 0.0, 2.5005116, 2.4984436 
3.438157e+2, 1.6239281e+1, -139199.81, -763521.4, -4679.8623, 0.000018578075, -0.000038330876, -139164.73, -139164.73, 0.0, 2.5005107, 2.4984438 
3.4381568e+2, 1.8737726e+1, -139723.72, -763689.75, -4988.7896, 0.000024172923, -0.000083488536, -139683.83, -139683.83, 0.0, 2.5005095, 2.498444 
3.4381568e+2, 2.123625e+1, -97425.24, -674211.75, -5127.218, 0.000014958172, 0.000082554405, -97379.67, -97379.67, 0.0, 2.5005078, 2.4985983 
3.4381565e+2, 2.3734851e+1, -97900.79, -673759.4, -7017.2676, 0.000034619192, 0.0000014998948, -97815.29, -97815.29, 0.0, 2.5005064, 2.4985998 
3.4381562e+2, 2.6233453e+1, -98728.586, -674038.44, -7323.688, 0.00005780742, -0.000073117546, -98635.37, -98635.37, 0.0, 2.5005047, 2.4986 
3.438156e+2, 2.8732052e+1, -99558.02, -674318.25, -7630.7324, 0.0000844167, -0.00014014651, -99456.73, -99456.73, 0.0, 2.5005033, 2.4986002 
3.438156e+2, 3.1230733e+1, -57216.543, -584260.8, -7005.7866, -0.000021447851, 0.0000949495, -57123.434, -57123.434, 0.0, 2.500501, 2.498756 
3.4381557e+2, 3.3729494e+1, -57789.53, -583685.2, -9059.542, -0.000026896501, 0.000017738303, -57633.508, -57633.508, 0.0, 2.500499, 2.4987578 
3.4381554e+2, 3.6228248e+1, -58808.223, -584036.6, -9316.316, -0.000026045109, -0.000052953877, -58643.023, -58643.023, 0.0, 2.500497, 2.498758 
3.438155e+2, 3.872701e+1, -59828.598, -584388.9, -9574.106, -0.000019699617, -0.00011492282, -59653.91, -59653.91, 0.0, 2.5004952, 2.4987583 
3.4381545e+2, 4.122585e+1, -17443.32, -493942.56, -8468.544, -0.00011479327, 0.00018503508, -17292.861, -17292.861, 0.0, 2.5004926, 2.498915 
3.4381542e+2, 4.3724763e+1, -18241.66, -493312.84, -10203.481, -0.000012379147, 0.000042223288, -18022.613, -18022.613, 0.0, 2.5004902, 2.498917 
3.438154e+2, 4.622368e+1, -19588.482, -493822.6, -10433.812, 0.00009863178, -0.00009772579, -19359.035, -19359.035, 0.0, 2.5004878, 2.4989173 
3.4381533e+2, 4.8722595e+1, -20937.564, -494333.4, -10665.229, 0.00021690372, -0.00023109333, -20697.408, -20697.408, 0.0, 2.5004852, 2.4989178 
3.438153e+2, 5.12216e+1, 21521.953, -403563.94, -9500.066, -0.000018482197, 0.00020760448, 21734.162, 21734.162, 0.0, 2.5004826, 2.499075 
3.4381527e+2, 5.372067e+1, 20831.777, -402755.78, -10446.115, -0.000046110184, 0.000069206806, 21089.232, 21089.232, 0.0, 2.5004802, 2.4990773 
3.4381524e+2, 5.6219745e+1, 19504.342, -403271.44, -10617.669, -0.00006397768, -0.00007142437, 19770.828, 19770.828, 0.0, 2.5004778, 2.4990776 
3.438152e+2, 5.8718824e+1, 18174.682, -403788.16, -10790.037, -0.00007518229, -0.00020790772, 18450.414, 18450.414, 0.0, 2.5004754, 2.499078 
3.4381518e+2, 6.121798e+1, 60704.86, -313151.28, -9846.11, -0.00018901212, 0.00028613632, 60963.992, 60963.992, 0.0, 2.5004728, 2.4992347 
3.4381518e+2, 6.3717216e+1, 59888.816, -312473.72, -9569.833, 0.00007079235, 0.00006295604, 60134.6, 60134.6, 0.0, 2.5004704, 2.499237 
3.4381515e+2, 6.621645e+1, 58452.45, -313080.53, -9682.177, 0.0003408563, -0.0001651156, 58704.594, 58704.594, 0.0, 2.5004678, 2.4992373 
3.4381512e+2, 6.8715686e+1, 57013.473, -313688.63, -9795.561, 0.0006182386, -0.0003895528, 57272.137, 57272.137, 0.0, 2.5004652, 2.4992375 
3.438151e+2, 7.1215004e+1, 99796.11, -222914.44, -9373.463, -0.00007264286, 0.0003610955, 100068.14, 100068.14, 0.0, 2.5004632, 2.4993942 
3.438151e+2, 7.37144e+1, 99004.57, -222507.28, -7802.089, -0.0002923017, 0.00020602749, 99193.79, 99193.79, 0.0, 2.5004609, 2.499396 
3.4381506e+2, 7.621379e+1, 97740.65, -223070.6, -7882.726, -0.00049089384, 0.00003615303, 97934.23, 97934.23, 0.0, 2.5004587, 2.499396 
3.4381506e+2, 7.871319e+1, 96472.67, -223635.86, -7964.037, -0.00067872985, -0.0001353852, 96670.69, 96670.69, 0.0, 2.5004566, 2.4993963 
3.4381503e+2, 8.1212664e+1, 139478.84, -133283.44, -7928.1294, 0.00012988668, 0.00033873212, 139709.1, 139709.1, 0.0, 2.5004554, 2.4995518 
3.4381506e+2, 8.3712214e+1, 138734.2, -133431.47, -5104.409, 0.00066710246, -0.00003327064, 138829.9, 138829.9, 0.0, 2.500454, 2.4995522 
3.4381506e+2, 8.621176e+1, 137859.9, -133829.33, -5101.2856, 0.0012078594, -0.00041377844, 137955.66, 137955.66, 0.0, 2.5004523, 2.4995525 
3.438151e+2, 8.8711303e+1, 136980.19, -134229.8, -5098.229, 0.001761682, -0.00079181185, 137075.98, 137075.98, 0.0, 2.5004508, 2.4995525 
3.4381503e+2, 9.1210955e+1, 180331.89, -43817.957, -5048.268, -0.0020784657, 0.0009878994, 180445.53, 180445.53, 0.0, 2.5004504, 2.499708 
3.4381506e+2, 9.371065e+1, 179538.25, -44918.473, -1850.4703, -0.0011049561, 0.00055708125, 179553.52, 179553.52, 0.0, 2.50045, 2.4997063 
3.4381512e+2, 9.621035e+1, 179195.56, -45053.164, -1847.4603, -0.000066082415, 0.0000823024, 179210.78, 179210.78, 0.0, 2.5004492, 2.4997063 
3.4381515e+2, 9.871004e+1, 178840.77, -45193.688, -1842.7942, 0.0009635398, -0.00040174165, 178855.92, 178855.92, 0.0, 2.5004487, 2.4997065 
3.4631628e+2, 1.2491448e+0, -180838.02, -853332.4, -956.95447, 0.00003085599, -0.000007719057, -180836.66, -180836.66, 0.0, 2.500514, 2.4982882 
3.4631628e+2, 3.7474343e+0, -181132.44, -853720.4, -1364.1006, 0.000010739012, -0.000021569518, -181129.67, -181129.67, 0.0, 2.5005138, 2.4982874 
3.4631625e+2, 6.245724e+0, -181257.7, -853753.56, -1689.072, -0.000013002756, -0.00003330252, -181253.45, -181253.45, 0.0, 2.5005136, 2.4982877 
3.4631625e+2, 8.744014e+0, -181385.11, -853787.75, -2013.8446, -0.000040369014, -0.000042918207, -181379.08, -181379.08, 0.0, 2.5005133, 2.4982877 
3.4631625e+2, 1.1242381e+1, -138893.2, -764735.56, -3313.9827, -0.00007465107, 0.00008128046, -138875.66, -138875.66, 0.0, 2.5005126, 2.4984407 
3.4631622e+2, 1.3740824e+1, -139203.56, -764469.8, -4523.263, -0.000047620142, 0.00001940569, -139170.84, -139170.84, 0.0, 2.5005116, 2.4984417 
3.4631622e+2, 1.6239268e+1, -139722.4, -764634.7, -4828.2935, -0.000017549593, -0.000036401903, -139685.11, -139685.11, 0.0, 2.5005107, 2.498442 
3.463162e+2, 1.8737711e+1, -140243.19, -764800.5, -5133.9863, 0.000015477717, -0.000085748565, -140200.98, -140200.98, 0.0, 2.5005095, 2.4984422 
3.463162e+2, 2.1236233e+1, -97898.49, -675234.8, -5459.348, -0.000002661956, 0.000065554355, -97846.87, -97846.87, 0.0, 2.5005078, 2.4985964 
3.4631616e+2, 2.373483e+1, -98394.46, -674830.0, -7258.172, -0.00001198888, -0.0000067868705, -98303.08, -98303.08, 0.0, 2.5005064, 2.4985979 
3.4631613e+2, 2.623343e+1, -99220.46, -675110.44, -7561.9746, -0.000023826564, -0.000071746545, -99121.18, -99121.18, 0.0, 2.5005047, 2.498598 
3.463161e+2, 2.873203e+1, -100048.11, -675391.6, -7866.401, -0.000038325925, -0.0001282595, -99940.57, -99940.57, 0.0, 2.5005033, 2.4985986 
3.4631607e+2, 3.123071e+1, -57541.473, -585044.56, -7403.796, -0.00010101137, 0.00011207805, -57437.58, -57437.58, 0.0, 2.5005012, 2.4987545 
3.4631604e+2, 3.3729467e+1, -58134.207, -584517.75, -9352.245, -0.00006286005, 0.000046599755, -57968.098, -57968.098, 0.0, 2.5004992, 2.4987564 
3.46316e+2, 3.6228222e+1, -59149.785, -584870.06, -9606.671, -0.00002447617, -0.0000117266, -58974.297, -58974.297, 0.0, 2.5004973, 2.4987566 
3.4631598e+2, 3.872698e+1, -60167.043, -585223.2, -9862.112, 0.000013646166, -0.00006073284, -59981.867, -59981.867, 0.0, 2.5004954, 2.498757 
3.4631595e+2, 4.1225815e+1, -17651.004, -494537.5, -8936.965, -0.00009337084, 0.00021879708, -17483.582, -17483.582, 0.0, 2.5004928, 2.4989138 
3.4631592e+2, 4.372473e+1, -18491.086, -494001.3, -10582.734, -0.000018609226, 0.00005088652, -18255.68, -18255.68, 0.0, 2.5004904, 2.498916 
3.463159e+2, 4.6223643e+1, -19835.723, -494513.03, -10810.189, 0.000058000503, -0.00011279798, -19589.66, -19589.66, 0.0, 2.500488, 2.4989161 
3.4631583e+2, 4.8722562e+1, -21182.615, -495025.88, -11038.73, 0.00013499914, -0.00026867582, -20925.596, -20925.596, 0.0, 2.5004854, 2.4989164 
3.463158e+2, 5.1221555e+1, 21489.283, -403863.1, -9947.445, -0.00009112714, 0.00014935379, 21721.791, 21721.791, 0.0, 2.5004828, 2.4990742 
3.4631577e+2, 5.3720635e+1, 20747.496, -403167.63, -10823.516, -0.000085199725, 0.00007769411, 21023.666, 21023.666, 0.0, 2.5004804, 2.4990766 
3.4631574e+2, 5.621971e+1, 19420.871, -403686.6, -10991.817, -0.000076022894, 0.0000056059625, 19706.232, 19706.232, 0.0, 2.500478, 2.4990768 
3.463157e+2, 5.871878e+1, 18092.023, -404206.66, -11160.934, -0.000066559856, -0.000060995044, 18386.79, 18386.79, 0.0, 2.5004756, 2.499077 
3.4631568e+2, 6.1217946e+1, 60855.883, -313133.5, -10252.439, -0.00019910983, 0.00040134566, 61136.727, 61136.727, 0.0, 2.5004733, 2.4992344 
3.4631565e+2, 6.371718e+1, 59967.355, -312611.0, -9965.878, 0.000051197097, 0.000120210614, 60233.734, 60233.734, 0.0, 2.5004706, 2.4992366 
3.4631562e+2, 6.621641e+1, 58531.523, -313220.6, -10075.394, 0.00030596627, -0.00016469795, 58804.39, 58804.39, 0.0, 2.500468, 2.4992368 
3.463156e+2, 6.8715644e+1, 57093.094, -313831.47, -10185.947, 0.00056193466, -0.00044535473, 57372.598, 57372.598, 0.0, 2.5004654, 2.499237 
3.4631556e+2, 7.121497e+1, 100075.32, -222702.95, -9682.757, -0.00014273883, 0.00026301775, 100365.52, 100365.52, 0.0, 2.5004635, 2.4993944 
3.4631556e+2, 7.371436e+1, 99198.766, -222476.5, -8149.1226, -0.0003532512, 0.00020318845, 99405.08, 99405.08, 0.0, 2.5004613, 2.4993958 
3.4631553e+2, 7.6213753e+1, 97932.805, -223047.36, -8225.616, -0.00055167096, 0.00012943422, 98143.46, 98143.46, 0.0, 2.5004592, 2.4993958 
3.4631553e+2, 7.871314e+1, 96662.79, -223620.17, -8302.784, -0.0007484573, 0.000054060176, 96877.88, 96877.88, 0.0, 2.5004568, 2.499396 
3.463155e+2, 8.121262e+1, 139986.56, -132670.84, -8064.5313, 0.000041485702, 0.000497115, 140224.89, 140224.89, 0.0, 2.5004559, 2.4995527 
3.4631553e+2, 8.371217e+1, 139150.4, -133008.31, -5343.838, 0.0005794674, 0.000056508965, 139255.28, 139255.28, 0.0, 2.5004544, 2.4995527 
3.4631553e+2, 8.621172e+1, 138275.78, -133405.19, -5336.25, 0.0011086104, -0.00039211422, 138380.55, 138380.55, 0.0, 2.5004528, 2.499553 
3.4631553e+2, 8.871127e+1, 137395.75, -133804.66, -5328.729, 0.0016382257, -0.00083847845, 137500.4, 137500.4, 0.0, 2.5004513, 2.499553 
3.463155e+2, 9.1210914e+1, 180913.08, -43144.57, -5078.003, -0.0022659968, 0.0007774027, 181028.11, 181028.11, 0.0, 2.500451, 2.4997087 
3.4631553e+2, 9.371061e+1, 180022.75, -44438.535, -1941.6545, -0.0012825115, 0.0004747539, 180039.55, 180039.55, 0.0, 2.5004504, 2.4997067 
3.4631556e+2, 9.621031e+1, 179678.11, -44568.207, -1927.255, -0.0002602498, 0.00013336394, 179694.67, 179694.67, 0.0, 2.50045, 2.499707 
3.463156e+2, 9.871001e+1, 179321.34, -44703.715, -1911.1995, 0.0007251913, -0.00021512626, 179337.64, 179337.64, 0.0, 2.5004492, 2.499707 
3.488168e+2, 1.2491437e+0, -179324.45, -853546.06, -1035.2893, 0.000030549098, -0.000008731736, -179322.86, -179322.86, 0.0, 2.5005178, 2.498286 
3.4881678e+2, 3.747431e+0, -179548.7, -853889.7, -1501.927, -0.000018397455, -0.000023908196, -179545.36, -179545.36, 0.0, 2.5005176, 2.4982855 
3.4881678e+2, 6.2457186e+0, -179692.06, -853934.06, -1888.0664, -0.000080112986, -0.000036034697, -179686.78, -179686.78, 0.0, 2.5005174, 2.4982855 
3.4881678e+2, 8.744006e+0, -179917.64, -854018.1, -2273.6804, -0.00015459761, -0.000045111352, -179909.97, -179909.97, 0.0, 2.500517, 2.4982855 
3.4881678e+2, 1.1242372e+1, -137512.25, -764947.9, -3795.2292, -0.00018664733, 0.00009079045, -137489.28, -137489.28, 0.0, 2.500516, 2.4984388 
3.4881675e+2, 1.3740812e+1, -137971.88, -764746.5, -5014.2876, -0.00011937097, 0.00002106961, -137931.77, -137931.77, 0.0, 2.5005147, 2.4984398 
3.4881672e+2, 1.6239254e+1, -138704.53, -765013.25, -5367.566, -0.000056251185, -0.000042735952, -138658.53, -138658.53, 0.0, 2.5005133, 2.49844 
3.4881672e+2, 1.8737693e+1, -139499.63, -765310.06, -5719.3926, 0.000002646427, -0.00010019386, -139447.36, -139447.36, 0.0, 2.500512, 2.49844 
3.488167e+2, 2.1236214e+1, -97355.68, -675798.56, -6266.1143, -0.0000034526154, 0.000043423388, -97287.805, -97287.805, 0.0, 2.5005097, 2.4985948 
3.4881666e+2, 2.373481e+1, -98026.12, -675489.75, -7986.414, -0.00004435188, -0.00002347397, -97915.69, -97915.69, 0.0, 2.5005078, 2.4985962 
3.4881663e+2, 2.6233408e+1, -99060.875, -675872.75, -8299.011, -0.000093262825, -0.00008212892, -98941.49, -98941.49, 0.0, 2.500506, 2.4985964 
3.488166e+2, 2.8732005e+1, -100137.805, -676276.0, -8608.586, -0.00015027152, -0.0001315162, -100009.2, -100009.2, 0.0, 2.500504, 2.4985967 
3.488166e+2, 3.1230682e+1, -57733.75, -585783.06, -8288.6045, -0.00017681358, 0.00012419447, -57603.68, -57603.68, 0.0, 2.5005014, 2.498753 
3.488165e+2, 3.372944e+1, -58580.344, -585399.7, -10108.591, -0.00009763489, 0.000067290865, -58386.453, -58386.453, 0.0, 2.5004992, 2.4987547 
3.4881648e+2, 3.6228192e+1, -59860.95, -585881.7, -10323.965, -0.000023735012, 0.00001804236, -59658.402, -59658.402, 0.0, 2.5004969, 2.4987552 
3.4881645e+2, 3.8726947e+1, -61166.184, -586375.56, -10535.101, 0.00004465572, -0.000021324937, -60954.945, -60954.945, 0.0, 2.5004945, 2.4987555 
3.4881642e+2, 4.1225785e+1, -18765.13, -495588.7, -9728.279, -0.000060402854, 0.00024317556, -18566.734, -18566.734, 0.0, 2.5004916, 2.4989126 
3.488164e+2, 4.3724698e+1, -19805.541, -495199.38, -11206.647, -0.0000149769885, 0.000046603553, -19541.508, -19541.508, 0.0, 2.5004888, 2.4989145 
3.4881634e+2, 4.622361e+1, -21352.402, -495811.03, -11344.209, 0.00002605025, -0.00014451296, -21081.32, -21081.32, 0.0, 2.500486, 2.498915 
3.488163e+2, 4.8722523e+1, -22933.334, -496439.1, -11475.614, 0.00006123683, -0.0003266659, -22655.38, -22655.38, 0.0, 2.500483, 2.4989152 
3.4881628e+2, 5.122152e+1, 19761.023, -405020.8, -10343.162, -0.00015972849, 0.00008976945, 20012.725, 20012.725, 0.0, 2.5004802, 2.4990735 
3.4881625e+2, 5.3720593e+1, 18933.096, -404406.84, -11038.521, -0.0001210559, 0.00007924617, 19220.729, 19220.729, 0.0, 2.5004776, 2.4990757 
3.4881622e+2, 5.6219673e+1, 17527.277, -404967.28, -11080.705, -0.00008497547, 0.00006989599, 17817.69, 17817.69, 0.0, 2.5004752, 2.499076 
3.4881616e+2, 5.8718747e+1, 16103.474, -405536.4, -11118.693, -0.000054361422, 0.00006741302, 16396.47, 16396.47, 0.0, 2.5004725, 2.4990764 
3.4881613e+2, 6.1217904e+1, 59076.254, -314067.03, -10103.473, -0.00019805823, 0.000509537, 59349.62, 59349.62, 0.0, 2.5004702, 2.4992344 
3.488161e+2, 6.371714e+1, 58235.8, -313610.66, -9667.905, 0.00004408955, 0.00016649133, 58486.996, 58486.996, 0.0, 2.5004678, 2.4992363 
3.4881607e+2, 6.621637e+1, 56899.563, -314174.75, -9621.317, 0.0002854008, -0.00017943425, 57148.855, 57148.855, 0.0, 2.5004654, 2.4992366 
3.4881607e+2, 6.8715596e+1, 55558.117, -314741.38, -9567.229, 0.00052238314, -0.0005205416, 55805.133, 55805.133, 0.0, 2.500463, 2.4992366 
3.48816e+2, 7.121492e+1, 98971.375, -223189.98, -8813.606, -0.0002108114, 0.00016319497, 99212.32, 99212.32, 0.0, 2.5004616, 2.4993944 
3.48816e+2, 7.3714316e+1, 98447.195, -222890.52, -7178.819, -0.00040816626, 0.00019383732, 98607.49, 98607.49, 0.0, 2.5004601, 2.4993958 
3.4881598e+2, 7.621372e+1, 97554.84, -223287.61, -7097.4336, -0.0006013642, 0.00021128528, 97711.77, 97711.77, 0.0, 2.5004585, 2.4993958 
3.4881598e+2, 7.871311e+1, 96623.4, -223703.55, -7012.181, -0.00080122263, 0.00022729144, 96776.83, 96776.83, 0.0, 2.5004568, 2.4993958 
3.4881595e+2, 8.1212586e+1, 140704.67, -131981.95, -6402.9263, -0.000038879683, 0.0006513869, 140854.94, 140854.94, 0.0, 2.5004568, 2.4995534 
3.4881595e+2, 8.3712125e+1, 140392.25, -132174.89, -3641.0435, 0.0005010383, 0.00013840522, 140440.88, 140440.88, 0.0, 2.5004563, 2.4995534 
3.4881598e+2, 8.6211675e+1, 140056.44, -132311.23, -3476.2095, 0.0010209307, -0.000382415, 140100.8, 140100.8, 0.0, 2.5004556, 2.4995534 
3.4881598e+2, 8.8711226e+1, 139662.64, -132475.52, -3312.907, 0.001529713, -0.0009012833, 139702.95, 139702.95, 0.0, 2.500455, 2.4995534 
3.4881595e+2, 9.1210866e+1, 183948.44, -41323.31, -2717.6235, -0.002412806, 0.0005797722, 183981.2, 183981.2, 0.0, 2.5004559, 2.4997096 
3.4881598e+2, 9.371057e+1, 183634.69, -42441.344, 442.83328, -0.0014210676, 0.0004002268, 183635.56, 183635.56, 0.0, 2.5004563, 2.4997075 
3.48816e+2, 9.621027e+1, 183682.55, -42377.004, 558.1522, -0.00041431715, 0.00018620669, 183683.94, 183683.94, 0.0, 2.5004563, 2.4997075 
3.4881604e+2, 9.8709977e+1, 183468.3, -42438.89, 664.6779, 0.0005312422, -0.000033219083, 183470.27, 183470.27, 0.0, 2.500456, 2.4997077 
3.5131732e+2, 1.2491423e+0, -175780.47, -853033.1, -1099.4194, 0.00030882662, -0.000007441233, -175778.69, -175778.69, 0.0, 2.500525, 2.4982834 
3.5131732e+2, 3.747427e+0, -176259.9, -853483.94, -1551.8372, 0.0001904822, -0.00002027759, -176256.36, -176256.36, 0.0, 2.5005245, 2.498283 
3.513173e+2, 6.245712e+0, -176587.61, -853615.7, -1927.8717, 0.0000920985, -0.000030385218, -176582.13, -176582.13, 0.0, 2.500524, 2.498283 
3.513173e+2, 8.7439966e+0, -176917.72, -853748.56, -2304.1917, 0.0000136758035, -0.000037764246, -176909.88, -176909.88, 0.0, 2.5005233, 2.498283 
3.513173e+2, 1.1242359e+1, -134566.28, -764625.7, -3973.737, -0.000018613202, 0.00010454626, -134541.22, -134541.22, 0.0, 2.5005221, 2.4984365 
3.5131726e+2, 1.3740797e+1, -134967.19, -764396.94, -5151.9883, 0.00003930961, 0.000040170937, -134925.02, -134925.02, 0.0, 2.500521, 2.4984374 
3.5131726e+2, 1.6239236e+1, -135577.13, -764601.56, -5514.668, 0.00011040034, -0.00002348888, -135528.78, -135528.78, 0.0, 2.5005198, 2.4984374 
3.5131723e+2, 1.8737675e+1, -136188.25, -764806.7, -5877.765, 0.00019459634, -0.00008599598, -136133.3, -136133.3, 0.0, 2.5005188, 2.4984376 
3.513172e+2, 2.1236193e+1, -93835.836, -675000.2, -6603.8057, 0.00019074843, 0.000050914983, -93760.805, -93760.805, 0.0, 2.5005167, 2.4985926 
3.5131717e+2, 2.3734787e+1, -94591.56, -674749.8, -8238.742, 0.00010340734, -0.0000046333244, -94474.59, -94474.59, 0.0, 2.5005147, 2.498594 
3.5131714e+2, 2.623338e+1, -95654.734, -675137.44, -8559.515, 0.000028793007, -0.000053099513, -95528.33, -95528.33, 0.0, 2.5005128, 2.4985943 
3.513171e+2, 2.8731978e+1, -96719.65, -675525.94, -8881.165, -0.000033108732, -0.00009350049, -96583.414, -96583.414, 0.0, 2.500511, 2.4985945 
3.5131708e+2, 3.1230652e+1, -54337.55, -584796.44, -8783.147, -0.000059650232, 0.00014969042, -54192.164, -54192.164, 0.0, 2.500508, 2.4987516 
3.5131705e+2, 3.3729404e+1, -55391.805, -584531.3, -10580.098, -0.000002002572, 0.00007438277, -55180.34, -55180.34, 0.0, 2.5005054, 2.4987533 
3.5131702e+2, 3.6228162e+1, -56837.23, -585080.9, -10877.524, 0.00006595567, 0.0000054928987, -56613.336, -56613.336, 0.0, 2.5005026, 2.4987535 
3.5131696e+2, 3.8726914e+1, -58283.94, -585631.06, -11176.062, 0.00014407297, -0.000054798427, -58047.195, -58047.195, 0.0, 2.5005, 2.498754 
3.5131693e+2, 4.122575e+1, -15883.181, -494512.66, -10586.354, 0.000043154872, 0.00019192554, -15649.1455, -15649.1455, 0.0, 2.5004969, 2.4989119 
3.513169e+2, 4.372466e+1, -17054.645, -494216.0, -12031.639, 0.00005099022, 0.000016811047, -16751.459, -16751.459, 0.0, 2.5004938, 2.4989138 
3.5131684e+2, 4.6223572e+1, -18670.582, -494844.0, -12238.835, 0.00007440192, -0.00015418367, -18356.22, -18356.22, 0.0, 2.500491, 2.4989142 
3.513168e+2, 4.8722485e+1, -20288.447, -495472.9, -12447.221, 0.00011213793, -0.00031771974, -19962.621, -19962.621, 0.0, 2.500488, 2.4989145 
3.5131678e+2, 5.1221484e+1, 22280.707, -403844.8, -11461.032, -0.0001121881, 0.00006505509, 22588.738, 22588.738, 0.0, 2.5004845, 2.4990733 
3.5131672e+2, 5.372056e+1, 20928.234, -403537.97, -12223.554, -0.000077901925, 0.000032245254, 21279.95, 21279.95, 0.0, 2.5004811, 2.4990754 
3.513167e+2, 5.621963e+1, 19055.152, -404312.9, -12398.698, -0.000026649079, 0.0000022418749, 19417.947, 19417.947, 0.0, 2.5004778, 2.499076 
3.5131666e+2, 5.8718705e+1, 17180.148, -405088.75, -12574.998, 0.000038639373, -0.000019601363, 17554.297, 17554.297, 0.0, 2.5004745, 2.4990761 
3.5131663e+2, 6.121786e+1, 59871.566, -313351.53, -11660.732, -0.000090649344, 0.0003781521, 60235.53, 60235.53, 0.0, 2.500471, 2.4992352 
3.513166e+2, 6.37171e+1, 58460.27, -313254.2, -11331.3, 0.00013942977, 0.000055701956, 58805.37, 58805.37, 0.0, 2.500468, 2.4992368 
3.5131657e+2, 6.621633e+1, 56620.98, -314042.56, -11409.651, 0.00038666796, -0.00027015878, 56971.855, 56971.855, 0.0, 2.5004647, 2.499237 
3.5131654e+2, 6.871556e+1, 54779.625, -314831.94, -11489.25, 0.0006475766, -0.0005923102, 55136.42, 55136.42, 0.0, 2.5004613, 2.4992373 
3.5131648e+2, 7.1214885e+1, 97680.58, -223261.16, -10687.501, -0.00009188774, 0.00003431329, 98036.08, 98036.08, 0.0, 2.5004587, 2.4993958 
3.5131648e+2, 7.371428e+1, 96324.35, -223458.97, -9183.653, -0.00029873237, 0.000061712395, 96587.875, 96587.875, 0.0, 2.5004559, 2.4993968 
3.5131642e+2, 7.6213676e+1, 94703.89, -224195.92, -9192.509, -0.0004746798, 0.00008252192, 94968.66, 94968.66, 0.0, 2.5004532, 2.4993968 
3.5131642e+2, 7.871307e+1, 93080.56, -224934.25, -9201.898, -0.00063071423, 0.00010761801, 93346.6, 93346.6, 0.0, 2.5004504, 2.499397 
3.513164e+2, 8.1212556e+1, 136372.6, -133276.67, -8478.779, 0.000156184, 0.0005151568, 136638.94, 136638.94, 0.0, 2.5004485, 2.499555 
3.513164e+2, 8.3712095e+1, 134934.88, -134129.73, -5968.339, 0.0007343266, 0.000034332264, 135067.2, 135067.2, 0.0, 2.500446, 2.4995549 
3.5131642e+2, 8.6211646e+1, 133600.97, -134748.52, -5957.15, 0.0013235306, -0.000456522, 133733.16, 133733.16, 0.0, 2.500444, 2.4995549 
3.5131642e+2, 8.8711196e+1, 132261.5, -135369.98, -5946.339, 0.0019324978, -0.00094821904, 132393.56, 132393.56, 0.0, 2.5004416, 2.4995549 
3.5131636e+2, 9.121085e+1, 175810.7, -44324.176, -5115.1353, -0.001966181, 0.00039558363, 175929.5, 175929.5, 0.0, 2.5004408, 2.4997115 
3.5131642e+2, 9.371055e+1, 174661.39, -45991.715, -2091.4404, -0.0009646184, 0.00028745792, 174681.2, 174681.2, 0.0, 2.5004401, 2.4997091 
3.5131648e+2, 9.6210253e+1, 174202.06, -46196.727, -2016.4523, 0.00015100742, 0.0001318191, 174220.52, 174220.52, 0.0, 2.5004394, 2.4997091 
3.513165e+2, 9.870995e+1, 173732.98, -46406.44, -1939.4675, 0.0013047511, -0.00004529732, 173750.06, 173750.06, 0.0, 2.5004385, 2.4997091 
3.5381785e+2, 1.2491411e+0, -176460.67, -854446.94, -1200.4768, 0.00012484609, -0.000007018596, -176458.55, -176458.55, 0.0, 2.500525, 2.498281 
3.5381785e+2, 3.7474233e+0, -176928.36, -854874.6, -1645.0847, 0.0000785797, -0.000019107169, -176924.38, -176924.38, 0.0, 2.5005245, 2.4982805 
3.5381785e+2, 6.2457055e+0, -177253.6, -855002.5, -2017.4264, 0.000041457974, -0.000028597015, -177247.6, -177247.6, 0.0, 2.500524, 2.4982805 
3.5381782e+2, 8.743988e+0, -177581.23, -855131.5, -2390.0532, 0.000013481165, -0.000035488258, -177572.81, -177572.81, 0.0, 2.5005233, 2.4982805 
3.5381782e+2, 1.1242348e+1, -135184.58, -765926.06, -4210.6865, -0.0000011339963, 0.000099539124, -135156.47, -135156.47, 0.0, 2.5005221, 2.498434 
3.538178e+2, 1.3740784e+1, -135590.53, -765711.25, -5327.754, 0.000020685353, 0.000039828206, -135545.48, -135545.48, 0.0, 2.500521, 2.498435 
3.538178e+2, 1.623922e+1, -136200.33, -765918.94, -5687.8657, 0.000049704435, -0.000017989238, -136148.95, -136148.95, 0.0, 2.5005198, 2.4984353 
3.5381776e+2, 1.8737656e+1, -136811.28, -766127.2, -6048.395, 0.00008589694, -0.00007349843, -136753.16, -136753.16, 0.0, 2.5005188, 2.4984355 
3.5381773e+2, 2.1236172e+1, -94326.45, -676073.2, -6987.301, 0.000067542125, 0.00006508691, -94242.54, -94242.54, 0.0, 2.500517, 2.4985907 
3.538177e+2, 2.3734765e+1, -95107.445, -675881.44, -8537.439, 0.00002253157, 0.00002132998, -94981.97, -94981.97, 0.0, 2.5005147, 2.4985921 
3.5381767e+2, 2.6233357e+1, -96167.13, -676267.8, -8855.631, -0.000015231224, -0.00001526945, -96031.984, -96031.984, 0.0, 2.5005128, 2.4985924 
3.5381764e+2, 2.873195e+1, -97228.57, -676655.0, -9174.701, -0.00004580983, -0.00004375999, -97083.336, -97083.336, 0.0, 2.500511, 2.4985926 
3.5381758e+2, 3.1230623e+1, -54750.133, -585756.8, -9296.921, -0.000059550806, 0.00017220895, -54587.41, -54587.41, 0.0, 2.500508, 2.49875 
3.5381752e+2, 3.3729374e+1, -55820.97, -585534.06, -10983.029, -0.000020588106, 0.00007293505, -55593.344, -55593.344, 0.0, 2.5005054, 2.4987516 
3.538175e+2, 3.6228126e+1, -57263.324, -586085.06, -11278.626, 0.000024531178, -0.00001963606, -57022.883, -57022.883, 0.0, 2.5005028, 2.4987519 
3.5381746e+2, 3.8726878e+1, -58706.965, -586636.7, -11575.335, 0.000075716154, -0.000103461956, -58453.285, -58453.285, 0.0, 2.5005002, 2.498752 
3.538174e+2, 4.122571e+1, -16071.84, -495070.6, -11139.752, -0.000009936845, 0.00014459422, -15812.91, -15812.91, 0.0, 2.5004969, 2.498911 
3.5381737e+2, 4.3724623e+1, -17265.004, -494827.75, -12480.681, 0.000009166382, 0.000042673804, -16939.055, -16939.055, 0.0, 2.500494, 2.4989126 
3.538173e+2, 4.6223533e+1, -18877.59, -495457.2, -12685.23, 0.000037653408, -0.000054915094, -18540.184, -18540.184, 0.0, 2.5004911, 2.498913 
3.5381728e+2, 4.8722446e+1, -20492.107, -496087.56, -12890.969, 0.00007448885, -0.00014502778, -20142.955, -20142.955, 0.0, 2.5004883, 2.4989133 
3.5381725e+2, 5.122144e+1, 22239.676, -404165.84, -12038.591, -0.00014911691, 0.00019492475, 22579.287, 22579.287, 0.0, 2.5004847, 2.4990728 
3.538172e+2, 5.3720516e+1, 20828.338, -403989.5, -12736.835, -0.000098379416, 0.00009740205, 21209.87, 21209.87, 0.0, 2.5004814, 2.4990747 
3.5381716e+2, 5.621959e+1, 18958.342, -404765.8, -12909.257, -0.00003609483, 0.0000029517705, 19351.273, 19351.273, 0.0, 2.500478, 2.499075 
3.538171e+2, 5.8718663e+1, 17086.426, -405543.03, -13082.834, 0.000034712662, -0.00008359038, 17491.027, 17491.027, 0.0, 2.5004747, 2.4990752 
3.5381708e+2, 6.121782e+1, 60051.05, -313268.78, -12184.711, -0.00009239799, 0.00028105872, 60448.324, 60448.324, 0.0, 2.5004716, 2.4992352 
3.5381705e+2, 6.3717055e+1, 58581.586, -313300.06, -11834.257, 0.00011910151, 0.000068812275, 58957.8, 58957.8, 0.0, 2.5004683, 2.4992366 
3.5381702e+2, 6.6216284e+1, 56743.875, -314092.63, -11909.537, 0.00034300415, -0.00014672651, 57125.96, 57125.96, 0.0, 2.500465, 2.4992368 
3.53817e+2, 6.8715525e+1, 54904.105, -314886.2, -11986.064, 0.00057590636, -0.00035909368, 55292.203, 55292.203, 0.0, 2.5004618, 2.499237 
3.5381693e+2, 7.121484e+1, 98067.22, -222830.6, -11086.946, -0.00016545168, 0.00020119328, 98449.81, 98449.81, 0.0, 2.5004592, 2.4993963 
3.5381693e+2, 7.371424e+1, 96636.875, -223186.61, -9620.046, -0.00037502282, 0.00015189007, 96925.98, 96925.98, 0.0, 2.5004563, 2.499397 
3.538169e+2, 7.621363e+1, 95018.27, -223923.14, -9626.284, -0.00056037365, 0.00009635941, 95308.55, 95308.55, 0.0, 2.5004535, 2.499397 
3.5381687e+2, 7.871303e+1, 93396.79, -224661.06, -9633.056, -0.0007323669, 0.000044309585, 93688.28, 93688.28, 0.0, 2.5004506, 2.4993973 
3.5381687e+2, 8.121251e+1, 136866.81, -132692.89, -8762.087, 0.00006160112, 0.00042573243, 137151.33, 137151.33, 0.0, 2.500449, 2.499556 
3.5381687e+2, 8.371206e+1, 135356.34, -133702.0, -6325.114, 0.00066196057, 0.00007127209, 135504.95, 135504.95, 0.0, 2.5004466, 2.4995553 
3.5381687e+2, 8.621161e+1, 134024.28, -134320.94, -6308.825, 0.0012607945, -0.00029300142, 134172.52, 134172.52, 0.0, 2.5004444, 2.4995553 
3.5381687e+2, 8.871116e+1, 132686.66, -134942.56, -6292.914, 0.0018668581, -0.0006586049, 132834.53, 132834.53, 0.0, 2.500442, 2.4995556 
3.5381684e+2, 9.12108e+1, 176502.3, -43398.85, -5164.4707, -0.0020182966, 0.00050884456, 176623.52, 176623.52, 0.0, 2.5004416, 2.499713 
3.5381687e+2, 9.371051e+1, 175266.31, -45236.39, -2213.6335, -0.0011035117, 0.0003519501, 175288.53, 175288.53, 0.0, 2.5004406, 2.49971 
3.538169e+2, 9.621021e+1, 174804.05, -45436.527, -2129.4998, -0.000098079, 0.00015561409, 174824.63, 174824.63, 0.0, 2.50044, 2.4997103 
3.5381693e+2, 9.870992e+1, 174332.0, -45641.363, -2043.3694, 0.0009229711, -0.000057471785, 174350.97, 174350.97, 0.0, 2.500439, 2.4997103 
3.5631835e+2, 1.24913976e+0, -177141.6, -855862.3, -1301.4431, -0.000060296286, -0.000007724482, -177139.11, -177139.11, 0.0, 2.500525, 2.4982784 
3.5631835e+2, 3.7474197e+0, -177598.81, -856269.44, -1738.4408, -0.00003680825, -0.000021322314, -177594.36, -177594.36, 0.0, 2.5005245, 2.4982781 
3.5631835e+2, 6.2456995e+0, -177921.58, -856393.44, -2107.0894, -0.00001499158, -0.00003245141, -177915.03, -177915.03, 0.0, 2.500524, 2.4982781 
3.5631832e+2, 8.7439793e+0, -178246.75, -856518.56, -2476.0232, 0.000005153978, -0.000041111896, -178237.7, -178237.7, 0.0, 2.5005233, 2.4982781 
3.5631832e+2, 1.1242336e+1, -135814.3, -767250.1, -4447.3877, 0.000023352448, 0.00009296949, -135782.97, -135782.97, 0.0, 2.5005221, 2.498432 
3.563183e+2, 1.374077e+1, -136215.9, -767029.7, -5503.0005, 0.000008682376, 0.00003383473, -136167.9, -136167.9, 0.0, 2.500521, 2.4984329 
3.563183e+2, 1.6239205e+1, -136825.53, -767240.5, -5860.5444, -0.000004798003, -0.000022249806, -136771.05, -136771.05, 0.0, 2.50052, 2.4984329 
3.5631827e+2, 1.8737638e+1, -137436.34, -767451.9, -6218.506, -0.00001703678, -0.000074870564, -137374.97, -137374.97, 0.0, 2.5005188, 2.498433 
3.5631824e+2, 2.1236151e+1, -94829.445, -677171.9, -7364.636, -0.00006083302, 0.00007367906, -94736.33, -94736.33, 0.0, 2.500517, 2.4985888 
3.563182e+2, 2.3734741e+1, -95625.1, -677016.7, -8835.553, -0.00006591948, 0.00003773799, -95490.86, -95490.86, 0.0, 2.500515, 2.49859 
3.5631818e+2, 2.6233333e+1, -96681.31, -677401.8, -9151.163, -0.00006917667, 0.000008971991, -96537.14, -96537.14, 0.0, 2.500513, 2.4985905 
3.5631815e+2, 2.8731924e+1, -97739.266, -677787.8, -9467.652, -0.00007077805, -0.000011641434, -97584.77, -97584.77, 0.0, 2.500511, 2.4985907 
3.563181e+2, 3.1230596e+1, -55181.01, -586755.2, -9808.695, -0.000051962626, 0.00018560409, -55000.08, -55000.08, 0.0, 2.5005083, 2.498748 
3.5631806e+2, 3.3729345e+1, -56251.465, -586539.7, -11384.883, -0.000032698823, 0.000059519243, -56007.152, -56007.152, 0.0, 2.5005057, 2.4987497 
3.5631803e+2, 3.6228094e+1, -57690.75, -587092.06, -11678.65, -0.000011589604, -0.0000596561, -57433.246, -57433.246, 0.0, 2.500503, 2.4987502 
3.5631797e+2, 3.8726845e+1, -59131.32, -587645.06, -11973.529, 0.000011491957, -0.00016993955, -58860.2, -58860.2, 0.0, 2.5005004, 2.4987504 
3.5631794e+2, 4.1225675e+1, -16278.754, -495666.47, -11686.969, -0.000062848245, 0.00009155004, -15994.007, -15994.007, 0.0, 2.500497, 2.4989097 
3.5631788e+2, 4.3724588e+1, -17476.514, -495441.88, -12928.552, -0.00003365478, 0.000059242564, -17127.063, -17127.063, 0.0, 2.5004942, 2.4989116 
3.5631785e+2, 4.62235e+1, -19085.752, -496072.78, -13130.454, -0.0000012359039, 0.000031341842, -18724.572, -18724.572, 0.0, 2.5004914, 2.4989119 
3.563178e+2, 4.8722407e+1, -20696.92, -496704.6, -13333.545, 0.000033555498, 0.000010934894, -20323.725, -20323.725, 0.0, 2.5004883, 2.498912 
3.5631773e+2, 5.1221406e+1, 22178.58, -404528.53, -12610.946, -0.00018083963, 0.0003172303, 22550.96, 22550.96, 0.0, 2.500485, 2.499072 
3.563177e+2, 5.3720474e+1, 20727.4, -404443.2, -13248.984, -0.00011396559, 0.00015053901, 21139.86, 21139.86, 0.0, 2.5004816, 2.4990737 
3.5631764e+2, 5.621955e+1, 18860.492, -405220.88, -13418.684, -0.000041066993, -0.000012935618, 19284.658, 19284.658, 0.0, 2.5004783, 2.499074 
3.563176e+2, 5.871862e+1, 16991.662, -405999.47, -13589.538, 0.00003484181, -0.00016875411, 17427.807, 17427.807, 0.0, 2.500475, 2.4990742 
3.5631755e+2, 6.121778e+1, 60195.555, -313258.75, -12703.598, -0.00009676437, 0.00018719412, 60627.188, 60627.188, 0.0, 2.5004718, 2.499235 
3.563175e+2, 6.371701e+1, 58701.6, -313348.66, -12335.741, 0.00009799956, 0.00007959828, 59110.16, 59110.16, 0.0, 2.5004685, 2.4992363 
3.5631746e+2, 6.621625e+1, 56865.477, -314145.4, -12407.951, 0.00030048878, -0.000031518826, 57279.98, 57279.98, 0.0, 2.5004654, 2.4992366 
3.5631743e+2, 6.8715477e+1, 55027.285, -314943.13, -12481.407, 0.00050730683, -0.00014000191, 55447.883, 55447.883, 0.0, 2.500462, 2.4992368 
3.5631737e+2, 7.1214795e+1, 98430.29, -222449.0, -11478.081, -0.00023494581, 0.0003684056, 98840.34, 98840.34, 0.0, 2.5004597, 2.4993968 
3.5631737e+2, 7.3714197e+1, 96948.76, -222915.58, -10055.8955, -0.00044675978, 0.00023949794, 97264.586, 97264.586, 0.0, 2.5004568, 2.4993973 
3.5631734e+2, 7.6213586e+1, 95332.01, -223651.69, -10059.516, -0.0006410391, 0.0001044858, 95648.93, 95648.93, 0.0, 2.500454, 2.4993975 
3.563173e+2, 7.871298e+1, 93712.38, -224389.2, -10063.669, -0.00082851644, -0.000027851209, 94030.445, 94030.445, 0.0, 2.500451, 2.4993975 
3.5631728e+2, 8.121246e+1, 137336.48, -132160.11, -9037.696, -0.000029424918, 0.0003387957, 137639.23, 137639.23, 0.0, 2.5004494, 2.4995568 
3.5631728e+2, 8.371201e+1, 135776.86, -133276.22, -6681.489, 0.0005918588, 0.00010642069, 135942.69, 135942.69, 0.0, 2.500447, 2.4995558 
3.563173e+2, 8.621157e+1, 134446.63, -133895.33, -6660.1, 0.0011990571, -0.00013575243, 134611.83, 134611.83, 0.0, 2.500445, 2.4995558 
3.563173e+2, 8.871112e+1, 133110.84, -134517.11, -6639.089, 0.0018009514, -0.00037974268, 133275.44, 133275.44, 0.0, 2.5004425, 2.499556 
3.5631725e+2, 9.1210765e+1, 177166.33, -42530.797, -5208.587, -0.002050716, 0.0006424687, 177289.73, 177289.73, 0.0, 2.500442, 2.4997141 
3.5631728e+2, 9.371047e+1, 175870.28, -44483.1, -2337.9775, -0.0012281333, 0.0004313885, 175895.08, 175895.08, 0.0, 2.500441, 2.4997113 
3.563173e+2, 9.6210176e+1, 175405.03, -44678.355, -2244.6982, -0.0003385919, 0.00018840487, 175427.92, 175427.92, 0.0, 2.5004404, 2.4997113 
3.5631734e+2, 9.8709875e+1, 174930.03, -44878.316, -2149.422, 0.00054406637, -0.00006660089, 174951.05, 174951.05, 0.0, 2.5004394, 2.4997113 
3.588189e+2, 1.2491386e+0, -175845.97, -856329.56, -1424.2616, -0.00023756799, -0.00000938566, -175843.0, -175843.0, 0.0, 2.5005286, 2.498276 
3.588189e+2, 3.7474158e+0, -176226.98, -856686.8, -1900.4534, -0.00014791074, -0.00002642968, -176221.69, -176221.69, 0.0, 2.500528, 2.4982758 
3.588189e+2, 6.245693e+0, -176580.6, -856823.2, -2315.325, -0.000069571586, -0.000041170042, -176572.72, -176572.72, 0.0, 2.5005274, 2.4982758 
3.588189e+2, 8.74397e+0, -177036.94, -857009.06, -2733.6846, -0.000002550651, -0.000053606836, -177025.95, -177025.95, 0.0, 2.5005267, 2.4982758 
3.5881886e+2, 1.12423256e+1, -134721.95, -767766.3, -4903.7397, 0.00006375295, 0.00008603235, -134683.97, -134683.97, 0.0, 2.5005252, 2.4984295 
3.5881883e+2, 1.3740756e+1, -135225.3, -767576.44, -5937.9766, 0.000010955716, 0.000023503115, -135169.55, -135169.55, 0.0, 2.5005238, 2.4984305 
3.5881883e+2, 1.6239187e+1, -135997.81, -767868.94, -6332.1206, -0.00004622821, -0.00003487481, -135934.36, -135934.36, 0.0, 2.5005224, 2.4984307 
3.588188e+2, 1.873762e+1, -136819.1, -768184.9, -6725.503, -0.00010762734, -0.00008866742, -136747.45, -136747.45, 0.0, 2.500521, 2.4984307 
3.5881877e+2, 2.1236129e+1, -94329.266, -677810.25, -8109.46, -0.00018821644, 0.000078199955, -94216.58, -94216.58, 0.0, 2.5005186, 2.498587 
3.5881874e+2, 2.3734719e+1, -95357.07, -677779.56, -9539.944, -0.00015636563, 0.00004618648, -95200.85, -95200.85, 0.0, 2.5005164, 2.498588 
3.588187e+2, 2.623331e+1, -96667.52, -678287.7, -9884.925, -0.00012754467, 0.000021234804, -96499.57, -96499.57, 0.0, 2.500514, 2.4985883 
3.5881862e+2, 2.8731897e+1, -98009.37, -678810.9, -10229.518, -0.00010209807, 0.0000044067606, -97829.25, -97829.25, 0.0, 2.5005114, 2.4985886 
3.588186e+2, 3.1230566e+1, -55656.44, -587805.4, -10796.971, -0.00003115023, 0.0001913004, -55437.47, -55437.47, 0.0, 2.5005083, 2.4987464 
3.5881856e+2, 3.3729312e+1, -56945.906, -587675.5, -12249.715, -0.000033410513, 0.000035356232, -56663.32, -56663.32, 0.0, 2.5005052, 2.498748 
3.588185e+2, 3.622806e+1, -58632.867, -588349.9, -12522.953, -0.000037859256, -0.000113660324, -58336.98, -58336.98, 0.0, 2.500502, 2.4987483 
3.5881844e+2, 3.8726807e+1, -60335.535, -589031.9, -12793.038, -0.000043995242, -0.00025374794, -60026.16, -60026.16, 0.0, 2.500499, 2.4987485 
3.588184e+2, 4.122564e+1, -17501.264, -496779.78, -12613.123, -0.00011151012, 0.000032596356, -17169.555, -17169.555, 0.0, 2.5004957, 2.4989085 
3.5881835e+2, 4.372455e+1, -18862.605, -496622.75, -13711.229, -0.00007436761, 0.00006551099, -18469.43, -18469.43, 0.0, 2.5004923, 2.4989104 
3.5881832e+2, 4.6223462e+1, -20670.26, -497352.22, -13859.167, -0.00003943851, 0.000102753394, -20267.656, -20267.656, 0.0, 2.5004892, 2.4989107 
3.5881826e+2, 4.872237e+1, -22505.563, -498095.03, -14006.108, -0.0000074301347, 0.00014748992, -22093.44, -22093.44, 0.0, 2.500486, 2.498911 
3.588182e+2, 5.1221365e+1, 20349.645, -405772.3, -13347.77, -0.00020416777, 0.00042864098, 20767.338, 20767.338, 0.0, 2.5004823, 2.4990711 
3.5881817e+2, 5.372043e+1, 18836.418, -405758.1, -13860.407, -0.00012205676, 0.00018781211, 19288.395, 19288.395, 0.0, 2.500479, 2.4990728 
3.588181e+2, 5.6219506e+1, 16923.299, -406560.72, -13954.759, -0.00003891747, -0.000049884864, 17382.64, 17382.64, 0.0, 2.5004754, 2.499073 
3.5881805e+2, 5.8718574e+1, 15000.155, -407368.16, -14046.886, 0.000042346866, -0.00028028458, 15466.803, 15466.803, 0.0, 2.500472, 2.4990733 
3.5881802e+2, 6.121773e+1, 58445.973, -314213.1, -13088.757, -0.00010036577, 0.00009050729, 58905.117, 58905.117, 0.0, 2.500469, 2.4992347 
3.58818e+2, 6.3716966e+1, 57097.07, -314226.03, -12626.091, 0.000078879086, 0.00008125499, 57525.902, 57525.902, 0.0, 2.5004659, 2.499236 
3.5881793e+2, 6.62162e+1, 55389.363, -314965.56, -12611.601, 0.00026188907, 0.00006798697, 55818.33, 55818.33, 0.0, 2.500463, 2.4992363 
3.588179e+2, 6.871544e+1, 53670.527, -315710.5, -12595.725, 0.00044519504, 0.000056898807, 54099.535, 54099.535, 0.0, 2.50046, 2.4992366 
3.5881785e+2, 7.121476e+1, 97561.836, -222690.78, -11385.465, -0.00029642245, 0.0005273862, 97966.09, 97966.09, 0.0, 2.500458, 2.499397 
3.5881782e+2, 7.371415e+1, 96463.8, -223021.77, -9913.813, -0.0005096191, 0.00031559312, 96771.13, 96771.13, 0.0, 2.5004559, 2.4993975 
3.5881782e+2, 7.6213545e+1, 95219.76, -223578.66, -9811.444, -0.000711294, 0.00009765689, 95521.44, 95521.44, 0.0, 2.5004537, 2.4993978 
3.588178e+2, 7.8712934e+1, 93931.9, -224156.66, -9708.14, -0.0009120411, -0.000118331554, 94227.914, 94227.914, 0.0, 2.5004513, 2.4993978 
3.5881776e+2, 8.121242e+1, 138195.66, -131467.84, -8398.247, -0.000109264176, 0.0002446675, 138456.95, 138456.95, 0.0, 2.5004506, 2.4995573 
3.5881776e+2, 8.3711976e+1, 137268.02, -132325.31, -5998.419, 0.00053161517, 0.00012993443, 137401.4, 137401.4, 0.0, 2.5004494, 2.4995563 
3.5881776e+2, 8.6211526e+1, 136493.72, -132677.81, -5845.135, 0.0011475675, 0.0000052954715, 136620.6, 136620.6, 0.0, 2.500448, 2.4995565 
3.5881776e+2, 8.871108e+1, 135610.38, -133082.84, -5697.078, 0.001747373, -0.000121568206, 135731.13, 135731.13, 0.0, 2.5004466, 2.4995565 
3.5881773e+2, 9.121072e+1, 180514.73, -40400.13, -3829.0767, -0.0020487087, 0.0007869808, 180581.08, 180581.08, 0.0, 2.5004473, 2.4997153 
3.5881776e+2, 9.371043e+1, 179874.7, -42080.51, -911.83136, -0.00132263, 0.00051693054, 179878.45, 179878.45, 0.0, 2.5004475, 2.4997122 
3.588178e+2, 9.6210134e+1, 179781.0, -42091.207, -681.3181, -0.0005511803, 0.00022152766, 179783.1, 179783.1, 0.0, 2.5004473, 2.4997122 
3.5881782e+2, 9.870984e+1, 179362.4, -42258.363, -454.8961, 0.00019326921, -0.0000816228, 179363.33, 179363.33, 0.0, 2.5004466, 2.4997125 
3.6131942e+2, 1.24913715e+0, -171702.14, -855602.75, -1495.939, -0.000011478358, -0.00000535095, -171698.86, -171698.86, 0.0, 2.500537, 2.4982731 
3.6131942e+2, 3.7474114e+0, -172030.75, -855929.8, -1973.7306, 0.000040014875, -0.000015697882, -172025.05, -172025.05, 0.0, 2.5005367, 2.498273 
3.613194e+2, 6.245686e+0, -172239.38, -856003.25, -2392.0396, 0.000116512856, -0.000025570987, -172231.02, -172231.02, 0.0, 2.5005362, 2.498273 
3.613194e+2, 8.74396e+0, -172450.7, -856078.0, -2810.555, 0.00021801588, -0.000034970388, -172439.16, -172439.16, 0.0, 2.5005357, 2.498273 
3.613194e+2, 1.1242312e+1, -129999.484, -766692.44, -5169.167, 0.000295439, 0.00010526205, -129957.52, -129957.52, 0.0, 2.5005345, 2.498427 
3.6131936e+2, 1.374074e+1, -130704.37, -766606.94, -6158.1426, 0.00020089529, 0.00005165718, -130644.734, -130644.734, 0.0, 2.5005329, 2.4984279 
3.6131933e+2, 1.623917e+1, -131627.55, -766971.94, -6560.002, 0.00011541682, 0.0000010993584, -131559.81, -131559.81, 0.0, 2.5005312, 2.4984279 
3.613193e+2, 1.8737598e+1, -132553.0, -767338.06, -6962.413, 0.000039190963, -0.000045991255, -132476.64, -132476.64, 0.0, 2.5005295, 2.498428 
3.6131927e+2, 2.1236107e+1, -90130.96, -676837.9, -8576.89, -0.00005091133, 0.00012826546, -90005.61, -90005.61, 0.0, 2.500527, 2.4985845 
3.6131924e+2, 2.3734693e+1, -91229.49, -676843.5, -9942.027, -0.000029092378, 0.0000871169, -91060.76, -91060.76, 0.0, 2.5005245, 2.4985857 
3.613192e+2, 2.623328e+1, -92579.86, -677372.3, -10300.301, 0.000004430884, 0.00004974236, -92398.484, -92398.484, 0.0, 2.5005221, 2.498586 
3.6131915e+2, 2.8731868e+1, -93931.734, -677901.9, -10659.578, 0.000049329385, 0.000017251623, -93737.22, -93737.22, 0.0, 2.5005198, 2.4985862 
3.6131912e+2, 3.1230533e+1, -51505.582, -586583.94, -11431.934, 0.00014152989, 0.00019057567, -51261.453, -51261.453, 0.0, 2.5005162, 2.4987445 
3.6131907e+2, 3.372928e+1, -52922.086, -586524.94, -12774.132, 0.00009907508, 0.000050129685, -52616.453, -52616.453, 0.0, 2.500513, 2.4987462 
3.6131904e+2, 3.6228025e+1, -54712.527, -587244.56, -13051.408, 0.00006721772, -0.00008678075, -54392.85, -54392.85, 0.0, 2.5005097, 2.4987466 
3.6131898e+2, 3.8726768e+1, -56504.387, -587964.94, -13329.797, 0.000046691766, -0.00021825131, -56170.266, -56170.266, 0.0, 2.5005066, 2.4987469 
3.6131892e+2, 4.1225597e+1, -13799.76, -495527.7, -13352.172, -0.00003152169, 0.00004945884, -13429.959, -13429.959, 0.0, 2.5005026, 2.4989073 
3.613189e+2, 4.3724507e+1, -15578.823, -495573.7, -14461.292, -0.000009706952, 0.000051920855, -15143.528, -15143.528, 0.0, 2.5004985, 2.4989092 
3.6131883e+2, 4.622342e+1, -17776.783, -496490.3, -14712.916, 0.00002972306, 0.00005804895, -17325.02, -17325.02, 0.0, 2.5004947, 2.4989095 
3.6131877e+2, 4.8722327e+1, -19976.932, -497408.0, -14965.763, 0.00008611703, 0.000070955706, -19508.268, -19508.268, 0.0, 2.5004907, 2.49891 
3.613187e+2, 5.1221323e+1, 22643.354, -404835.94, -14451.833, -0.00008561205, 0.00031316018, 23131.371, 23131.371, 0.0, 2.5004864, 2.499071 
3.6131865e+2, 5.372039e+1, 20696.773, -405053.66, -14905.186, -0.00003658795, 0.00007373098, 21217.953, 21217.953, 0.0, 2.5004823, 2.4990723 
3.6131862e+2, 5.621946e+1, 18376.06, -406048.66, -15008.253, 0.000032071803, -0.00016434063, 18906.111, 18906.111, 0.0, 2.5004783, 2.4990726 
3.6131853e+2, 5.8718526e+1, 16053.182, -407044.72, -15112.595, 0.00011777041, -0.00039715462, 16592.3, 16592.3, 0.0, 2.500474, 2.499073 
3.6131847e+2, 6.1217684e+1, 59139.54, -313799.7, -14157.289, -0.000037361653, -0.000056917124, 59676.195, 59676.195, 0.0, 2.5004702, 2.499235 
3.6131844e+2, 6.371692e+1, 57085.03, -314174.03, -13757.832, 0.00012421916, -0.00006792012, 57594.16, 57594.16, 0.0, 2.5004659, 2.4992363 
3.6131838e+2, 6.621616e+1, 54696.84, -315236.22, -13820.61, 0.000310143, -0.000078654455, 55212.453, 55212.453, 0.0, 2.5004616, 2.4992366 
3.6131835e+2, 6.8715394e+1, 52306.098, -316299.63, -13884.315, 0.00051685754, -0.000083258376, 52828.34, 52828.34, 0.0, 2.5004575, 2.4992366 
3.613183e+2, 7.121471e+1, 95539.766, -223191.83, -12595.335, -0.00016727383, 0.00032265633, 96036.72, 96036.72, 0.0, 2.500454, 2.4993982 
3.6131826e+2, 7.37141e+1, 93407.586, -224070.6, -11239.844, -0.0003578538, 0.00008664543, 93805.016, 93805.016, 0.0, 2.5004501, 2.4993985 
3.6131823e+2, 7.62135e+1, 91204.414, -225084.88, -11212.765, -0.000517591, -0.00015196048, 91601.42, 91601.42, 0.0, 2.5004463, 2.4993987 
3.613182e+2, 7.87129e+1, 88997.41, -226101.0, -11186.608, -0.000656603, -0.00038587028, 89394.055, 89394.055, 0.0, 2.5004425, 2.4993987 
3.613182e+2, 8.121238e+1, 132467.67, -133479.11, -9681.306, 0.00009983086, -0.00004029378, 132819.64, 132819.64, 0.0, 2.50044, 2.499559 
3.613182e+2, 8.3711934e+1, 130598.91, -134829.56, -7416.464, 0.00069248443, -0.000106045314, 130805.97, 130805.97, 0.0, 2.5004373, 2.499558 
3.613182e+2, 8.6211485e+1, 129010.375, -135577.1, -7311.247, 0.0013135503, -0.00017891465, 129212.25, 129212.25, 0.0, 2.5004344, 2.499558 
3.613182e+2, 8.871105e+1, 127415.73, -136327.58, -7206.036, 0.0019711838, -0.00025171076, 127612.47, 127612.47, 0.0, 2.5004318, 2.499558 
3.6131814e+2, 9.1210693e+1, 171393.23, -43836.81, -5067.342, -0.0015968292, 0.0005481646, 171512.47, 171512.47, 0.0, 2.5004306, 2.4997175 
3.6131817e+2, 9.37104e+1, 169578.95, -46117.133, -2376.4668, -0.0008505653, 0.00029569305, 169605.13, 169605.13, 0.0, 2.500429, 2.4997144 
3.613182e+2, 9.6210104e+1, 168635.69, -46553.184, -2284.3262, 0.00000647319, 0.0000039044176, 168659.94, 168659.94, 0.0, 2.5004272, 2.4997144 
3.6131823e+2, 9.870981e+1, 167679.48, -46995.465, -2190.6477, 0.0009050067, -0.00031200395, 167701.84, 167701.84, 0.0, 2.5004256, 2.4997144 
3.6382e+2, 1.2491357e+0, -172459.39, -857176.6, -1566.8212, -0.0000086772625, -0.0000066363878, -172455.8, -172455.8, 0.0, 2.500537, 2.4982705 
3.6381996e+2, 3.7474072e+0, -172779.73, -857487.6, -2034.2914, 0.000012948022, -0.00001919738, -172773.7, -172773.7, 0.0, 2.5005367, 2.49827 
3.6381996e+2, 6.2456787e+0, -172988.08, -857561.6, -2448.216, 0.000045916306, -0.000030808813, -172979.33, -172979.33, 0.0, 2.5005362, 2.4982703 
3.6381996e+2, 8.74395e+0, -173199.11, -857636.94, -2862.347, 0.000090227884, -0.00004147081, -173187.14, -173187.14, 0.0, 2.5005357, 2.4982703 
3.6381993e+2, 1.12423e+1, -130684.31, -768133.75, -5473.533, 0.00012258174, 0.000087241446, -130637.31, -130637.31, 0.0, 2.5005345, 2.4984243 
3.638199e+2, 1.3740726e+1, -131408.22, -768091.5, -6415.77, 0.00007587761, 0.00004765032, -131343.58, -131343.58, 0.0, 2.5005329, 2.4984252 
3.6381987e+2, 1.6239151e+1, -132329.67, -768456.7, -6813.8286, 0.00002938537, 0.000011644043, -132256.7, -132256.7, 0.0, 2.5005312, 2.4984255 
3.6381984e+2, 1.8737577e+1, -133253.4, -768822.94, -7212.439, -0.00001681258, -0.00002039973, -133171.58, -133171.58, 0.0, 2.5005295, 2.4984255 
3.638198e+2, 2.1236084e+1, -90737.07, -678154.0, -9036.789, -0.000054283682, 0.00014948432, -90598.086, -90598.086, 0.0, 2.5005271, 2.4985824 
3.6381978e+2, 2.3734666e+1, -91825.11, -678143.1, -10315.331, -0.000041028532, 0.000079188496, -91643.68, -91643.68, 0.0, 2.5005245, 2.4985836 
3.6381972e+2, 2.6233253e+1, -93174.33, -678674.7, -10671.256, -0.000021670356, 0.000013259683, -92979.9, -92979.9, 0.0, 2.5005221, 2.4985838 
3.6381966e+2, 2.8731835e+1, -94525.06, -679207.0, -11028.185, 0.0000036988158, -0.000047166075, -94317.125, -94317.125, 0.0, 2.5005198, 2.498584 
3.6381963e+2, 3.12305e+1, -51882.785, -587472.1, -12033.594, 0.00008257324, 0.000119758224, -51612.55, -51612.55, 0.0, 2.5005164, 2.498743 
3.6381957e+2, 3.3729243e+1, -53329.395, -587481.75, -13263.939, 0.000039537957, 0.000049161292, -53000.23, -53000.23, 0.0, 2.500513, 2.4987445 
3.638195e+2, 3.622799e+1, -55118.418, -588204.4, -13539.274, 0.0000029491066, -0.00001684572, -54774.77, -54774.77, 0.0, 2.50051, 2.4987447 
3.6381945e+2, 3.8726735e+1, -56908.86, -588927.7, -13815.723, -0.000026477357, -0.000076553246, -56550.33, -56550.33, 0.0, 2.5005066, 2.4987452 
3.6381942e+2, 4.1225564e+1, -14101.036, -496321.9, -14038.271, -0.00009325134, 0.00016921693, -13692.704, -13692.704, 0.0, 2.5005028, 2.498906 
3.6381936e+2, 4.3724468e+1, -15887.952, -496391.1, -15057.784, -0.00003847008, 0.00009489998, -15416.541, -15416.541, 0.0, 2.5004988, 2.4989078 
3.638193e+2, 4.6223372e+1, -18084.234, -497310.78, -15306.621, 0.000027189675, 0.000025402276, -17595.834, -17595.834, 0.0, 2.500495, 2.498908 
3.6381924e+2, 4.8722282e+1, -20282.705, -498231.53, -15556.68, 0.00010306475, -0.00003634178, -19776.889, -19776.889, 0.0, 2.500491, 2.4989083 
3.6381918e+2, 5.1221275e+1, 22656.15, -405038.22, -15154.464, -0.000039028102, 0.00019713373, 23192.445, 23192.445, 0.0, 2.5004866, 2.4990704 
3.6381912e+2, 5.3720343e+1, 20702.967, -405276.63, -15532.263, -0.000028862583, 0.000060164613, 21268.56, 21268.56, 0.0, 2.5004826, 2.4990718 
3.6381906e+2, 5.621941e+1, 18384.03, -406274.56, -15632.218, -0.000006264994, -0.000074633135, 18958.693, 18958.693, 0.0, 2.5004785, 2.499072 
3.63819e+2, 5.8718485e+1, 16062.924, -407273.53, -15733.446, 0.000026601083, -0.00020356406, 16646.857, 16646.857, 0.0, 2.5004742, 2.4990723 
3.6381894e+2, 6.121764e+1, 59312.12, -313741.56, -14807.221, -0.00014551461, 0.000107344764, 59898.926, 59898.926, 0.0, 2.5004704, 2.499235 
3.638189e+2, 6.371687e+1, 57218.406, -314204.0, -14397.1045, 0.00004449105, 0.000047538546, 57775.633, 57775.633, 0.0, 2.500466, 2.499236 
3.6381885e+2, 6.621611e+1, 54831.824, -315268.84, -14456.584, 0.0002518605, -0.000010938692, 55395.656, 55395.656, 0.0, 2.500462, 2.4992363 
3.6381882e+2, 6.8715346e+1, 52442.69, -316334.9, -14516.991, 0.00047295174, -0.00006295157, 53013.273, 53013.273, 0.0, 2.5004578, 2.4992363 
3.6381876e+2, 7.121466e+1, 95931.18, -222745.66, -13151.347, -0.00013826226, 0.00028413063, 96473.0, 96473.0, 0.0, 2.5004544, 2.4993987 
3.6381873e+2, 7.371406e+1, 93767.18, -223697.42, -11824.714, -0.00030689055, 0.00010225932, 94207.01, 94207.01, 0.0, 2.5004506, 2.499399 
3.638187e+2, 7.6213455e+1, 91566.734, -224712.3, -11793.507, -0.0004563611, -0.000081873506, 92005.88, 92005.88, 0.0, 2.5004466, 2.4993992 
3.6381868e+2, 7.871285e+1, 89362.445, -225729.03, -11763.224, -0.0005960091, -0.00026182702, 89800.99, 89800.99, 0.0, 2.5004427, 2.4993992 
3.6381865e+2, 8.1212336e+1, 133056.17, -132691.7, -10034.402, 0.000035307865, 0.00006213732, 133434.52, 133434.52, 0.0, 2.5004404, 2.49956 
3.6381865e+2, 8.371189e+1, 131169.5, -134082.14, -7836.227, 0.0005268557, -0.000009991654, 131400.8, 131400.8, 0.0, 2.5004377, 2.499559 
3.6381865e+2, 8.621145e+1, 129583.18, -134827.14, -7724.7393, 0.001030007, -0.000088551555, 129808.664, 129808.664, 0.0, 2.5004349, 2.4995592 
3.6381865e+2, 8.8711005e+1, 127990.74, -135575.08, -7613.2573, 0.0015517529, -0.00016701745, 128210.47, 128210.47, 0.0, 2.5004323, 2.4995592 
3.638186e+2, 9.1210645e+1, 172054.77, -42990.902, -5251.6836, -0.0017660912, 0.000494744, 172182.95, 172182.95, 0.0, 2.500431, 2.4997187 
3.6381862e+2, 9.3710357e+1, 170244.75, -45255.742, -2623.4956, -0.00094282307, 0.00028816154, 170276.67, 170276.67, 0.0, 2.5004294, 2.4997156 
3.6381865e+2, 9.621007e+1, 169299.86, -45686.99, -2517.8416, -0.000048946757, 0.000047058813, 169329.33, 169329.33, 0.0, 2.5004277, 2.4997156 
3.6381868e+2, 9.870978e+1, 168342.02, -46124.47, -2410.6494, 0.00085079897, -0.0002158435, 168369.11, 168369.11, 0.0, 2.500426, 2.4997156 
3.663205e+2, 1.2491343e+0, -173217.38, -858752.0, -1637.7139, -0.000006131873, -0.0000089661735, -173213.47, -173213.47, 0.0, 2.500537, 2.498268 
3.663205e+2, 3.747403e+0, -173530.69, -859049.56, -2094.689, -0.000014885915, -0.000025829922, -173524.28, -173524.28, 0.0, 2.5005367, 2.4982674 
3.663205e+2, 6.2456715e+0, -173738.73, -859124.06, -2504.2292, -0.000025958649, -0.00004126838, -173729.58, -173729.58, 0.0, 2.5005362, 2.4982674 
3.6632046e+2, 8.7439406e+0, -173949.47, -859199.9, -2913.9758, -0.000039349772, -0.000055281664, -173937.08, -173937.08, 0.0, 2.5005357, 2.4982677 
3.6632046e+2, 1.12422876e+1, -131379.25, -769596.1, -5775.372, -0.000049764756, 0.000067392444, -131326.98, -131326.98, 0.0, 2.5005345, 2.498422 
3.6632043e+2, 1.3740711e+1, -132114.11, -769580.4, -6673.047, -0.000049912313, 0.000037543014, -132044.27, -132044.27, 0.0, 2.5005329, 2.4984226 
3.663204e+2, 1.6239133e+1, -133033.84, -769945.6, -7067.3047, -0.000058706206, 0.00001179621, -132955.44, -132955.44, 0.0, 2.5005312, 2.4984229 
3.6632037e+2, 1.8737559e+1, -133955.86, -770312.06, -7462.1143, -0.00007616409, -0.0000094927855, -133868.38, -133868.38, 0.0, 2.5005295, 2.498423 
3.6632034e+2, 2.123606e+1, -91358.43, -679501.9, -9492.334, -0.00005709076, 0.00016572635, -91205.266, -91205.266, 0.0, 2.5005271, 2.49858 
3.6632028e+2, 2.3734643e+1, -92422.46, -679446.3, -10687.676, -0.000052456944, 0.00006245964, -92227.94, -92227.94, 0.0, 2.5005248, 2.4985812 
3.6632025e+2, 2.6233223e+1, -93770.54, -679980.7, -11041.253, -0.00004734284, -0.00003590949, -93562.66, -93562.66, 0.0, 2.5005221, 2.4985814 
3.663202e+2, 2.8731805e+1, -95120.14, -680515.8, -11395.832, -0.000041581963, -0.00012815632, -94898.38, -94898.38, 0.0, 2.5005198, 2.4985816 
3.6632016e+2, 3.1230468e+1, -52274.707, -588390.8, -12629.597, 0.000022249922, 0.000040850882, -51977.348, -51977.348, 0.0, 2.5005164, 2.4987414 
3.663201e+2, 3.372921e+1, -53738.17, -588441.6, -13752.708, -0.000021459577, 0.000036813235, -53384.684, -53384.684, 0.0, 2.5005133, 2.4987428 
3.6632004e+2, 3.6227953e+1, -55525.777, -589167.25, -14026.103, -0.00006285941, 0.00003833678, -55157.375, -55157.375, 0.0, 2.50051, 2.498743 
3.6631998e+2, 3.8726696e+1, -57314.805, -589893.56, -14300.61, -0.000101265876, 0.00004701943, -56931.086, -56931.086, 0.0, 2.5005069, 2.4987435 
3.6631992e+2, 4.1225526e+1, -14420.281, -497153.44, -14716.396, -0.00015636398, 0.00027943365, -13972.06, -13972.06, 0.0, 2.5005028, 2.4989045 
3.6631986e+2, 4.3724427e+1, -16198.281, -497211.03, -15653.098, -0.000068923866, 0.00012492781, -15689.4375, -15689.4375, 0.0, 2.500499, 2.4989061 
3.663198e+2, 4.622333e+1, -18392.887, -498133.78, -15899.147, 0.000022654815, -0.000023707016, -17866.549, -17866.549, 0.0, 2.5004952, 2.4989066 
3.6631975e+2, 4.8722237e+1, -20589.68, -499057.56, -16146.418, 0.0001177002, -0.0001636132, -20045.42, -20045.42, 0.0, 2.5004911, 2.4989069 
3.663197e+2, 5.122123e+1, 22648.08, -405283.8, -15850.234, 0.0000081213275, 0.00007489115, 23234.357, 23234.357, 0.0, 2.5004869, 2.4990697 
3.663196e+2, 5.37203e+1, 20708.102, -405501.8, -16158.069, -0.00002060732, 0.000036266843, 21319.793, 21319.793, 0.0, 2.5004828, 2.4990714 
3.6631954e+2, 5.621937e+1, 18390.938, -406502.66, -16254.912, -0.00004414423, 0.00000044933628, 19011.885, 19011.885, 0.0, 2.5004787, 2.4990716 
3.6631948e+2, 5.871844e+1, 16071.606, -407504.53, -16353.028, -0.00006418301, -0.000028892127, 16702.01, 16702.01, 0.0, 2.5004747, 2.4990718 
3.6631942e+2, 6.1217594e+1, 59458.523, -313737.84, -15448.29, -0.0002558043, 0.00026749854, 60096.906, 60096.906, 0.0, 2.5004706, 2.4992347 
3.6631936e+2, 6.371683e+1, 57350.902, -314235.78, -15035.369, -0.000037104415, 0.00015472937, 57958.277, 57958.277, 0.0, 2.5004666, 2.4992359 
3.663193e+2, 6.6216063e+1, 54965.93, -315303.28, -15091.551, 0.00019201415, 0.000044130265, 55580.016, 55580.016, 0.0, 2.5004623, 2.499236 
3.6631927e+2, 6.871529e+1, 52578.406, -316372.0, -15148.659, 0.00042778553, -0.000059670503, 53199.344, 53199.344, 0.0, 2.5004582, 2.499236 
3.663192e+2, 7.1214616e+1, 96297.71, -222351.17, -13700.214, -0.00010923045, 0.00024606386, 96885.664, 96885.664, 0.0, 2.5004547, 2.4993992 
3.6631918e+2, 7.371401e+1, 94126.125, -223325.61, -12408.708, -0.00025642005, 0.00011550362, 94610.43, 94610.43, 0.0, 2.5004508, 2.4993994 
3.6631912e+2, 7.621341e+1, 91928.41, -224341.08, -12373.374, -0.0003961587, -0.00001726079, 92411.75, 92411.75, 0.0, 2.500447, 2.4993994 
3.663191e+2, 7.871281e+1, 89726.84, -225358.4, -12338.964, -0.00053697743, -0.00014636265, 90209.305, 90209.305, 0.0, 2.5004432, 2.4993997 
3.6631906e+2, 8.121229e+1, 133624.08, -131947.08, -10381.482, -0.00002811137, 0.00016529295, 134029.28, 134029.28, 0.0, 2.5004408, 2.499561 
3.6631906e+2, 8.3711845e+1, 131739.6, -133335.77, -8256.088, 0.00036011598, 0.00008426452, 131996.48, 131996.48, 0.0, 2.5004382, 2.49956 
3.6631906e+2, 8.62114e+1, 130155.48, -134078.23, -8138.3296, 0.0007431017, -0.0000026770538, 130405.9, 130405.9, 0.0, 2.5004354, 2.49956 
3.6631906e+2, 8.871096e+1, 128565.24, -134823.64, -8020.5767, 0.0011267088, -0.000089503854, 128809.26, 128809.26, 0.0, 2.5004327, 2.49956 
3.66319e+2, 9.121061e+1, 172691.77, -42195.992, -5426.252, -0.0019207854, 0.0004640467, 172828.7, 172828.7, 0.0, 2.5004315, 2.4997196 
3.6631903e+2, 9.371032e+1, 170909.5, -44396.504, -2872.089, -0.0010246157, 0.00029746012, 170947.81, 170947.81, 0.0, 2.50043, 2.4997168 
3.6631906e+2, 9.6210027e+1, 169962.97, -44822.945, -2752.9211, -0.00009831242, 0.00010063937, 169998.25, 169998.25, 0.0, 2.5004284, 2.4997168 
3.663191e+2, 9.870974e+1, 169003.52, -45255.625, -2632.2156, 0.00079823466, -0.00011566081, 169035.84, 169035.84, 0.0, 2.5004268, 2.4997168 
3.6882105e+2, 1.2491329e+0, -172403.11, -859572.9, -1723.1356, 0.0000048326506, -0.000012203352, -172398.8, -172398.8, 0.0, 2.5005398, 2.498265 
3.6882102e+2, 3.7473986e+0, -172624.27, -859817.94, -2199.8303, -0.000036065703, -0.000035192472, -172617.22, -172617.22, 0.0, 2.5005395, 2.4982648 
3.6882102e+2, 6.2456644e+0, -172874.97, -859913.7, -2635.7883, -0.00009158156, -0.000056290974, -172864.86, -172864.86, 0.0, 2.500539, 2.4982648 
3.6882102e+2, 8.743931e+0, -173257.69, -860073.1, -3072.4116, -0.00016171532, -0.00007549894, -173243.94, -173243.94, 0.0, 2.5005383, 2.4982648 
3.68821e+2, 1.1242274e+1, -130761.67, -770444.6, -6212.55, -0.00021267949, 0.00004691, -130701.336, -130701.336, 0.0, 2.500537, 2.4984193 
3.6882097e+2, 1.3740695e+1, -131538.48, -770457.75, -7101.386, -0.00016930823, 0.000022843098, -131459.56, -131459.56, 0.0, 2.5005352, 2.49842 
3.6882094e+2, 1.6239117e+1, -132583.17, -770884.56, -7528.138, -0.0001421696, 0.000003327128, -132494.4, -132494.4, 0.0, 2.5005333, 2.4984202 
3.688209e+2, 1.8737537e+1, -133717.75, -771354.75, -7958.194, -0.00013137811, -0.00001128516, -133618.45, -133618.45, 0.0, 2.5005312, 2.4984205 
3.6882088e+2, 2.1236038e+1, -91269.234, -680534.8, -10227.603, -0.000051765746, 0.0001791906, -91091.766, -91091.766, 0.0, 2.5005283, 2.4985776 
3.688208e+2, 2.3734617e+1, -92478.87, -680495.06, -11377.5, -0.00005694103, 0.000039358813, -92258.805, -92258.805, 0.0, 2.5005257, 2.498579 
3.6882076e+2, 2.6233193e+1, -94058.71, -681144.56, -11762.248, -0.00006664802, -0.000095255964, -93823.15, -93823.15, 0.0, 2.5005229, 2.4985793 
3.688207e+2, 2.8731772e+1, -95689.92, -681818.8, -12147.1455, -0.000080441125, -0.00022327724, -95438.28, -95438.28, 0.0, 2.50052, 2.4985795 
3.6882067e+2, 3.1230435e+1, -52907.406, -589452.94, -13626.529, -0.000033750766, -0.000043906217, -52561.563, -52561.563, 0.0, 2.5005162, 2.4987397 
3.688206e+2, 3.3729175e+1, -54577.324, -589615.1, -14656.574, -0.0000792252, 0.000015000623, -54176.13, -54176.13, 0.0, 2.5005126, 2.4987411 
3.6882055e+2, 3.622792e+1, -56590.83, -590453.3, -14934.658, -0.00012600727, 0.00008018174, -56173.363, -56173.363, 0.0, 2.500509, 2.4987414 
3.688205e+2, 3.872666e+1, -58630.24, -591304.0, -15210.949, -0.00017346098, 0.00015320793, -58196.23, -58196.23, 0.0, 2.5005054, 2.4987416 
3.6882043e+2, 4.1225487e+1, -15869.451, -498561.06, -15814.162, -0.00021690766, 0.00038032368, -15351.8955, -15351.8955, 0.0, 2.5005012, 2.4989028 
3.6882034e+2, 4.3724388e+1, -17768.678, -498643.1, -16675.195, -0.00009756295, 0.00014177618, -17191.129, -17191.129, 0.0, 2.500497, 2.4989047 
3.6882028e+2, 4.622329e+1, -20133.01, -499651.56, -16916.07, 0.000019913507, -0.00009025032, -19537.0, -19537.0, 0.0, 2.5004928, 2.498905 
3.6882022e+2, 4.872219e+1, -22524.088, -500672.88, -17155.41, 0.00013484257, -0.00031287223, -21909.363, -21909.363, 0.0, 2.5004885, 2.4989052 
3.6882016e+2, 5.122118e+1, 20899.46, -406404.13, -16941.66, 0.000060371687, -0.00005669436, 21570.107, 21570.107, 0.0, 2.5004842, 2.4990692 
3.688201e+2, 5.3720254e+1, 18993.502, -406560.2, -17158.676, -0.000008717732, -0.0000020243626, 19684.232, 19684.232, 0.0, 2.5004802, 2.499071 
3.6882004e+2, 5.621932e+1, 16637.938, -407583.4, -17225.732, -0.000078902805, 0.000055817145, 17336.248, 17336.248, 0.0, 2.500476, 2.4990711 
3.6881995e+2, 5.8718395e+1, 14238.989, -408627.53, -17293.826, -0.00015137385, 0.00012065199, 14945.069, 14945.069, 0.0, 2.5004716, 2.4990714 
3.688199e+2, 6.1217546e+1, 57791.3, -314650.75, -16378.089, -0.00036479405, 0.0004164113, 58510.137, 58510.137, 0.0, 2.500468, 2.4992344 
3.6881983e+2, 6.371678e+1, 55901.516, -315032.06, -15949.296, -0.00011749458, 0.00024584171, 56586.035, 56586.035, 0.0, 2.5004642, 2.4992356 
3.688198e+2, 6.6216016e+1, 53693.22, -316017.78, -15978.167, 0.00013410216, 0.00007798702, 54382.477, 54382.477, 0.0, 2.5004601, 2.4992359 
3.6881974e+2, 6.871525e+1, 51450.92, -317019.88, -16004.835, 0.00038607098, -0.00008281209, 52144.797, 52144.797, 0.0, 2.5004563, 2.4992359 
3.6881968e+2, 7.121457e+1, 95656.516, -222479.22, -14418.635, -0.000075493335, 0.0001983945, 96308.664, 96308.664, 0.0, 2.5004535, 2.4993997 
3.6881962e+2, 7.3713964e+1, 93911.734, -223228.19, -13100.938, -0.00020276416, 0.00011585704, 94452.016, 94452.016, 0.0, 2.5004504, 2.4994 
3.688196e+2, 7.6213366e+1, 92073.2, -224072.39, -12992.157, -0.00033302323, 0.000030773623, 92606.22, 92606.22, 0.0, 2.500447, 2.4994 
3.6881953e+2, 7.871276e+1, 90177.086, -224944.34, -12882.528, -0.00047397838, -0.000051284766, 90702.86, 90702.86, 0.0, 2.5004437, 2.4994001 
3.688195e+2, 8.121224e+1, 134748.84, -130959.055, -10602.758, -0.0000842108, 0.0002567443, 135171.25, 135171.25, 0.0, 2.5004423, 2.4995623 
3.6881948e+2, 8.371181e+1, 133512.67, -132002.63, -8453.306, 0.0001984805, 0.00016386482, 133781.53, 133781.53, 0.0, 2.5004406, 2.499561 
3.6881948e+2, 8.6211365e+1, 132410.44, -132511.42, -8224.338, 0.00046080307, 0.00006539905, 132665.52, 132665.52, 0.0, 2.5004387, 2.4995613 
3.6881948e+2, 8.871092e+1, 131155.63, -133093.72, -7993.343, 0.0007075269, -0.000032952867, 131397.2, 131397.2, 0.0, 2.5004365, 2.4995613 
3.6881942e+2, 9.121056e+1, 175917.72, -40180.324, -5022.9585, -0.0020479877, 0.00044247432, 176034.4, 176034.4, 0.0, 2.5004365, 2.4997208 
3.6881945e+2, 9.371028e+1, 174928.9, -41910.605, -2407.4387, -0.0010824513, 0.00031091893, 174955.63, 174955.63, 0.0, 2.5004363, 2.499718 
3.6881948e+2, 9.620999e+1, 174360.73, -42149.684, -2133.6638, -0.00012381624, 0.00015284617, 174381.77, 174381.77, 0.0, 2.5004354, 2.499718 
3.688195e+2, 9.87097e+1, 173417.2, -42569.527, -1863.8724, 0.00077319215, -0.000022444712, 173433.28, 173433.28, 0.0, 2.5004337, 2.4997182 
3.713216e+2, 1.2491314e+0, -166114.02, -857900.75, -1818.6395, 0.00023644112, -0.000007262678, -166109.23, -166109.23, 0.0, 2.500552, 2.4982622 
3.7132156e+2, 3.7473944e+0, -166653.47, -858291.44, -2316.5872, 0.000150212, -0.000021041833, -166645.72, -166645.72, 0.0, 2.5005512, 2.4982617 
3.7132156e+2, 6.245657e+0, -167099.31, -858482.4, -2780.199, 0.000089024914, -0.000033825574, -167088.13, -167088.13, 0.0, 2.5005503, 2.498262 
3.7132156e+2, 8.7439203e+0, -167548.45, -858674.8, -3244.407, 0.0000528802, -0.000045613993, -167533.22, -167533.22, 0.0, 2.5005496, 2.498262 
3.7132153e+2, 1.1242261e+1, -125039.56, -768959.75, -6594.22, -0.000008605698, 0.00008184203, -124972.04, -124972.04, 0.0, 2.5005481, 2.4984164 
3.713215e+2, 1.3740678e+1, -125910.14, -769033.94, -7452.073, -0.000008227032, 0.000056080502, -125823.805, -125823.805, 0.0, 2.5005462, 2.4984171 
3.7132147e+2, 1.6239098e+1, -126958.945, -769474.56, -7879.336, 0.000015210102, 0.00003240181, -126862.336, -126862.336, 0.0, 2.5005443, 2.4984174 
3.7132144e+2, 1.8737514e+1, -128010.46, -769916.5, -8306.983, 0.0000615769, 0.000011165485, -127902.98, -127902.98, 0.0, 2.5005424, 2.4984174 
3.713214e+2, 2.1236013e+1, -85585.35, -678919.3, -10777.612, 0.00016997223, 0.00019483845, -85389.65, -85389.65, 0.0, 2.5005393, 2.498575 
3.7132135e+2, 2.3734589e+1, -87032.63, -679009.44, -11826.122, 0.0001189927, 0.00007687221, -86796.48, -86796.48, 0.0, 2.5005362, 2.4985764 
3.713213e+2, 2.6233166e+1, -88793.02, -679750.0, -12197.198, 0.00008132041, -0.00004098286, -88541.38, -88541.38, 0.0, 2.500533, 2.4985766 
3.7132126e+2, 2.873174e+1, -90555.24, -680491.5, -12569.24, 0.000057541707, -0.00015743359, -90287.555, -90287.555, 0.0, 2.50053, 2.4985769 
3.713212e+2, 3.12304e+1, -47823.523, -587958.94, -14280.167, 0.00007717143, 0.000021746982, -47446.246, -47446.246, 0.0, 2.500526, 2.4987376 
3.7132114e+2, 3.3729142e+1, -49801.99, -588268.94, -15267.341, 0.000013601507, 0.00006116157, -49369.457, -49369.457, 0.0, 2.500522, 2.498739 
3.7132105e+2, 3.622788e+1, -52102.49, -589247.75, -15591.346, -0.00003732105, 0.00010124187, -51650.31, -51650.31, 0.0, 2.5005178, 2.4987392 
3.71321e+2, 3.872662e+1, -54405.023, -590227.56, -15916.463, -0.00007507712, 0.00014359482, -53932.645, -53932.645, 0.0, 2.5005136, 2.4987395 
3.7132093e+2, 4.1225442e+1, -11881.133, -497276.9, -16672.818, -0.00008847009, 0.00034238253, -11309.113, -11309.113, 0.0, 2.5005088, 2.4989014 
3.7132087e+2, 4.3724343e+1, -14139.782, -497532.22, -17374.91, 0.0000057114353, 0.00010904804, -13516.068, -13516.068, 0.0, 2.500504, 2.4989033 
3.713208e+2, 4.6223244e+1, -16840.59, -498707.2, -17546.7, 0.00011981568, -0.00012645342, -16202.488, -16202.488, 0.0, 2.5004992, 2.4989035 
3.713207e+2, 4.8722145e+1, -19543.668, -499883.28, -17719.68, 0.00025355146, -0.00036139283, -18890.877, -18890.877, 0.0, 2.5004945, 2.4989038 
3.7132064e+2, 5.122113e+1, 23578.557, -405499.5, -17581.111, 0.00016697768, -0.0001303541, 24297.723, 24297.723, 0.0, 2.5004892, 2.4990683 
3.7132055e+2, 5.3720206e+1, 20973.865, -405978.63, -17825.875, 0.00006102728, -0.00009227026, 21716.828, 21716.828, 0.0, 2.500484, 2.49907 
3.713205e+2, 5.6219274e+1, 17947.893, -407329.72, -17974.969, -0.000014944789, -0.000054980756, 18706.277, 18706.277, 0.0, 2.5004785, 2.4990702 
3.7132043e+2, 5.871834e+1, 14918.92, -408682.25, -18125.29, -0.00006214016, -0.000014755222, 15693.061, 15693.061, 0.0, 2.5004733, 2.4990704 
3.7132034e+2, 6.12175e+1, 57915.63, -314593.9, -17167.91, -0.00024225515, 0.0002274337, 58705.176, 58705.176, 0.0, 2.5004683, 2.4992344 
3.7132028e+2, 6.3716733e+1, 55217.7, -315364.03, -16688.531, -0.000030092897, 0.0000338354, 55967.723, 55967.723, 0.0, 2.500463, 2.4992356 
3.7132025e+2, 6.621597e+1, 52234.125, -316721.53, -16676.814, 0.00021028226, -0.00015928874, 52986.383, 52986.383, 0.0, 2.5004578, 2.4992359 
3.713202e+2, 6.8715197e+1, 49247.68, -318080.44, -16666.262, 0.00047537158, -0.00034796738, 50002.305, 50002.305, 0.0, 2.5004525, 2.4992359 
3.7132013e+2, 7.1214515e+1, 92730.77, -223540.11, -14939.552, 0.000057625668, -0.00009996543, 93434.9, 93434.9, 0.0, 2.500448, 2.4994004 
3.7132007e+2, 7.371391e+1, 89995.19, -224740.58, -13677.36, -0.000078938094, -0.0001589672, 90588.44, 90588.44, 0.0, 2.5004432, 2.4994006 
3.7132004e+2, 7.621331e+1, 87206.97, -226038.47, -13594.024, -0.00017864475, -0.00022353105, 87795.805, 87795.805, 0.0, 2.5004385, 2.4994009 
3.7131998e+2, 7.8712714e+1, 84415.13, -227338.1, -13511.45, -0.0002485242, -0.00028852263, 84999.63, 84999.63, 0.0, 2.5004334, 2.4994009 
3.7131995e+2, 8.12122e+1, 128063.33, -133449.27, -10991.07, 0.000094310875, -0.000019963461, 128524.46, 128524.46, 0.0, 2.50043, 2.4995637 
3.7131992e+2, 8.3711755e+1, 125625.875, -135021.88, -9001.987, 0.00032254407, -0.00015115498, 125936.41, 125936.41, 0.0, 2.5004263, 2.499563 
3.7131992e+2, 8.621132e+1, 123441.086, -136047.72, -8863.559, 0.00058423297, -0.00028797303, 123743.49, 123743.49, 0.0, 2.5004225, 2.499563 
3.7131992e+2, 8.8710874e+1, 121250.086, -137076.56, -8725.143, 0.00088333065, -0.00042515303, 121544.445, 121544.445, 0.0, 2.5004187, 2.499563 
3.7131986e+2, 9.1210526e+1, 164870.25, -44469.83, -5414.7583, -0.001527048, -0.000030510373, 165010.22, 165010.22, 0.0, 2.5004165, 2.499723 
3.713199e+2, 9.3710244e+1, 162959.77, -46566.055, -2928.6018, -0.00062661275, -0.00008143965, 163000.7, 163000.7, 0.0, 2.5004146, 2.4997203 
3.7131992e+2, 9.6209955e+1, 161783.6, -47108.7, -2727.3699, 0.0003733106, -0.0001584245, 161819.2, 161819.2, 0.0, 2.5004125, 2.4997206 
3.7131995e+2, 9.870967e+1, 160596.88, -47656.426, -2525.3608, 0.0014239325, -0.0002537877, 160627.48, 160627.48, 0.0, 2.5004106, 2.4997206 
3.7382215e+2, 1.2491299e+0, -166953.02, -859645.44, -1953.895, 0.00011087638, -0.0000026005291, -166947.5, -166947.5, 0.0, 2.500552, 2.498259 
3.7382212e+2, 3.74739e+0, -167485.9, -860025.5, -2440.3303, 0.000063237305, -0.0000070741908, -167477.3, -167477.3, 0.0, 2.5005512, 2.4982588 
3.7382212e+2, 6.24565e+0, -167930.47, -860216.75, -2898.7668, 0.000024526822, -0.000010577531, -167918.33, -167918.33, 0.0, 2.5005505, 2.4982588 
3.7382212e+2, 8.7439096e+0, -168378.34, -860409.6, -3357.7993, -0.000005254762, -0.000013110639, -168362.05, -168362.05, 0.0, 2.5005496, 2.4982588 
3.738221e+2, 1.12422474e+1, -125797.72, -770549.94, -6918.062, -0.00004461135, 0.00010668228, -125723.5, -125723.5, 0.0, 2.5005481, 2.4984138 
3.7382206e+2, 1.3740663e+1, -126669.06, -770627.3, -7739.3135, -0.000038005142, 0.000050962488, -126576.06, -126576.06, 0.0, 2.5005462, 2.4984145 
3.7382203e+2, 1.6239077e+1, -127718.22, -771070.25, -8161.9546, -0.000019538173, -0.0000012400996, -127614.69, -127614.69, 0.0, 2.5005443, 2.4984145 
3.73822e+2, 1.8737492e+1, -128770.086, -771514.5, -8584.98, 0.0000107188625, -0.000049552775, -128655.445, -128655.445, 0.0, 2.5005424, 2.4984148 
3.7382194e+2, 2.1235989e+1, -86170.12, -680196.5, -11349.078, 0.00010268339, 0.00010274229, -85953.375, -85953.375, 0.0, 2.5005395, 2.4985728 
3.7382185e+2, 2.3734562e+1, -87656.72, -680373.4, -12303.659, 0.000053152937, 0.000047106852, -87401.43, -87401.43, 0.0, 2.5005364, 2.498574 
3.7382182e+2, 2.6233137e+1, -89415.49, -681115.44, -12671.851, 0.000010309356, -0.0000075345583, -89144.24, -89144.24, 0.0, 2.500533, 2.4985743 
3.7382177e+2, 2.873171e+1, -91176.1, -681858.44, -13041.009, -0.000025297537, -0.000060145336, -90888.32, -90888.32, 0.0, 2.50053, 2.4985745 
3.738217e+2, 3.1230366e+1, -48343.348, -589142.2, -14977.552, -0.0000072325784, 0.00011745453, -47928.86, -47928.86, 0.0, 2.500526, 2.4987354 
3.7382165e+2, 3.3729103e+1, -50311.523, -589435.06, -15888.017, -0.0000369754, 0.00007416623, -49843.71, -49843.71, 0.0, 2.500522, 2.4987369 
3.7382156e+2, 3.622784e+1, -52612.02, -590418.0, -16209.41, -0.00006001116, 0.000033193366, -52123.914, -52123.914, 0.0, 2.5005178, 2.498737 
3.738215e+2, 3.8726577e+1, -54914.55, -591402.0, -16531.918, -0.00007592354, -0.0000037771404, -54405.6, -54405.6, 0.0, 2.5005138, 2.4987376 
3.7382144e+2, 4.1225398e+1, -12056.209, -497796.72, -17496.654, -0.00003586978, 0.00018081458, -11426.784, -11426.784, 0.0, 2.5005088, 2.4989004 
3.7382135e+2, 4.37243e+1, -14330.557, -498089.34, -18098.66, 0.0000130752005, 0.00006219481, -13654.385, -13654.385, 0.0, 2.500504, 2.4989023 
3.738213e+2, 4.6223202e+1, -17031.984, -499270.03, -18267.453, 0.0000736414, -0.000056189994, -16340.992, -16340.992, 0.0, 2.5004992, 2.4989026 
3.738212e+2, 4.8722103e+1, -19735.682, -500451.8, -18437.44, 0.0001461568, -0.00017188891, -19029.566, -19029.566, 0.0, 2.5004945, 2.4989028 
3.7382114e+2, 5.122109e+1, 23486.102, -405920.16, -18433.73, 0.000025531519, 0.000058154958, 24275.98, 24275.98, 0.0, 2.5004895, 2.4990675 
3.7382105e+2, 5.372016e+1, 20880.486, -406407.03, -18631.19, -0.000008314585, 0.000026234768, 21691.33, 21691.33, 0.0, 2.5004842, 2.4990692 
3.73821e+2, 5.6219226e+1, 17855.395, -407761.5, -18776.266, -0.00002078722, -0.0000051176476, 18682.111, 18682.111, 0.0, 2.500479, 2.4990695 
3.738209e+2, 5.8718294e+1, 14827.301, -409117.44, -18922.572, -0.000013542863, -0.000032466814, 15670.226, 15670.226, 0.0, 2.5004735, 2.4990697 
3.7382084e+2, 6.1217445e+1, 58166.477, -314360.38, -17980.803, -0.00013393027, 0.00016612757, 59032.344, 59032.344, 0.0, 2.5004685, 2.4992347 
3.7382078e+2, 6.371668e+1, 55462.33, -315150.5, -17480.709, 0.000011327712, 0.000022590893, 56285.016, 56285.016, 0.0, 2.5004632, 2.4992359 
3.7382072e+2, 6.6215914e+1, 52480.508, -316511.0, -17465.422, 0.00017548507, -0.000120132536, 53305.355, 53305.355, 0.0, 2.500458, 2.499236 
3.738206e+2, 6.871515e+1, 49495.82, -317872.84, -17451.3, 0.00035588245, -0.0002584842, 50322.957, 50322.957, 0.0, 2.5004528, 2.499236 
3.7382054e+2, 7.121447e+1, 93154.664, -223024.92, -15654.004, -0.000042669293, -0.000010930483, 93927.805, 93927.805, 0.0, 2.5004485, 2.499401 
3.738205e+2, 7.371387e+1, 90434.17, -224198.45, -14410.735, -0.0001408084, -0.00004108376, 91092.83, 91092.83, 0.0, 2.5004437, 2.4994016 
3.7382045e+2, 7.6213264e+1, 87646.94, -225497.94, -14323.702, -0.00021271886, -0.00007582789, 88300.76, 88300.76, 0.0, 2.5004387, 2.4994016 
3.738204e+2, 7.871267e+1, 84856.086, -226799.16, -14237.431, -0.00026482966, -0.00011057556, 85505.15, 85505.15, 0.0, 2.500434, 2.4994016 
3.7382036e+2, 8.121215e+1, 128652.05, -132662.44, -11505.754, 0.000043627475, 0.00011949792, 129157.67, 129157.67, 0.0, 2.5004306, 2.499565 
3.7382033e+2, 8.3711714e+1, 126247.94, -134166.22, -9577.391, 0.00028048354, -0.00004949008, 126599.695, 126599.695, 0.0, 2.5004268, 2.4995642 
3.7382033e+2, 8.6211276e+1, 124061.08, -135195.95, -9433.118, 0.0005356603, -0.00022252543, 124403.85, 124403.85, 0.0, 2.500423, 2.4995642 
3.738203e+2, 8.871084e+1, 121868.01, -136228.67, -9288.857, 0.00081237283, -0.00039489067, 122201.88, 122201.88, 0.0, 2.5004191, 2.4995642 
3.7382028e+2, 9.121048e+1, 165683.78, -43321.184, -5707.683, -0.0013180384, -0.000089556284, 165839.53, 165839.53, 0.0, 2.5004172, 2.4997249 
3.738203e+2, 9.3710196e+1, 163835.81, -45283.598, -3232.8914, -0.00062497845, -0.00007867437, 163885.78, 163885.78, 0.0, 2.500415, 2.4997225 
3.7382033e+2, 9.6209913e+1, 162658.36, -45823.18, -3020.8672, 0.0001338416, -0.00009288472, 162702.13, 162702.13, 0.0, 2.5004132, 2.4997225 
3.7382033e+2, 9.870963e+1, 161470.34, -46367.844, -2808.0657, 0.00091592415, -0.00012613636, 161508.28, 161508.28, 0.0, 2.500411, 2.4997225 
3.763227e+2, 1.2491284e+0, -167792.9, -861391.94, -2088.4958, -0.000014999153, 0.0000010157028, -167786.63, -167786.63, 0.0, 2.500552, 2.498256 
3.763227e+2, 3.747385e+0, -168320.44, -861763.9, -2563.6099, -0.000024669687, 0.0000037556977, -168310.97, -168310.97, 0.0, 2.5005512, 2.4982557 
3.7632266e+2, 6.2456423e+0, -168763.73, -861955.5, -3016.871, -0.000041525007, 0.0000074409263, -168750.61, -168750.61, 0.0, 2.5005505, 2.4982557 
3.7632266e+2, 8.7438995e+0, -169210.34, -862148.75, -3470.7283, -0.0000655648, 0.000012071301, -169192.95, -169192.95, 0.0, 2.5005496, 2.498256 
3.7632263e+2, 1.1242234e+1, -126565.26, -772159.56, -7241.1836, -0.00007854863, 0.00012776906, -126484.05, -126484.05, 0.0, 2.5005481, 2.498411 
3.763226e+2, 1.3740647e+1, -127430.22, -772225.25, -8026.168, -0.00006600742, 0.000037265872, -127330.33, -127330.33, 0.0, 2.5005462, 2.4984117 
3.7632257e+2, 1.6239057e+1, -128479.734, -772670.5, -8444.1875, -0.00005281293, -0.000048301168, -128369.06, -128369.06, 0.0, 2.5005443, 2.498412 
3.763225e+2, 1.8737468e+1, -129531.95, -773117.06, -8862.592, -0.000038967923, -0.00012853074, -129409.93, -129409.93, 0.0, 2.5005424, 2.498412 
3.7632248e+2, 2.1235962e+1, -86774.88, -681515.25, -11911.903, 0.000030291763, 0.000008806514, -86536.4, -86536.4, 0.0, 2.5005395, 2.4985704 
3.7632242e+2, 2.3734535e+1, -88282.53, -681740.9, -12780.45, -0.000018556382, 0.00001155322, -88007.43, -88007.43, 0.0, 2.5005364, 2.4985716 
3.7632236e+2, 2.6233107e+1, -90039.7, -682484.44, -13145.758, -0.000067300985, 0.000016074575, -89748.15, -89748.15, 0.0, 2.5005333, 2.4985719 
3.763223e+2, 2.873168e+1, -91798.695, -683228.94, -13512.031, -0.00011546577, 0.000023252873, -91490.16, -91490.16, 0.0, 2.5005302, 2.498572 
3.7632224e+2, 3.1230333e+1, -48877.79, -590355.75, -15671.781, -0.000086737266, 0.0002029201, -48424.586, -48424.586, 0.0, 2.5005262, 2.4987333 
3.7632218e+2, 3.3729067e+1, -50822.5, -590604.2, -16507.656, -0.000082312225, 0.00007354274, -50318.133, -50318.133, 0.0, 2.5005221, 2.498735 
3.763221e+2, 3.62278e+1, -53122.992, -591591.3, -16826.44, -0.000077214136, -0.00005191332, -52597.7, -52597.7, 0.0, 2.500518, 2.4987352 
3.7632203e+2, 3.8726535e+1, -55425.52, -592579.4, -17146.336, -0.00007103575, -0.0001716373, -54878.754, -54878.754, 0.0, 2.500514, 2.4987354 
3.7632197e+2, 4.1225353e+1, -12248.621, -498352.56, -18310.697, 0.000006942877, 0.00001161652, -11559.865, -11559.865, 0.0, 2.500509, 2.4988995 
3.7632188e+2, 4.3724254e+1, -14522.562, -498649.06, -18821.242, 0.0000115153225, 0.000004263624, -13791.956, -13791.956, 0.0, 2.5005043, 2.4989011 
3.7632176e+2, 4.6223155e+1, -17224.607, -499835.47, -18987.041, 0.000019559347, -0.00000059690944, -16478.766, -16478.766, 0.0, 2.5004995, 2.4989014 
3.763217e+2, 4.872206e+1, -19928.924, -501022.94, -19154.033, 0.00003187025, -0.00000064770506, -19167.54, -19167.54, 0.0, 2.5004947, 2.4989016 
3.763216e+2, 5.122104e+1, 23370.729, -406388.47, -19276.143, -0.0001141503, 0.00024020749, 24233.596, 24233.596, 0.0, 2.5004897, 2.4990666 
3.7632152e+2, 5.372011e+1, 20785.945, -406837.88, -19435.408, -0.00007532317, 0.0001337462, 21667.463, 21667.463, 0.0, 2.5004845, 2.4990683 
3.7632143e+2, 5.621918e+1, 17761.732, -408195.72, -19576.47, -0.000023818697, 0.000029053946, 18659.549, 18659.549, 0.0, 2.5004792, 2.4990685 
3.7632138e+2, 5.871824e+1, 14734.519, -409555.03, -19718.764, 0.000038343078, -0.00007056781, 15648.973, 15648.973, 0.0, 2.5004737, 2.4990687 
3.763213e+2, 6.12174e+1, 58391.63, -314180.22, -18784.127, -0.000035087414, 0.000100471276, 59336.28, 59336.28, 0.0, 2.5004687, 2.499235 
3.7632123e+2, 6.371663e+1, 55706.1, -314938.78, -18271.76, 0.0000433806, 0.000003162322, 56604.668, 56604.668, 0.0, 2.5004635, 2.499236 
3.7632114e+2, 6.6215867e+1, 52726.035, -316302.25, -18252.904, 0.00013159351, -0.00009322791, 53626.664, 53626.664, 0.0, 2.5004585, 2.499236 
3.7632108e+2, 6.87151e+1, 49743.105, -317667.06, -18235.213, 0.00022757232, -0.00018532008, 50645.93, 50645.93, 0.0, 2.5004532, 2.4992363 
3.7632102e+2, 7.1214426e+1, 93555.56, -222557.5, -16359.816, -0.00014267983, 0.000077514625, 94399.98, 94399.98, 0.0, 2.5004487, 2.4994018 
3.7632096e+2, 7.371382e+1, 90872.555, -223657.56, -15143.336, -0.00020220103, 0.00007383979, 91599.97, 91599.97, 0.0, 2.500444, 2.4994023 
3.763209e+2, 7.621323e+1, 88086.31, -224958.64, -15052.605, -0.00024625252, 0.000066293636, 88808.445, 88808.445, 0.0, 2.5004392, 2.4994023 
3.7632087e+2, 7.8712624e+1, 85296.445, -226261.47, -14962.637, -0.00028053194, 0.000059168186, 86013.38, 86013.38, 0.0, 2.5004344, 2.4994023 
3.763208e+2, 8.1212115e+1, 129221.37, -131915.9, -12009.066, -0.000015221064, 0.000257092, 129772.47, 129772.47, 0.0, 2.500431, 2.499566 
3.7632078e+2, 8.371167e+1, 126869.37, -133311.89, -10152.38, 0.00023212886, 0.000047400048, 127264.914, 127264.914, 0.0, 2.5004272, 2.4995654 
3.7632078e+2, 8.6211234e+1, 124680.44, -134345.5, -10002.263, 0.00048280688, -0.00016488718, 125066.1, 125066.1, 0.0, 2.5004234, 2.4995654 
3.7632075e+2, 8.871079e+1, 122485.3, -135382.11, -9852.157, 0.0007391477, -0.00037547224, 122861.164, 122861.164, 0.0, 2.5004196, 2.4995654 
3.7632072e+2, 9.121044e+1, 166467.13, -42235.227, -5981.828, -0.00111803, -0.00012254782, 166638.44, 166638.44, 0.0, 2.5004177, 2.4997263 
3.7632072e+2, 9.371016e+1, 164710.89, -44003.176, -3537.8862, -0.0006320977, -0.000055438162, 164770.84, 164770.84, 0.0, 2.5004158, 2.4997244 
3.7632075e+2, 9.6209884e+1, 163532.14, -44539.695, -3315.0698, -0.00011402701, -0.000013084142, 163584.95, 163584.95, 0.0, 2.5004137, 2.4997244 
3.7632078e+2, 9.87096e+1, 162342.84, -45081.297, -3091.476, 0.00039987016, 0.000009565682, 162388.9, 162388.9, 0.0, 2.5004115, 2.4997244 
3.7882325e+2, 1.24912694e+0, -167600.28, -862643.1, -2230.7239, -0.00013263382, 0.0000037072398, -167593.13, -167593.13, 0.0, 2.5005538, 2.498253 
3.7882325e+2, 3.747381e+0, -168074.98, -862986.1, -2711.1147, -0.000106626314, 0.000011765539, -168064.4, -168064.4, 0.0, 2.5005531, 2.4982529 
3.7882322e+2, 6.245635e+0, -168573.84, -863205.56, -3175.7402, -0.00010246307, 0.00002068271, -168559.33, -168559.33, 0.0, 2.5005522, 2.4982529 
3.7882322e+2, 8.743889e+0, -169181.56, -863477.5, -3640.9114, -0.0001201445, 0.000030458667, -169162.47, -169162.47, 0.0, 2.5005512, 2.4982529 
3.788232e+2, 1.12422206e+1, -126565.016, -773415.6, -7640.086, -0.000102450445, 0.00014602815, -126474.79, -126474.79, 0.0, 2.5005496, 2.498408 
3.7882316e+2, 1.3740629e+1, -127408.73, -773451.4, -8413.535, -0.00008580889, 0.000016607857, -127299.17, -127299.17, 0.0, 2.5005476, 2.498409 
3.788231e+2, 1.6239038e+1, -128542.25, -773939.5, -8852.383, -0.000078813486, -0.00010664955, -128420.85, -128420.85, 0.0, 2.5005455, 2.498409 
3.7882307e+2, 1.8737446e+1, -129769.92, -774473.0, -9292.652, -0.00008139064, -0.00022329841, -129636.01, -129636.01, 0.0, 2.5005434, 2.4984093 
3.7882304e+2, 2.1235937e+1, -87056.26, -682713.3, -12645.109, -0.000041224986, -0.00008437812, -86787.94, -86787.94, 0.0, 2.5005403, 2.498568 
3.7882298e+2, 2.3734507e+1, -88715.87, -683022.06, -13463.046, -0.00009095515, -0.00002715408, -88411.04, -88411.04, 0.0, 2.500537, 2.4985693 
3.788229e+2, 2.6233077e+1, -90652.734, -683854.94, -13855.19, -0.00014659148, 0.000032500036, -90329.305, -90329.305, 0.0, 2.5005333, 2.4985695 
3.7882283e+2, 2.8731647e+1, -92623.59, -684704.1, -14250.51, -0.00020776942, 0.00009541504, -92280.8, -92280.8, 0.0, 2.50053, 2.4985697 
3.7882274e+2, 3.12303e+1, -49837.035, -591802.7, -16664.385, -0.0001562189, 0.00028072557, -49325.12, -49325.12, 0.0, 2.5005255, 2.4987311 
3.7882268e+2, 3.3729032e+1, -51939.06, -592073.25, -17463.068, -0.00011766484, 0.00006160969, -51375.05, -51375.05, 0.0, 2.5005212, 2.4987328 
3.788226e+2, 3.622776e+1, -54458.45, -593170.4, -17815.764, -0.000083918996, -0.00015228392, -53869.906, -53869.906, 0.0, 2.5005167, 2.498733 
3.7882254e+2, 3.8726494e+1, -57004.883, -594280.56, -18170.814, -0.000054490793, -0.00035897526, -56391.043, -56391.043, 0.0, 2.5005121, 2.4987333 
3.7882245e+2, 4.122531e+1, -13688.259, -499544.53, -19563.3, 0.000045556568, -0.00016495895, -12901.804, -12901.804, 0.0, 2.500507, 2.4988983 
3.7882236e+2, 4.3724212e+1, -16034.712, -499854.63, -20028.05, 0.0000051823754, -0.000065093416, -15207.054, -15207.054, 0.0, 2.500502, 2.4989002 
3.788223e+2, 4.6223113e+1, -18865.248, -501108.6, -20227.154, -0.000038855207, 0.000039202845, -18018.33, -18018.33, 0.0, 2.5004973, 2.4989004 
3.788222e+2, 4.8722017e+1, -21736.914, -502382.34, -20426.709, -0.000085450665, 0.00015025942, -20870.371, -20870.371, 0.0, 2.500492, 2.4989007 
3.7882212e+2, 5.1220995e+1, 21557.963, -407718.44, -20697.168, -0.00024825198, 0.00041276676, 22553.549, 22553.549, 0.0, 2.500487, 2.4990654 
3.7882203e+2, 5.372006e+1, 19077.578, -408055.7, -20859.834, -0.00013680743, 0.00022634401, 20093.889, 20093.889, 0.0, 2.5004818, 2.4990673 
3.7882194e+2, 5.6219125e+1, 16087.907, -409400.97, -21029.94, -0.000020803276, 0.000042634358, 17124.793, 17124.793, 0.0, 2.5004766, 2.4990675 
3.7882185e+2, 5.871819e+1, 13067.025, -410761.3, -21201.826, 0.00009746659, -0.00013503304, 14124.996, 14124.996, 0.0, 2.5004714, 2.4990678 
3.788218e+2, 6.1217344e+1, 57102.133, -314776.25, -20286.36, 0.000058129324, 0.000023532788, 58205.5, 58205.5, 0.0, 2.5004666, 2.499235 
3.7882167e+2, 6.3716584e+1, 54630.35, -315369.8, -19780.55, 0.00006905911, -0.000032087373, 55684.832, 55684.832, 0.0, 2.5004616, 2.4992363 
3.7882158e+2, 6.621582e+1, 51794.523, -316667.8, -19771.074, 0.00008152718, -0.000086929445, 52852.37, 52852.37, 0.0, 2.5004568, 2.4992363 
3.7882152e+2, 6.871505e+1, 48927.977, -317980.63, -19765.293, 0.000094072006, -0.00013755844, 49989.656, 49989.656, 0.0, 2.5004518, 2.4992366 
3.7882143e+2, 7.121437e+1, 93131.86, -222524.81, -17792.488, -0.0002387016, 0.00015529682, 94131.59, 94131.59, 0.0, 2.5004478, 2.4994023 
3.7882137e+2, 7.3713773e+1, 90908.52, -223312.14, -16570.9, -0.00025992433, 0.00017459564, 91780.0, 91780.0, 0.0, 2.5004437, 2.499403 
3.7882134e+2, 7.6213175e+1, 88474.47, -224445.53, -16434.766, -0.00027560693, 0.00019058635, 89335.266, 89335.266, 0.0, 2.5004394, 2.499403 
3.7882128e+2, 7.8712577e+1, 85988.17, -225604.1, -16297.397, -0.0002905872, 0.00020751747, 86838.266, 86838.266, 0.0, 2.500435, 2.499403 
3.7882122e+2, 8.121207e+1, 130442.03, -130881.695, -13047.288, -0.00007669496, 0.00037906837, 131091.84, 131091.84, 0.0, 2.5004325, 2.499567 
3.788212e+2, 8.3711624e+1, 128717.13, -131862.94, -11191.496, 0.00018243333, 0.00012546276, 129196.91, 129196.91, 0.0, 2.5004299, 2.4995666 
3.7882116e+2, 8.6211187e+1, 127037.45, -132654.17, -10952.566, 0.0004309794, -0.00012954067, 127498.56, 127498.56, 0.0, 2.500427, 2.4995666 
3.7882116e+2, 8.8710755e+1, 125306.56, -133470.06, -10712.361, 0.0006702553, -0.00038193757, 125749.26, 125749.26, 0.0, 2.500424, 2.4995668 
3.788211e+2, 9.12104e+1, 169960.89, -39879.816, -6402.8735, -0.0009193076, -0.00014505263, 170156.1, 170156.1, 0.0, 2.500423, 2.499728 
3.7882113e+2, 9.371012e+1, 168807.42, -41160.957, -3835.8796, -0.0006382446, -0.000027464617, 168877.47, 168877.47, 0.0, 2.5004218, 2.4997263 
3.7882113e+2, 9.620985e+1, 167886.78, -41569.96, -3434.4468, -0.00035612314, 0.000065267704, 167943.08, 167943.08, 0.0, 2.50042, 2.4997263 
3.7882116e+2, 9.870957e+1, 166733.11, -42091.19, -3037.7668, -0.0001031773, 0.00013782637, 166777.28, 166777.28, 0.0, 2.5004182, 2.4997263 
3.8132378e+2, 1.2491254e+0, -159985.45, -860388.8, -2352.2769, 0.00005416386, 0.000004785614, -159977.55, -159977.55, 0.0, 2.5005684, 2.49825 
3.8132378e+2, 3.747376e+0, -160495.86, -860746.1, -2840.3442, 0.00004731811, 0.000013224772, -160484.34, -160484.34, 0.0, 2.5005677, 2.4982498 
3.8132378e+2, 6.245627e+0, -160927.34, -860936.0, -3317.4297, 0.000061638995, 0.000020154912, -160911.61, -160911.61, 0.0, 2.5005667, 2.4982498 
3.8132375e+2, 8.7438774e+0, -161360.95, -861126.94, -3794.3118, 0.00009712674, 0.000025575926, -161340.38, -161340.38, 0.0, 2.500566, 2.4982498 
3.8132372e+2, 1.12422064e+1, -118827.14, -771018.75, -8018.6704, 0.00013442188, 0.00014773084, -118728.57, -118728.57, 0.0, 2.500564, 2.4984052 
3.813237e+2, 1.3740613e+1, -120041.164, -771244.75, -8769.217, 0.00009367407, 0.000044946475, -119923.1, -119923.1, 0.0, 2.5005617, 2.498406 
3.8132367e+2, 1.6239017e+1, -121449.484, -771871.9, -9225.307, 0.00006851945, -0.00005770805, -121318.664, -121318.664, 0.0, 2.5005593, 2.4984062 
3.813236e+2, 1.8737423e+1, -122859.836, -772500.0, -9682.323, 0.000059074486, -0.00015980302, -122715.56, -122715.56, 0.0, 2.5005567, 2.4984062 
3.8132358e+2, 2.123591e+1, -80143.76, -680586.94, -13284.114, 0.000070186674, -0.000019688117, -79850.01, -79850.01, 0.0, 2.5005534, 2.4985654 
3.813235e+2, 2.3734479e+1, -82058.164, -681042.3, -14056.337, 0.000008405942, 0.000031888445, -81728.484, -81728.484, 0.0, 2.5005496, 2.4985664 
3.8132343e+2, 2.6233044e+1, -84210.83, -681991.7, -14453.779, -0.000044201133, 0.00008465137, -83861.555, -83861.555, 0.0, 2.5005457, 2.4985666 
3.8132337e+2, 2.8731614e+1, -86364.99, -682941.8, -14852.092, -0.00008739672, 0.00013943018, -85995.47, -85995.47, 0.0, 2.500542, 2.4985669 
3.813233e+2, 3.1230262e+1, -43778.3, -589885.9, -17447.736, -0.0000036517172, 0.00030736916, -43221.426, -43221.426, 0.0, 2.5005372, 2.498729 
3.8132322e+2, 3.3728993e+1, -46269.246, -590357.06, -18087.791, 0.000022082066, 0.000091547474, -45668.594, -45668.594, 0.0, 2.500532, 2.4987304 
3.8132313e+2, 3.622772e+1, -49152.117, -591643.4, -18355.791, 0.00006215122, -0.0001276735, -48531.74, -48531.74, 0.0, 2.500527, 2.4987307 
3.8132307e+2, 3.872645e+1, -52036.66, -592930.56, -18624.773, 0.000117288386, -0.0003484434, -51396.11, -51396.11, 0.0, 2.500522, 2.498731 
3.8132298e+2, 4.1225266e+1, -8978.182, -498068.8, -20146.771, 0.00018607567, -0.00016900605, -8149.693, -8149.693, 0.0, 2.5005162, 2.4988966 
3.813229e+2, 4.3724164e+1, -11938.277, -498668.25, -20578.145, 0.00009256506, -0.00008013802, -11069.817, -11069.817, 0.0, 2.50051, 2.4988983 
3.8132277e+2, 4.6223065e+1, -15353.555, -500212.1, -20809.656, 0.000021543761, 0.0000058631595, -14462.064, -14462.064, 0.0, 2.500504, 2.4988985 
3.8132268e+2, 4.8721963e+1, -18771.37, -501757.16, -21042.35, -0.000026037076, 0.00009132201, -17856.346, -17856.346, 0.0, 2.500498, 2.4988987 
3.813226e+2, 5.122095e+1, 24041.059, -406990.97, -21308.527, -0.00015317378, 0.0003161532, 25091.906, 25091.906, 0.0, 2.5004919, 2.4990644 
3.813225e+2, 5.372001e+1, 20861.291, -407645.06, -21310.95, -0.000049500548, 0.00010978377, 21918.541, 21918.541, 0.0, 2.5004854, 2.4990664 
3.813224e+2, 5.621908e+1, 17182.994, -409331.5, -21353.105, 0.00007726004, -0.00009758925, 18249.354, 18249.354, 0.0, 2.500479, 2.4990666 
3.8132232e+2, 5.871814e+1, 13501.996, -411019.22, -21396.695, 0.00022523104, -0.0003027816, 14577.706, 14577.706, 0.0, 2.5004725, 2.4990668 
3.8132223e+2, 6.121729e+1, 56908.44, -314976.56, -20399.277, 0.00018463082, -0.00016808348, 58024.07, 58024.07, 0.0, 2.5004663, 2.4992347 
3.8132215e+2, 6.3716525e+1, 53460.113, -315999.8, -19885.242, 0.00014941228, -0.00022059117, 54527.305, 54527.305, 0.0, 2.5004597, 2.499236 
3.8132206e+2, 6.621576e+1, 49645.105, -317777.88, -19871.668, 0.00013972628, -0.00027295673, 50716.72, 50716.72, 0.0, 2.500453, 2.4992363 
3.81322e+2, 6.8714994e+1, 45826.977, -319557.44, -19859.176, 0.00015423319, -0.00032187212, 46903.184, 46903.184, 0.0, 2.5004466, 2.4992363 
3.813219e+2, 7.121432e+1, 89203.58, -224112.25, -17705.549, -0.00011843846, -0.00007075812, 90200.95, 90200.95, 0.0, 2.5004408, 2.499403 
3.8132185e+2, 7.371372e+1, 85986.24, -225298.4, -16521.02, -0.0001521101, -0.000100876714, 86860.62, 86860.62, 0.0, 2.5004349, 2.4994037 
3.813218e+2, 7.621312e+1, 82559.77, -226906.25, -16393.725, -0.00015149885, -0.00013160452, 83425.79, 83425.79, 0.0, 2.500429, 2.499404 
3.8132173e+2, 7.8712523e+1, 79129.586, -228515.89, -16267.494, -0.00012049166, -0.00015893218, 79987.375, 79987.375, 0.0, 2.500423, 2.499404 
3.8132167e+2, 8.1212014e+1, 122506.945, -133977.31, -12765.29, 0.00006751739, -0.000014337465, 123140.71, 123140.71, 0.0, 2.5004182, 2.4995687 
3.8132164e+2, 8.3711576e+1, 119588.06, -135414.55, -10969.949, 0.0002937127, -0.00023516935, 120059.11, 120059.11, 0.0, 2.5004132, 2.4995685 
3.813216e+2, 8.6211145e+1, 116691.195, -136789.44, -10732.107, 0.0005364139, -0.0004612804, 117144.77, 117144.77, 0.0, 2.5004082, 2.4995685 
3.8132155e+2, 8.871071e+1, 113789.984, -138166.44, -10494.368, 0.0007964272, -0.0006890034, 114226.336, 114226.336, 0.0, 2.5004032, 2.4995687 
3.8132152e+2, 9.121036e+1, 157364.78, -44855.027, -5864.993, -0.0004958551, -0.0004884842, 157534.73, 157534.73, 0.0, 2.5004003, 2.4997303 
3.8132152e+2, 9.371008e+1, 155338.17, -46370.633, -3515.947, -0.00029175766, -0.00039961, 155399.44, 155399.44, 0.0, 2.5003972, 2.4997292 
3.8132155e+2, 9.6209806e+1, 153644.64, -47164.293, -3276.079, -0.000024538474, -0.0003287967, 153698.08, 153698.08, 0.0, 2.5003943, 2.4997292 
3.8132155e+2, 9.8709536e+1, 151941.38, -47962.652, -3035.1921, 0.0002810617, -0.000271869, 151987.45, 151987.45, 0.0, 2.5003915, 2.4997292 
3.8382438e+2, 1.24912366e+0, -160862.1, -862209.6, -2478.27, -0.000036008558, -0.0000040188115, -160853.33, -160853.33, 0.0, 2.5005684, 2.4982467 
3.8382438e+2, 3.7473708e+0, -161370.53, -862561.7, -2957.6416, -0.000010958237, -0.000012160256, -161358.06, -161358.06, 0.0, 2.5005677, 2.4982464 
3.8382435e+2, 6.2456185e+0, -161803.84, -862754.25, -3431.1545, 0.000024998055, -0.00002043975, -161787.05, -161787.05, 0.0, 2.5005667, 2.4982467 
3.8382435e+2, 8.743866e+0, -162239.31, -862947.8, -3904.4639, 0.000071860544, -0.000028857394, -162217.55, -162217.55, 0.0, 2.500566, 2.4982467 
3.8382432e+2, 1.1242192e+1, -119623.164, -772702.2, -8442.074, 0.00010295294, 0.000088382396, -119514.055, -119514.055, 0.0, 2.5005643, 2.4984024 
3.8382426e+2, 1.3740595e+1, -120850.65, -772960.4, -9146.313, 0.00005246646, 0.000031639764, -120722.39, -120722.39, 0.0, 2.5005617, 2.498403 
3.8382423e+2, 1.6238998e+1, -122256.766, -773587.06, -9599.241, 0.000010422977, -0.00002479164, -122115.33, -122115.33, 0.0, 2.5005593, 2.498403 
3.8382417e+2, 1.8737403e+1, -123664.914, -774214.75, -10053.096, -0.000023078115, -0.0000805377, -123509.6, -123509.6, 0.0, 2.5005567, 2.4984033 
3.8382414e+2, 2.1235886e+1, -80831.35, -682065.7, -13902.505, -0.000018858394, 0.000049711238, -80510.05, -80510.05, 0.0, 2.5005534, 2.4985628 
3.8382405e+2, 2.3734449e+1, -82752.01, -682538.8, -14632.486, -0.000045233646, 0.000034116594, -82395.24, -82395.24, 0.0, 2.5005496, 2.498564 
3.8382396e+2, 2.6233014e+1, -84903.766, -683491.1, -15027.392, -0.00006684897, 0.000020583955, -84526.75, -84526.75, 0.0, 2.5005457, 2.498564 
3.838239e+2, 2.873158e+1, -87057.03, -684444.1, -15423.168, -0.000083521685, 0.00000996369, -86659.1, -86659.1, 0.0, 2.5005422, 2.4985642 
3.838238e+2, 3.1230226e+1, -44183.55, -590820.25, -18292.832, 0.000025738496, 0.00015518433, -43572.074, -43572.074, 0.0, 2.5005372, 2.4987273 
3.8382375e+2, 3.3728954e+1, -46700.47, -591349.75, -18853.977, 0.000022749831, 0.000044710614, -46048.586, -46048.586, 0.0, 2.5005322, 2.4987288 
3.8382366e+2, 3.622768e+1, -49582.816, -592639.25, -19119.705, 0.000029484092, -0.000067661655, -48910.49, -48910.49, 0.0, 2.5005271, 2.498729 
3.8382357e+2, 3.872641e+1, -52466.836, -593929.56, -19386.416, 0.00004688959, -0.00018039125, -51773.617, -51773.617, 0.0, 2.500522, 2.4987292 
3.8382348e+2, 4.1225225e+1, -9299.109, -498897.16, -21105.668, 0.00007697528, 0.0000016580167, -8390.968, -8390.968, 0.0, 2.5005162, 2.498895 
3.838234e+2, 4.372412e+1, -12251.752, -499486.0, -21483.328, 0.000022618367, -0.0000051002994, -11306.335, -11306.335, 0.0, 2.5005102, 2.4988968 
3.8382328e+2, 4.6223018e+1, -15666.548, -501033.25, -21711.85, -0.000015894593, -0.0000136577255, -14697.25, -14697.25, 0.0, 2.5005043, 2.498897 
3.838232e+2, 4.8721915e+1, -19083.879, -502581.72, -21941.553, -0.00003801366, -0.000021716754, -18090.195, -18090.195, 0.0, 2.5004983, 2.4988973 
3.838231e+2, 5.12209e+1, 24100.15, -407061.1, -22324.248, -0.00009381166, 0.00017356686, 25252.951, 25252.951, 0.0, 2.500492, 2.4990642 
3.83823e+2, 5.371996e+1, 20922.75, -407719.0, -22282.266, -0.000024650039, 0.000054737015, 22077.945, 22077.945, 0.0, 2.5004857, 2.499066 
3.838229e+2, 5.6219023e+1, 17247.17, -409408.34, -22321.072, 0.00005883506, -0.000065781904, 18411.75, 18411.75, 0.0, 2.5004792, 2.4990664 
3.838228e+2, 5.871809e+1, 13568.892, -411099.0, -22361.313, 0.0001556209, -0.00018507335, 14743.103, 14743.103, 0.0, 2.5004728, 2.4990666 
3.8382268e+2, 6.121724e+1, 57109.055, -314841.78, -21412.389, 0.00009758581, -0.000026326787, 58337.66, 58337.66, 0.0, 2.5004666, 2.4992347 
3.838226e+2, 6.371648e+1, 53685.965, -315821.63, -20884.635, 0.000096496966, -0.00007032692, 54862.62, 54862.62, 0.0, 2.50046, 2.4992363 
3.838225e+2, 6.621571e+1, 49875.734, -317598.03, -20867.64, 0.00011336676, -0.00011574655, 51056.94, 51056.94, 0.0, 2.5004535, 2.4992363 
3.838224e+2, 6.871495e+1, 46062.383, -319375.94, -20851.727, 0.00014675956, -0.00015955603, 47248.324, 47248.324, 0.0, 2.5004468, 2.4992366 
3.8382232e+2, 7.121427e+1, 89646.875, -223528.73, -18583.992, -0.000059434675, 0.00004701407, 90745.8, 90745.8, 0.0, 2.500441, 2.4994037 
3.8382226e+2, 7.371368e+1, 86475.71, -224628.39, -17418.492, -0.00011199126, -0.000028496332, 87447.92, 87447.92, 0.0, 2.500435, 2.4994047 
3.838222e+2, 7.6213074e+1, 83053.44, -226236.61, -17287.635, -0.00013903834, -0.000106038526, 84016.72, 84016.72, 0.0, 2.5004292, 2.499405 
3.8382214e+2, 7.871248e+1, 79627.445, -227846.63, -17157.842, -0.00014352225, -0.00018194501, 80581.94, 80581.94, 0.0, 2.5004234, 2.499405 
3.8382208e+2, 8.1211966e+1, 123201.11, -132962.64, -13485.507, 0.000016026752, -0.000025011908, 123909.086, 123909.086, 0.0, 2.5004187, 2.4995701 
3.8382205e+2, 8.3711535e+1, 120360.336, -134239.22, -11724.393, 0.00021299558, -0.000121901576, 120899.11, 120899.11, 0.0, 2.5004137, 2.4995704 
3.83822e+2, 8.6211103e+1, 117464.125, -135613.45, -11483.361, 0.00041838983, -0.00022378763, 117984.12, 117984.12, 0.0, 2.5004086, 2.4995704 
3.8382196e+2, 8.871067e+1, 114563.57, -136989.8, -11242.432, 0.0006330857, -0.0003273182, 115065.016, 115065.016, 0.0, 2.5004036, 2.4995704 
3.8382193e+2, 9.121033e+1, 158170.5, -43710.64, -6260.5747, -0.00040969814, -0.00015380065, 158364.47, 158364.47, 0.0, 2.5004008, 2.499732 
3.8382193e+2, 9.371005e+1, 156265.31, -44969.37, -3946.7634, -0.0002754657, -0.00016662451, 156342.69, 156342.69, 0.0, 2.500398, 2.4997313 
3.8382196e+2, 9.6209776e+1, 154568.47, -45763.746, -3698.9036, -0.00010054725, -0.00019640337, 154636.73, 154636.73, 0.0, 2.5003948, 2.4997313 
3.8382196e+2, 9.8709506e+1, 152861.86, -46562.82, -3450.0242, 0.000095244184, -0.00023958736, 152921.53, 152921.53, 0.0, 2.500392, 2.4997313 
3.8632494e+2, 1.249122e+0, -161739.44, -864031.9, -2603.9133, -0.0001258262, -0.000014114184, -161729.8, -161729.8, 0.0, 2.5005684, 2.4982436 
3.863249e+2, 3.747366e+0, -162247.44, -864381.9, -3074.9766, -0.00006817024, -0.000041418134, -162233.97, -162233.97, 0.0, 2.5005677, 2.4982433 
3.863249e+2, 6.24561e+0, -162682.6, -864577.1, -3544.917, -0.000009868913, -0.00006748917, -162664.7, -162664.7, 0.0, 2.5005667, 2.4982436 
3.8632488e+2, 8.743855e+0, -163119.9, -864773.4, -4014.6538, 0.000049077997, -0.00009232739, -163096.94, -163096.94, 0.0, 2.500566, 2.4982436 
3.8632485e+2, 1.1242177e+1, -120431.02, -774410.2, -8857.468, 0.00006637607, 0.000028825903, -120311.08, -120311.08, 0.0, 2.5005643, 2.4983993 
3.8632482e+2, 1.3740578e+1, -121662.18, -774680.3, -9522.885, 0.0000045375114, 0.000013464634, -121523.336, -121523.336, 0.0, 2.5005617, 2.4984 
3.8632476e+2, 1.6238977e+1, -123066.086, -775306.5, -9972.651, -0.000055985645, -0.0000014346002, -122913.64, -122913.64, 0.0, 2.5005593, 2.4984002 
3.8632473e+2, 1.8737379e+1, -124472.03, -775933.75, -10423.344, -0.00011513363, -0.000015522686, -124305.305, -124305.305, 0.0, 2.500557, 2.4984002 
3.8632467e+2, 2.1235861e+1, -81538.484, -683585.06, -14521.164, -0.00010233317, 0.00011295973, -81188.445, -81188.445, 0.0, 2.5005534, 2.4985602 
3.8632458e+2, 2.373442e+1, -83447.66, -684039.1, -15207.915, -0.00009339335, 0.000025159587, -83062.82, -83062.82, 0.0, 2.5005498, 2.4985614 
3.8632452e+2, 2.6232982e+1, -85598.52, -684994.3, -15600.284, -0.000084190084, -0.000059758837, -85192.77, -85192.77, 0.0, 2.500546, 2.4985614 
3.8632447e+2, 2.8731546e+1, -87750.88, -685950.2, -15993.524, -0.00007451308, -0.00014086837, -87323.58, -87323.58, 0.0, 2.5005422, 2.4985616 
3.8632438e+2, 3.1230187e+1, -44607.902, -591794.25, -19130.754, 0.000044264107, -0.00000074956847, -43939.867, -43939.867, 0.0, 2.5005372, 2.4987254 
3.863243e+2, 3.3728915e+1, -47133.098, -592345.4, -19619.36, 0.000012347475, -0.000009748532, -46428.01, -46428.01, 0.0, 2.5005322, 2.498727 
3.863242e+2, 3.6227643e+1, -50014.92, -593638.06, -19882.818, -0.000014330702, -0.000019302555, -49288.688, -49288.688, 0.0, 2.5005271, 2.4987273 
3.863241e+2, 3.8726372e+1, -52898.42, -594931.5, -20147.258, -0.0000347344, -0.00002802229, -52150.582, -52150.582, 0.0, 2.5005221, 2.4987273 
3.8632402e+2, 4.1225183e+1, -9640.521, -499768.1, -22055.578, -0.00003086741, 0.00016464567, -8650.029, -8650.029, 0.0, 2.5005164, 2.4988935 
3.8632387e+2, 4.3724075e+1, -12566.429, -500306.25, -22387.547, -0.000045567645, 0.000058601774, -11540.983, -11540.983, 0.0, 2.5005105, 2.4988954 
3.8632378e+2, 4.6222973e+1, -15980.743, -501856.88, -22613.078, -0.000051190364, -0.00004827293, -14930.581, -14930.581, 0.0, 2.5005045, 2.4988956 
3.863237e+2, 4.8721868e+1, -19397.594, -503408.75, -22839.793, -0.000047465743, -0.00015360847, -18322.205, -18322.205, 0.0, 2.5004985, 2.498896 
3.8632357e+2, 5.1220846e+1, 24137.22, -407176.97, -23334.686, -0.000044845492, 0.000026519123, 25395.986, 25395.986, 0.0, 2.5004923, 2.499064 
3.8632348e+2, 5.3719914e+1, 20983.059, -407795.3, -23252.396, -0.000009868985, -0.000009060607, 22240.336, 22240.336, 0.0, 2.500486, 2.4990659 
3.8632336e+2, 5.621898e+1, 17310.197, -409487.6, -23287.854, 0.000030810483, -0.000047200312, 18577.12, 18577.12, 0.0, 2.5004795, 2.499066 
3.8632327e+2, 5.8718044e+1, 13634.638, -411181.2, -23324.746, 0.00007688104, -0.00008506568, 14911.458, 14911.458, 0.0, 2.500473, 2.4990664 
3.8632315e+2, 6.1217195e+1, 57287.5, -314753.06, -22416.057, 0.0000073998253, 0.00011143753, 58633.234, 58633.234, 0.0, 2.5004668, 2.4992347 
3.8632306e+2, 6.371643e+1, 53910.86, -315645.44, -21883.336, 0.000039061055, 0.00007178361, 55202.176, 55202.176, 0.0, 2.5004604, 2.4992363 
3.8632298e+2, 6.621567e+1, 50105.406, -317420.2, -21862.92, 0.000081031016, 0.000028938623, 51401.39, 51401.39, 0.0, 2.5004537, 2.4992366 
3.863229e+2, 6.8714905e+1, 46296.832, -319196.4, -21843.584, 0.00013185407, -0.000014136152, 47597.676, 47597.676, 0.0, 2.500447, 2.4992366 
3.863228e+2, 7.121422e+1, 90062.58, -223002.52, -19458.773, -0.0000075733537, 0.00016766065, 91267.42, 91267.42, 0.0, 2.5004416, 2.4994044 
3.863227e+2, 7.3713624e+1, 86964.29, -223960.25, -18315.023, -0.00007971267, 0.000042568612, 88039.414, 88039.414, 0.0, 2.5004356, 2.4994056 
3.8632262e+2, 7.6213026e+1, 83546.21, -225568.84, -18180.604, -0.0001351393, -0.000086296895, 84611.83, 84611.83, 0.0, 2.5004296, 2.4994059 
3.8632253e+2, 7.8712434e+1, 80124.414, -227179.2, -18047.248, -0.00017583561, -0.00021529109, 81180.66, 81180.66, 0.0, 2.5004237, 2.4994059 
3.8632247e+2, 8.1211925e+1, 123870.74, -131998.95, -14196.582, -0.000041027986, -0.00003572259, 124656.01, 124656.01, 0.0, 2.5004191, 2.4995716 
3.8632244e+2, 8.3711493e+1, 121131.914, -133065.34, -12478.709, 0.00012681345, -0.000012276643, 121743.03, 121743.03, 0.0, 2.5004141, 2.499572 
3.863224e+2, 8.621107e+1, 118236.36, -134438.94, -12234.488, 0.00029494535, 0.0000062684658, 118827.37, 118827.37, 0.0, 2.5004091, 2.499572 
3.8632238e+2, 8.871064e+1, 115336.45, -135814.63, -11990.369, 0.00046436838, 0.000023136501, 115907.59, 115907.59, 0.0, 2.5004041, 2.4995723 
3.8632232e+2, 9.121029e+1, 158949.14, -42622.547, -6639.8105, -0.00033830083, 0.0002002856, 159167.61, 159167.61, 0.0, 2.5004013, 2.4997337 
3.8632232e+2, 9.3710023e+1, 157191.44, -43570.26, -4378.234, -0.00027216726, 0.00007988285, 157286.88, 157286.88, 0.0, 2.5003984, 2.4997334 
3.8632235e+2, 9.6209747e+1, 155491.25, -44365.35, -4122.382, -0.00018765137, -0.00005690106, 155576.23, 155576.23, 0.0, 2.5003955, 2.4997334 
3.8632235e+2, 9.870947e+1, 153781.3, -45165.137, -3865.5103, -0.00009977054, -0.0002066096, 153856.38, 153856.38, 0.0, 2.5003924, 2.4997334 
3.888255e+2, 1.2491204e+0, -162348.86, -865726.7, -2734.4153, -0.00020816537, -0.000025246027, -162338.22, -162338.22, 0.0, 2.5005689, 2.4982405 
3.888255e+2, 3.747361e+0, -162771.38, -866035.94, -3207.3135, -0.00011869007, -0.00007381986, -162756.75, -162756.75, 0.0, 2.5005682, 2.4982402 
3.8882548e+2, 6.245602e+0, -163185.02, -866222.56, -3682.1975, -0.000038065944, -0.000119835684, -163165.73, -163165.73, 0.0, 2.5005674, 2.4982402 
3.8882548e+2, 8.743842e+0, -163663.95, -866440.6, -4155.4683, 0.000033706725, -0.00016329356, -163639.38, -163639.38, 0.0, 2.5005667, 2.4982402 
3.8882545e+2, 1.12421624e+1, -120980.52, -776013.25, -9303.694, 0.000029610368, -0.000029193001, -120848.41, -120848.41, 0.0, 2.5005648, 2.4983964 
3.888254e+2, 1.374056e+1, -122274.93, -776308.44, -9949.058, -0.000045530338, -0.000007731964, -122123.625, -122123.625, 0.0, 2.5005622, 2.498397 
3.8882536e+2, 1.6238958e+1, -123771.125, -776979.9, -10407.806, -0.00012605949, 0.000014327765, -123605.336, -123605.336, 0.0, 2.5005596, 2.498397 
3.888253e+2, 1.8737356e+1, -125294.48, -777664.44, -10868.346, -0.00021198073, 0.000037340957, -125113.47, -125113.47, 0.0, 2.500557, 2.4983974 
3.8882524e+2, 2.1235836e+1, -82398.92, -685212.25, -15230.333, -0.00017519333, 0.00017236265, -82014.37, -82014.37, 0.0, 2.5005534, 2.4985576 
3.8882515e+2, 2.3734392e+1, -84399.93, -685669.3, -15892.217, -0.00013159546, 0.0000075260955, -83980.18, -83980.18, 0.0, 2.5005493, 2.4985588 
3.8882506e+2, 2.623295e+1, -86698.58, -686699.5, -16303.971, -0.00009184578, -0.0001538435, -86255.875, -86255.875, 0.0, 2.5005453, 2.4985588 
3.8882497e+2, 2.8731507e+1, -89026.41, -687743.75, -16719.166, -0.000055624703, -0.0003106849, -88559.88, -88559.88, 0.0, 2.5005412, 2.498559 
3.888249e+2, 3.1230152e+1, -45786.36, -593169.44, -20157.05, 0.000056631317, -0.00015836304, -45045.094, -45045.094, 0.0, 2.5005362, 2.4987237 
3.888248e+2, 3.3728877e+1, -48429.48, -593767.4, -20635.76, -0.0000049507676, -0.00007010862, -47649.73, -47649.73, 0.0, 2.500531, 2.4987252 
3.888247e+2, 3.6227605e+1, -51453.785, -595132.6, -20956.186, -0.000065275744, 0.000018688263, -50647.223, -50647.223, 0.0, 2.5005255, 2.4987254 
3.888246e+2, 3.872633e+1, -54495.44, -596506.25, -21280.576, -0.00012334989, 0.00010942329, -53661.203, -53661.203, 0.0, 2.5005202, 2.4987257 
3.8882452e+2, 4.1225138e+1, -11270.243, -501302.7, -23434.912, -0.00013333777, 0.00032019021, -10152.0625, -10152.0625, 0.0, 2.5005145, 2.4988918 
3.888244e+2, 4.3724033e+1, -14200.681, -501775.1, -23800.664, -0.000108280954, 0.00011071777, -13041.62, -13041.62, 0.0, 2.5005083, 2.498894 
3.8882428e+2, 4.6222922e+1, -17686.799, -503364.5, -24098.066, -0.000080543294, -0.000098803444, -16494.045, -16494.045, 0.0, 2.5005023, 2.498894 
3.888242e+2, 4.8721817e+1, -21197.238, -504965.63, -24400.045, -0.000050014984, -0.00030583053, -19969.678, -19969.678, 0.0, 2.5004961, 2.4988942 
3.8882408e+2, 5.12208e+1, 22651.48, -408072.78, -25075.53, -0.0000020985392, -0.00012734986, 24106.393, 24106.393, 0.0, 2.50049, 2.4990635 
3.88824e+2, 5.3719866e+1, 19593.9, -408583.38, -25027.313, -0.0000017016841, -0.00008480996, 21051.805, 21051.805, 0.0, 2.5004838, 2.4990656 
3.8882387e+2, 5.621893e+1, 15937.198, -410272.5, -25134.223, -0.0000031891893, -0.000045689318, 17414.281, 17414.281, 0.0, 2.5004773, 2.4990659 
3.8882372e+2, 5.8717996e+1, 12238.733, -411981.78, -25247.068, -0.0000063116663, -0.0000070500355, 13736.004, 13736.004, 0.0, 2.5004709, 2.499066 
3.8882363e+2, 6.121715e+1, 56087.81, -315371.16, -24423.857, -0.00008136578, 0.00023992379, 57686.824, 57686.824, 0.0, 2.500465, 2.4992347 
3.888235e+2, 6.371638e+1, 53019.703, -316016.4, -23927.32, -0.000019754085, 0.00019901912, 54564.617, 54564.617, 0.0, 2.5004587, 2.4992366 
3.8882342e+2, 6.621562e+1, 49418.094, -317694.1, -23943.033, 0.000045285222, 0.00015326413, 50973.07, 50973.07, 0.0, 2.5004525, 2.4992366 
3.8882333e+2, 6.871485e+1, 45771.504, -319393.4, -23966.947, 0.00011235001, 0.000105759966, 47337.813, 47337.813, 0.0, 2.500446, 2.4992368 
3.888232e+2, 7.1214175e+1, 89932.98, -222786.31, -21474.195, 0.00003999216, 0.00028179292, 91400.7, 91400.7, 0.0, 2.5004408, 2.4994051 
3.8882315e+2, 7.3713577e+1, 87257.29, -223391.45, -20333.268, -0.000052754032, 0.00010212029, 88582.54, 88582.54, 0.0, 2.5004356, 2.4994066 
3.8882306e+2, 7.6212984e+1, 84114.445, -224870.27, -20180.45, -0.00013686012, -0.000083234816, 85426.9, 85426.9, 0.0, 2.50043, 2.4994068 
3.8882297e+2, 7.8712386e+1, 80915.82, -226375.94, -20035.477, -0.0002133241, -0.00027033009, 82216.625, 82216.625, 0.0, 2.5004246, 2.4994068 
3.888229e+2, 8.1211877e+1, 125177.04, -130764.01, -15955.899, -0.00009948732, -0.000058816637, 126167.92, 126167.92, 0.0, 2.5004208, 2.499573 
3.8882288e+2, 8.371146e+1, 123074.47, -131324.9, -14212.781, 0.000038624526, 0.00007984886, 123866.05, 123866.05, 0.0, 2.5004165, 2.499574 
3.8882282e+2, 8.621103e+1, 120614.875, -132488.34, -13891.451, 0.00017017986, 0.00021362076, 121375.016, 121375.016, 0.0, 2.5004125, 2.499574 
3.888228e+2, 8.87106e+1, 118075.67, -133690.13, -13573.759, 0.0002963585, 0.00034578363, 118805.375, 118805.375, 0.0, 2.500408, 2.499574 
3.8882273e+2, 9.121026e+1, 162115.03, -40416.156, -7704.971, -0.00027482718, 0.00055678596, 162407.73, 162407.73, 0.0, 2.500406, 2.499735 
3.8882276e+2, 9.370998e+1, 160963.89, -40790.344, -5313.76, -0.0002748715, 0.00032325718, 161103.75, 161103.75, 0.0, 2.500404, 2.4997356 
3.8882276e+2, 9.6209717e+1, 159460.89, -41489.832, -4850.7363, -0.00027628304, 0.00007313115, 159577.9, 159577.9, 0.0, 2.5004013, 2.4997356 
3.8882276e+2, 9.870944e+1, 157715.58, -42306.008, -4386.3403, -0.00028941975, -0.00018969963, 157811.72, 157811.72, 0.0, 2.5003982, 2.4997356 
3.9132607e+2, 1.2491188e+0, -152460.34, -862412.6, -2870.4114, -0.0000012576256, -0.000018733195, -152448.75, -152448.75, 0.0, 2.5005872, 2.4982374 
3.9132607e+2, 3.7473565e+0, -153163.61, -862855.2, -3349.971, 0.000033531014, -0.000055689216, -153147.8, -153147.8, 0.0, 2.5005863, 2.4982371 
3.9132604e+2, 6.245594e+0, -153795.05, -863145.8, -3837.088, 0.00007947138, -0.00009196438, -153774.3, -153774.3, 0.0, 2.500585, 2.4982371 
3.9132604e+2, 8.7438315e+0, -154428.1, -863437.3, -4324.634, 0.00013656366, -0.00012755876, -154401.72, -154401.72, 0.0, 2.5005841, 2.4982371 
3.91326e+2, 1.1242148e+1, -111797.56, -772935.75, -9756.198, 0.00011578967, 0.00000925727, -111653.625, -111653.625, 0.0, 2.500582, 2.4983933 
3.9132595e+2, 1.3740544e+1, -113256.11, -773321.8, -10371.528, 0.000043877186, 0.000033612752, -113093.18, -113093.18, 0.0, 2.500579, 2.498394 
3.913259e+2, 1.623894e+1, -114886.88, -774063.94, -10818.62, -0.000023218248, 0.000058121263, -114709.375, -114709.375, 0.0, 2.5005763, 2.498394 
3.9132583e+2, 1.8737334e+1, -116518.9, -774806.75, -11266.395, -0.00008554238, 0.00008313324, -116326.13, -116326.13, 0.0, 2.5005734, 2.4983943 
3.9132577e+2, 2.1235809e+1, -73818.92, -682288.1, -15873.303, -0.000025034968, 0.00021614878, -73405.11, -73405.11, 0.0, 2.5005693, 2.498555 
3.913257e+2, 2.3734364e+1, -76296.41, -682989.1, -16451.197, 0.0000013402339, 0.00005384237, -75850.64, -75850.64, 0.0, 2.5005646, 2.498556 
3.9132562e+2, 2.623292e+1, -79045.16, -684252.3, -16818.125, 0.000036571575, -0.00011120133, -78578.16, -78578.16, 0.0, 2.5005598, 2.4985561 
3.9132553e+2, 2.8731474e+1, -81795.65, -685516.4, -17185.787, 0.000081097016, -0.00027795314, -81306.82, -81306.82, 0.0, 2.500555, 2.4985561 
3.9132547e+2, 3.1230113e+1, -38746.047, -590826.8, -20813.945, 0.00016281754, -0.00012894027, -37962.453, -37962.453, 0.0, 2.5005493, 2.4987214 
3.9132535e+2, 3.372884e+1, -41889.02, -591684.2, -21234.178, 0.0000775973, -0.00003805259, -41070.133, -41070.133, 0.0, 2.500543, 2.4987228 
3.9132527e+2, 3.6227563e+1, -45397.684, -593299.9, -21534.314, 0.0000038727253, 0.000049663282, -44552.62, -44552.62, 0.0, 2.5005372, 2.498723 
3.9132515e+2, 3.8726288e+1, -48908.215, -594916.5, -21835.498, -0.00005754999, 0.00013561762, -48036.38, -48036.38, 0.0, 2.500531, 2.4987233 
3.9132506e+2, 4.1225094e+1, -6097.479, -499634.97, -24034.154, -0.000048547125, 0.0003249622, -4929.833, -4929.833, 0.0, 2.5005243, 2.49889 
3.913249e+2, 4.3723983e+1, -9728.839, -500443.56, -24202.922, -0.00001560345, 0.000098578, -8537.997, -8537.997, 0.0, 2.500517, 2.498892 
3.913248e+2, 4.6222878e+1, -13906.135, -502383.88, -24329.205, 0.000031955926, -0.00013085475, -12697.382, -12697.382, 0.0, 2.5005097, 2.498892 
3.9132467e+2, 4.8721766e+1, -18085.9, -504325.34, -24456.707, 0.00009439871, -0.00036088095, -16858.883, -16858.883, 0.0, 2.5005023, 2.4988923 
3.9132455e+2, 5.1220745e+1, 25211.246, -407341.6, -25099.049, 0.0001394849, -0.00020266013, 26662.758, 26662.758, 0.0, 2.500495, 2.4990623 
3.9132443e+2, 5.371981e+1, 21232.863, -408271.13, -24987.36, 0.00009255244, -0.0001707708, 22681.672, 22681.672, 0.0, 2.5004869, 2.4990647 
3.9132434e+2, 5.6218874e+1, 16668.803, -410412.1, -25054.865, 0.000070618626, -0.00013738831, 18133.633, 18133.633, 0.0, 2.500479, 2.4990647 
3.9132422e+2, 5.871794e+1, 12101.338, -412554.72, -25123.588, 0.00007406504, -0.00009956897, 13582.538, 13582.538, 0.0, 2.500471, 2.499065 
3.913241e+2, 6.1217093e+1, 55201.594, -315903.22, -24175.85, 0.000013799041, 0.0001239357, 56769.918, 56769.918, 0.0, 2.5004635, 2.4992344 
3.9132398e+2, 6.371633e+1, 51176.848, -316947.9, -23585.484, 0.000041088006, 0.00003688615, 52681.8, 52681.8, 0.0, 2.5004556, 2.4992363 
3.913239e+2, 6.621556e+1, 46612.316, -319105.1, -23496.4, 0.00009590952, -0.00004559052, 48115.72, 48115.72, 0.0, 2.5004478, 2.4992366 
3.9132378e+2, 6.87148e+1, 42043.824, -321264.2, -23408.629, 0.00017721282, -0.00012036895, 43545.875, 43545.875, 0.0, 2.50044, 2.4992366 
3.9132366e+2, 7.121412e+1, 85322.55, -224684.39, -20689.828, 0.00015711223, 0.000044595978, 86697.29, 86697.29, 0.0, 2.5004327, 2.4994059 
3.9132357e+2, 7.3713523e+1, 81440.46, -225756.38, -19538.408, 0.00005944801, -0.00014390408, 82678.16, 82678.16, 0.0, 2.500425, 2.4994078 
3.9132348e+2, 7.621293e+1, 77062.02, -227844.94, -19342.377, -0.000011545109, -0.00033327923, 78284.15, 78284.15, 0.0, 2.5004177, 2.4994078 
3.913234e+2, 7.871233e+1, 72678.62, -229935.89, -19146.96, -0.000056165805, -0.00051950733, 73885.266, 73885.266, 0.0, 2.50041, 2.4994078 
3.9132333e+2, 8.121183e+1, 115810.61, -134505.42, -14800.808, 0.0000219088, -0.0003342588, 116682.72, 116682.72, 0.0, 2.500404, 2.4995747 
3.9132327e+2, 8.3711404e+1, 112602.95, -135406.05, -13153.184, 0.00008937351, -0.00023918945, 113298.58, 113298.58, 0.0, 2.5003977, 2.499576 
3.913232e+2, 8.6210984e+1, 108990.61, -137127.38, -12884.779, 0.00018964104, -0.00014637652, 109663.31, 109663.31, 0.0, 2.5003912, 2.499576 
3.9132318e+2, 8.871056e+1, 105370.98, -138852.2, -12616.751, 0.00032374175, -0.000052625233, 106021.04, 106021.04, 0.0, 2.500385, 2.499576 
3.9132312e+2, 9.121021e+1, 148197.17, -45909.625, -6402.2314, 0.000026759239, 0.00017100033, 148408.11, 148408.11, 0.0, 2.5003808, 2.4997377 
3.9132312e+2, 9.3709946e+1, 145989.16, -46515.676, -4175.8057, -0.000017114786, -0.000044765566, 146079.69, 146079.69, 0.0, 2.5003765, 2.499739 
3.9132312e+2, 9.620968e+1, 143485.22, -47702.535, -3819.8577, -0.000002001577, -0.0002846153, 143561.5, 143561.5, 0.0, 2.5003722, 2.499739 
3.9132312e+2, 9.870941e+1, 140969.25, -48895.188, -3462.4697, 0.00006668145, -0.00054434326, 141032.38, 141032.38, 0.0, 2.5003679, 2.499739 
3.938267e+2, 1.24911726e+0, -153364.28, -864291.9, -3043.571, 0.00003775991, -0.000010691458, -153351.25, -153351.25, 0.0, 2.5005872, 2.498234 
3.9382666e+2, 3.7473518e+0, -154065.58, -864732.56, -3518.8467, 0.000031557152, -0.000031786905, -154048.16, -154048.16, 0.0, 2.5005863, 2.4982338 
3.9382663e+2, 6.245586e+0, -154695.7, -865022.8, -4003.6362, 0.000029713974, -0.000052498723, -154673.14, -154673.14, 0.0, 2.500585, 2.4982338 
3.9382663e+2, 8.7438214e+0, -155327.45, -865313.8, -4488.855, 0.000032230564, -0.00007282697, -155299.08, -155299.08, 0.0, 2.5005841, 2.4982338 
3.938266e+2, 1.1242134e+1, -112603.3, -774628.44, -10207.803, 0.0000048945612, 0.000043510692, -112445.94, -112445.94, 0.0, 2.500582, 2.4983904 
3.9382654e+2, 1.3740526e+1, -114070.984, -775037.1, -10805.434, -0.000017735081, 0.000029234458, -113894.38, -113894.38, 0.0, 2.500579, 2.4983912 
3.9382648e+2, 1.6238919e+1, -115701.04, -775781.44, -11250.503, -0.000039241953, 0.00001543101, -115509.336, -115509.336, 0.0, 2.5005763, 2.4983912 
3.9382643e+2, 1.8737309e+1, -117332.32, -776526.3, -11696.253, -0.00005967623, 0.000002432499, -117124.86, -117124.86, 0.0, 2.5005734, 2.4983912 
3.9382637e+2, 2.1235782e+1, -74443.63, -683638.7, -16639.494, 0.000013390173, 0.00011746376, -73989.48, -73989.48, 0.0, 2.5005693, 2.4985526 
3.9382628e+2, 2.3734336e+1, -76943.76, -684390.1, -17177.459, 0.000011306795, 0.000021316995, -76458.41, -76458.41, 0.0, 2.5005646, 2.4985535 
3.938262e+2, 2.623289e+1, -79691.72, -685655.0, -17542.283, 0.000014502778, -0.00007722085, -79184.305, -79184.305, 0.0, 2.5005598, 2.4985538 
3.938261e+2, 2.8731441e+1, -82441.414, -686920.7, -17907.844, 0.000023454539, -0.00017727775, -81911.36, -81911.36, 0.0, 2.500555, 2.4985538 
3.9382598e+2, 3.123008e+1, -39246.66, -591955.44, -21763.701, 0.000068225585, -0.00003036863, -38391.008, -38391.008, 0.0, 2.5005493, 2.4987195 
3.938259e+2, 3.3728802e+1, -42393.87, -592826.9, -22159.885, 0.000005453584, -0.00000971605, -41503.18, -41503.18, 0.0, 2.5005434, 2.498721 
3.9382577e+2, 3.6227524e+1, -45901.313, -594445.06, -22457.69, -0.000049899154, 0.000007634115, -44983.418, -44983.418, 0.0, 2.5005372, 2.498721 
3.9382568e+2, 3.8726246e+1, -49410.613, -596064.1, -22756.541, -0.00009725931, 0.000023099301, -48464.92, -48464.92, 0.0, 2.5005312, 2.4987211 
3.9382556e+2, 4.1225052e+1, -6242.46, -500057.44, -25162.404, -0.00004278082, 0.00019121649, -4963.618, -4963.618, 0.0, 2.5005243, 2.4988892 
3.9382544e+2, 4.372394e+1, -9887.252, -500900.97, -25301.39, -0.0000034886202, 0.000057140434, -8586.942, -8586.942, 0.0, 2.5005171, 2.498891 
3.9382532e+2, 4.6222833e+1, -14062.603, -502844.13, -25424.736, 0.00004367727, -0.00008031874, -12743.653, -12743.653, 0.0, 2.5005097, 2.4988914 
3.938252e+2, 4.8721722e+1, -18240.422, -504788.47, -25549.3, 0.00009930861, -0.00021898284, -16902.473, -16902.473, 0.0, 2.5005026, 2.4988916 
3.9382508e+2, 5.12207e+1, 25195.209, -407568.72, -26316.564, 0.00011615966, -0.000044778986, 26789.656, 26789.656, 0.0, 2.500495, 2.4990618 
3.9382493e+2, 5.3719765e+1, 21230.64, -408478.28, -26181.244, 0.000060368304, -0.000055287266, 22819.93, 22819.93, 0.0, 2.500487, 2.4990642 
3.938248e+2, 5.621883e+1, 16670.344, -410619.66, -26245.395, 0.000021259755, -0.0000657754, 18276.375, 18276.375, 0.0, 2.5004792, 2.4990642 
3.9382467e+2, 5.8717895e+1, 12106.643, -412762.7, -26310.764, -0.000001008621, -0.00007338182, 13729.781, 13729.781, 0.0, 2.5004714, 2.4990644 
3.9382455e+2, 6.1217046e+1, 55487.805, -315553.56, -25372.89, -0.000022498643, 0.000121819314, 57214.84, 57214.84, 0.0, 2.5004637, 2.499235 
3.9382443e+2, 6.371628e+1, 51505.89, -316521.25, -24777.277, 0.000012554485, 0.000039182978, 53166.516, 53166.516, 0.0, 2.5004559, 2.499237 
3.938243e+2, 6.6215515e+1, 46948.305, -318675.66, -24684.38, 0.00006523859, -0.000041705847, 48607.293, 48607.293, 0.0, 2.500448, 2.499237 
3.938242e+2, 6.871475e+1, 42386.758, -320832.0, -24592.791, 0.00013512181, -0.000117799194, 44044.32, 44044.32, 0.0, 2.5004401, 2.4992373 
3.938241e+2, 7.1214074e+1, 85854.58, -223908.9, -21802.354, 0.00015295844, 0.00007583712, 87381.586, 87381.586, 0.0, 2.500433, 2.499407 
3.93824e+2, 7.371349e+1, 82040.1, -224848.23, -20673.736, 0.00008427778, -0.000024622994, 83426.54, 83426.54, 0.0, 2.5004256, 2.499409 
3.9382392e+2, 7.621289e+1, 77666.35, -226934.22, -20473.44, 0.000030118892, -0.00012710686, 79036.3, 79036.3, 0.0, 2.500418, 2.4994092 
3.938238e+2, 7.8712296e+1, 73287.63, -229022.6, -20273.76, -0.000009330726, -0.0002277478, 74641.19, 74641.19, 0.0, 2.5004103, 2.4994092 
3.9382374e+2, 8.1211793e+1, 116498.31, -133482.73, -15716.864, 0.000019285817, -0.000064422944, 117482.59, 117482.59, 0.0, 2.5004041, 2.499576 
3.9382368e+2, 8.371136e+1, 113411.375, -134138.42, -14089.762, 0.000028328712, -0.000072656505, 114210.74, 114210.74, 0.0, 2.500398, 2.499578 
3.938236e+2, 8.621094e+1, 109803.125, -135856.3, -13815.528, 0.000055132514, -0.00008392812, 110577.65, 110577.65, 0.0, 2.5003917, 2.499578 
3.9382353e+2, 8.871052e+1, 106187.58, -137577.69, -13541.671, 0.00010035577, -0.000095232645, 106937.54, 106937.54, 0.0, 2.5003855, 2.499578 
3.938235e+2, 9.121018e+1, 149161.33, -44429.805, -7006.5244, 0.00007119121, 0.0001418999, 149414.58, 149414.58, 0.0, 2.5003815, 2.4997401 
3.938235e+2, 9.370992e+1, 147123.45, -44671.98, -4813.14, 0.000010106988, 0.00004251664, 147244.16, 147244.16, 0.0, 2.5003772, 2.4997418 
3.938235e+2, 9.620966e+1, 144612.16, -45862.113, -4446.8667, -0.000022911086, -0.00007789017, 144715.92, 144715.92, 0.0, 2.5003726, 2.4997418 
3.9382347e+2, 9.87094e+1, 142088.84, -47058.04, -4079.153, -0.00002808197, -0.00021489899, 142176.78, 142176.78, 0.0, 2.5003684, 2.4997418 
3.9632726e+2, 1.2491157e+0, -154268.8, -866172.3, -3215.7422, 0.0000764418, -0.0000036191357, -154254.28, -154254.28, 0.0, 2.5005875, 2.498231 
3.9632723e+2, 3.747347e+0, -154969.23, -866613.5, -3687.47, 0.000028576382, -0.000010792847, -154950.13, -154950.13, 0.0, 2.5005863, 2.4982307 
3.9632723e+2, 6.2455785e+0, -155598.06, -866903.3, -4169.9326, -0.000021721573, -0.00001788015, -155573.61, -155573.61, 0.0, 2.500585, 2.4982307 
3.963272e+2, 8.7438095e+0, -156228.5, -867193.9, -4652.824, -0.00007445187, -0.000024881105, -156198.06, -156198.06, 0.0, 2.5005841, 2.4982307 
3.9632717e+2, 1.1242121e+1, -113419.62, -776343.1, -10657.608, -0.00010526254, 0.000076316705, -113248.32, -113248.32, 0.0, 2.500582, 2.4983873 
3.963271e+2, 1.374051e+1, -114887.586, -776756.06, -11238.766, -0.00007846224, 0.000019243042, -114696.805, -114696.805, 0.0, 2.500579, 2.498388 
3.9632705e+2, 1.6238898e+1, -116516.914, -777502.5, -11681.812, -0.000054241686, -0.000037057307, -116310.52, -116310.52, 0.0, 2.5005763, 2.4983883 
3.96327e+2, 1.8737286e+1, -118147.47, -778249.5, -12125.539, -0.000032647233, -0.00009225123, -117924.805, -117924.805, 0.0, 2.5005734, 2.4983883 
3.9632693e+2, 2.1235757e+1, -75083.86, -685021.56, -17400.443, 0.00004730652, 0.000016752247, -74587.86, -74587.86, 0.0, 2.5005693, 2.4985502 
3.9632684e+2, 2.3734306e+1, -77592.56, -685794.2, -17903.191, 0.000016636752, -0.000017503158, -77066.016, -77066.016, 0.0, 2.5005646, 2.4985511 
3.9632675e+2, 2.623286e+1, -80339.73, -687060.6, -18265.912, -0.000012297596, -0.000053880307, -79790.31, -79790.31, 0.0, 2.5005598, 2.4985511 
3.9632666e+2, 2.873141e+1, -83088.63, -688328.0, -18629.371, -0.00003901446, -0.0000915874, -82515.76, -82515.76, 0.0, 2.500555, 2.4985514 
3.9632654e+2, 3.1230044e+1, -39767.8, -593126.75, -22708.607, -0.000029766285, 0.00006453939, -38837.453, -38837.453, 0.0, 2.5005496, 2.4987173 
3.9632645e+2, 3.3728763e+1, -42900.008, -593972.2, -23084.766, -0.00006952453, 0.00001062969, -41934.664, -41934.664, 0.0, 2.5005434, 2.4987187 
3.9632633e+2, 3.6227483e+1, -46406.22, -595592.9, -23380.236, -0.0001059508, -0.000046819092, -45412.664, -45412.664, 0.0, 2.5005374, 2.498719 
3.963262e+2, 3.8726205e+1, -49914.297, -597214.44, -23676.756, -0.00013869377, -0.00010627626, -48891.926, -48891.926, 0.0, 2.5005312, 2.4987192 
3.963261e+2, 4.1225007e+1, -6407.202, -500520.97, -26286.799, -0.000043817596, 0.00005379119, -5012.6826, -5012.6826, 0.0, 2.5005245, 2.4988883 
3.9632595e+2, 4.3723896e+1, -10046.841, -501360.8, -26398.904, 0.0000025484353, 0.0000077290415, -8632.467, -8632.467, 0.0, 2.5005171, 2.4988904 
3.963258e+2, 4.6222785e+1, -14220.245, -503306.84, -26519.313, 0.000050093888, -0.000042201056, -12786.515, -12786.515, 0.0, 2.50051, 2.4988904 
3.9632568e+2, 4.872168e+1, -18396.12, -505254.03, -26640.94, 0.000099686826, -0.000093947485, -16942.662, -16942.662, 0.0, 2.5005028, 2.4988906 
3.9632556e+2, 5.1220655e+1, 25160.307, -407835.03, -27524.578, 0.000084207895, 0.00010826544, 26902.97, 26902.97, 0.0, 2.5004952, 2.4990613 
3.963254e+2, 5.371972e+1, 21227.502, -408687.38, -27374.275, 0.000018859426, 0.000052055057, 22963.514, 22963.514, 0.0, 2.5004873, 2.4990637 
3.963253e+2, 5.621878e+1, 16670.97, -410829.16, -27435.072, -0.000038068974, -0.0000057701072, 18424.44, 18424.44, 0.0, 2.5004795, 2.4990637 
3.9632514e+2, 5.8717847e+1, 12111.035, -412972.56, -27497.086, -0.00008669724, -0.000062268664, 13882.339, 13882.339, 0.0, 2.5004716, 2.499064 
3.9632502e+2, 6.1217e+1, 55752.375, -315248.88, -26567.342, -0.00006265802, 0.00011725918, 57645.2, 57645.2, 0.0, 2.500464, 2.4992354 
3.963249e+2, 6.371623e+1, 51834.03, -316096.44, -25968.291, -0.00002248437, 0.00003522338, 53657.816, 53657.816, 0.0, 2.500456, 2.4992375 
3.9632475e+2, 6.621547e+1, 47283.395, -318248.1, -25871.578, 0.000025317346, -0.000048084337, 49105.45, 49105.45, 0.0, 2.5004482, 2.4992378 
3.9632463e+2, 6.871471e+1, 42728.797, -320401.66, -25776.174, 0.00008103551, -0.0001294993, 44549.344, 44549.344, 0.0, 2.5004404, 2.4992378 
3.9632452e+2, 7.1214026e+1, 86366.5, -223175.22, -22909.242, 0.00014286437, 0.000106749554, 88052.83, 88052.83, 0.0, 2.5004334, 2.499408 
3.9632443e+2, 7.371344e+1, 82639.06, -223941.53, -21808.695, 0.00010026841, 0.000091133326, 84182.66, 84182.66, 0.0, 2.5004258, 2.4994104 
3.963243e+2, 7.6212853e+1, 78270.0, -226024.94, -21604.135, 0.000059952028, 0.00007211783, 79796.18, 79796.18, 0.0, 2.5004184, 2.4994104 
3.9632422e+2, 7.8712255e+1, 73895.96, -228110.75, -21400.191, 0.000022681754, 0.00005364122, 75404.836, 75404.836, 0.0, 2.5004108, 2.4994106 
3.9632413e+2, 8.121175e+1, 117164.44, -132504.88, -16625.906, 0.000012828725, 0.00020714184, 118266.71, 118266.71, 0.0, 2.5004046, 2.4995775 
3.9632407e+2, 8.371133e+1, 114218.984, -132872.5, -15026.181, -0.000038739927, 0.00009163362, 115129.41, 115129.41, 0.0, 2.5003984, 2.49958 
3.96324e+2, 8.6210907e+1, 110614.82, -134586.94, -14746.118, -0.00008778075, -0.000027912913, 111498.445, 111498.445, 0.0, 2.5003922, 2.4995801 
3.9632395e+2, 8.8710487e+1, 107003.36, -136304.88, -14466.432, -0.0001338159, -0.00014846356, 107860.47, 107860.47, 0.0, 2.500386, 2.4995801 
3.963239e+2, 9.121015e+1, 150098.56, -43005.875, -7595.109, 0.00009945154, 0.00012870427, 150396.83, 150396.83, 0.0, 2.500382, 2.4997423 
3.963239e+2, 9.370989e+1, 148256.77, -42830.305, -5451.1885, 0.000022839251, 0.00014021588, 148412.16, 148412.16, 0.0, 2.5003777, 2.4997447 
3.963239e+2, 9.6209633e+1, 145738.14, -44023.71, -5074.5894, -0.000056538163, 0.00013329454, 145873.75, 145873.75, 0.0, 2.5003734, 2.4997447 
3.963239e+2, 9.8709375e+1, 143207.48, -45222.906, -4696.5503, -0.00013379114, 0.00011304751, 143324.47, 143324.47, 0.0, 2.5003688, 2.4997447 
3.9882785e+2, 1.2491141e+0, -155604.52, -868261.3, -3387.108, 0.00011881942, 0.0000025768682, -155588.42, -155588.42, 0.0, 2.5005865, 2.4982276 
3.9882782e+2, 3.7473422e+0, -156259.19, -868683.0, -3857.6782, 0.000027824048, 0.0000075858065, -156238.3, -156238.3, 0.0, 2.5005856, 2.4982274 
3.9882782e+2, 6.245571e+0, -156904.58, -868981.0, -4339.1465, -0.00007155109, 0.0000124020235, -156878.14, -156878.14, 0.0, 2.5005844, 2.4982274 
3.988278e+2, 8.7437993e+0, -157615.45, -869310.5, -4820.9697, -0.00017930639, 0.00001702548, -157582.8, -157582.8, 0.0, 2.5005832, 2.4982274 
3.9882776e+2, 1.12421066e+1, -114780.164, -778336.8, -11109.34, -0.00021043955, 0.00010868764, -114594.22, -114594.22, 0.0, 2.500581, 2.4983845 
3.988277e+2, 1.374049e+1, -116241.48, -778736.8, -11675.864, -0.00013500146, 0.0000049373352, -116035.76, -116035.76, 0.0, 2.5005782, 2.4983852 
3.9882764e+2, 1.6238876e+1, -117918.55, -779509.06, -12119.622, -0.000065205415, -0.00009780121, -117696.61, -117696.61, 0.0, 2.5005753, 2.4983852 
3.9882758e+2, 1.8737261e+1, -119643.43, -780304.3, -12566.177, -0.0000010871636, -0.00019917454, -119404.5, -119404.5, 0.0, 2.5005724, 2.4983852 
3.988275e+2, 2.123573e+1, -76498.59, -686805.4, -18179.678, 0.00008015184, -0.00008421009, -75957.54, -75957.54, 0.0, 2.5005682, 2.4985476 
3.988274e+2, 2.3734277e+1, -79054.56, -687595.9, -18672.375, 0.000020393807, -0.00006092705, -78482.16, -78482.16, 0.0, 2.5005634, 2.4985485 
3.988273e+2, 2.6232827e+1, -81880.95, -688903.06, -19056.453, -0.0000407225, -0.0000395916, -81283.3, -81283.3, 0.0, 2.5005584, 2.4985487 
3.988272e+2, 2.8731376e+1, -84736.34, -690224.25, -19444.287, -0.00010274401, -0.000019415245, -84112.56, -84112.56, 0.0, 2.5005534, 2.498549 
3.9882708e+2, 3.1230012e+1, -41385.36, -594866.5, -23787.137, -0.00012746138, 0.0001571045, -40364.934, -40364.934, 0.0, 2.500548, 2.4987152 
3.9882696e+2, 3.3728725e+1, -44530.977, -595669.8, -24214.963, -0.00014390773, 0.00002425005, -43469.11, -43469.11, 0.0, 2.5005417, 2.4987168 
3.9882684e+2, 3.6227444e+1, -48111.355, -597330.0, -24581.176, -0.00016069805, -0.00011245347, -47013.38, -47013.38, 0.0, 2.5005355, 2.4987168 
3.9882672e+2, 3.8726157e+1, -51721.36, -599004.5, -24953.84, -0.00017769361, -0.0002512554, -50585.926, -50585.926, 0.0, 2.500529, 2.498717 
3.988266e+2, 4.1224965e+1, -7941.3687, -501687.66, -27847.818, -0.000047589718, -0.000086434324, -6375.687, -6375.687, 0.0, 2.5005224, 2.4988873 
3.9882648e+2, 4.3723854e+1, -11553.104, -502483.78, -28024.19, 0.000006042392, -0.000049480026, -9958.556, -9958.556, 0.0, 2.500515, 2.4988894 
3.9882633e+2, 4.6222743e+1, -15754.472, -504447.6, -28233.6, 0.000054947785, -0.000016957536, -14128.721, -14128.721, 0.0, 2.5005078, 2.4988894 
3.988262e+2, 4.8721635e+1, -19992.404, -506429.0, -28447.918, 0.000100217454, 0.000013208861, -18334.355, -18334.355, 0.0, 2.5005004, 2.4988897 
3.9882606e+2, 5.1220614e+1, 23695.422, -408832.3, -29536.102, 0.00004824998, 0.0002549241, 25703.041, 25703.041, 0.0, 2.500493, 2.4990606 
3.9882588e+2, 5.3719676e+1, 19927.441, -409535.16, -29480.395, -0.000028523129, 0.00014918801, 21941.672, 21941.672, 0.0, 2.5004854, 2.4990633 
3.9882576e+2, 5.621874e+1, 15440.271, -411646.16, -29641.941, -0.0001042997, 0.0000400318, 17487.756, 17487.756, 0.0, 2.5004776, 2.4990633 
3.9882562e+2, 5.87178e+1, 10900.1455, -413782.66, -29807.854, -0.00017953347, -0.000069360794, 12982.108, 12982.108, 0.0, 2.5004697, 2.4990635 
3.9882547e+2, 6.121695e+1, 54893.258, -315529.44, -28957.71, -0.00010336062, 0.000106426785, 57143.35, 57143.35, 0.0, 2.5004623, 2.4992356 
3.9882535e+2, 6.3716185e+1, 51272.016, -316111.94, -28403.121, -0.00006133924, 0.000020430629, 53454.94, 53454.94, 0.0, 2.500455, 2.4992383 
3.9882523e+2, 6.6215426e+1, 46886.066, -318185.44, -28357.662, -0.000020954196, -0.000069972724, 49075.67, 49075.67, 0.0, 2.5004473, 2.4992383 
3.9882508e+2, 6.871466e+1, 42441.05, -320287.4, -28322.451, 0.00001889893, -0.00016130733, 44639.195, 44639.195, 0.0, 2.5004396, 2.4992385 
3.9882496e+2, 7.121399e+1, 86451.17, -222683.77, -25408.617, 0.00013039255, 0.00013072678, 88525.65, 88525.65, 0.0, 2.500433, 2.4994092 
3.9882487e+2, 7.371339e+1, 83163.92, -223076.27, -24343.84, 0.00010942472, 0.00019581222, 85087.0, 85087.0, 0.0, 2.500426, 2.4994118 
3.9882475e+2, 7.6212806e+1, 79050.35, -225036.66, -24141.072, 0.00007974869, 0.00025592133, 80954.95, 80954.95, 0.0, 2.5004191, 2.4994118 
3.988246e+2, 7.871222e+1, 74848.8, -227039.4, -23942.504, 0.000042798827, 0.00031529044, 76735.87, 76735.87, 0.0, 2.5004117, 2.4994118 
3.988245e+2, 8.1211716e+1, 118473.07, -131249.52, -18913.686, 0.0000054231878, 0.00047016, 119897.445, 119897.445, 0.0, 2.5004063, 2.499579 
3.9882445e+2, 8.3711296e+1, 116117.14, -131080.45, -17282.81, -0.000109929955, 0.0002425235, 117319.62, 117319.62, 0.0, 2.5004008, 2.499582 
3.988244e+2, 8.6210877e+1, 112789.77, -132660.45, -16938.607, -0.00023640846, 0.000009658999, 113953.195, 113953.195, 0.0, 2.500395, 2.499582 
3.988243e+2, 8.871046e+1, 109300.51, -134318.44, -16601.809, -0.00037353148, -0.00022515134, 110426.664, 110426.664, 0.0, 2.500389, 2.499582 
3.9882427e+2, 9.121012e+1, 152852.63, -40738.047, -9251.333, 0.00011661472, 0.00011800677, 153293.72, 153293.72, 0.0, 2.5003858, 2.4997444 
3.9882424e+2, 9.370986e+1, 151744.02, -39844.836, -6969.5264, 0.000024219322, 0.00023462776, 151997.22, 151997.22, 0.0, 2.5003822, 2.4997475 
3.9882424e+2, 9.620961e+1, 149388.47, -40959.703, -6380.387, -0.000098273806, 0.00033485133, 149602.11, 149602.11, 0.0, 2.5003781, 2.4997475 
3.9882424e+2, 9.8709357e+1, 146679.89, -42244.586, -5791.2515, -0.000240955, 0.00042494078, 146857.25, 146857.25, 0.0, 2.5003736, 2.4997478 
4.0132847e+2, 1.2491126e+0, -144076.61, -864101.94, -3534.128, 0.00020859364, 0.0000057736124, -144059.25, -144059.25, 0.0, 2.500608, 2.4982245 
4.0132844e+2, 3.7473378e+0, -144777.34, -864549.25, -3981.3027, 0.0001010771, 0.00001725208, -144755.31, -144755.31, 0.0, 2.5006068, 2.4982243 
4.0132838e+2, 6.245563e+0, -145404.58, -864840.2, -4438.0884, 0.0000061499477, 0.000028639175, -145377.2, -145377.2, 0.0, 2.5006058, 2.4982243 
4.0132838e+2, 8.7437886e+0, -146034.1, -865132.25, -4894.982, -0.000076187505, 0.000039934825, -146000.77, -146000.77, 0.0, 2.5006046, 2.4982243 
4.0132833e+2, 1.1242093e+1, -103357.086, -774122.7, -11487.058, -0.00009414037, 0.00013295471, -103160.42, -103160.42, 0.0, 2.500602, 2.4983816 
4.0132827e+2, 1.3740474e+1, -105334.13, -774785.75, -12022.615, -0.00004048516, 0.000031205887, -105118.29, -105118.29, 0.0, 2.5005984, 2.4983823 
4.013282e+2, 1.6238858e+1, -107477.86, -775792.25, -12448.196, 0.000024794517, -0.0000717044, -107246.07, -107246.07, 0.0, 2.5005946, 2.4983823 
4.0132815e+2, 1.8737239e+1, -109623.59, -776799.7, -12874.411, 0.00010169283, -0.00017543243, -109375.25, -109375.25, 0.0, 2.500591, 2.4983823 
4.0132806e+2, 2.1235704e+1, -66666.09, -683206.9, -18738.715, 0.0001590052, -0.000058319827, -66097.09, -66097.09, 0.0, 2.5005863, 2.4985452 
4.0132797e+2, 2.373425e+1, -69634.52, -684221.0, -19186.398, 0.00008265587, -0.00002106868, -69036.14, -69036.14, 0.0, 2.5005808, 2.4985461 
4.0132788e+2, 2.6232797e+1, -72841.52, -685727.44, -19532.502, 0.000014313382, 0.000013879102, -72219.66, -72219.66, 0.0, 2.5005753, 2.4985461 
4.0132776e+2, 2.8731346e+1, -76050.75, -687234.94, -19879.379, -0.000045706674, 0.000047297897, -75404.836, -75404.836, 0.0, 2.5005696, 2.4985461 
4.0132767e+2, 3.1229976e+1, -33069.254, -591841.5, -24345.445, -0.00005961159, 0.00021465367, -32010.541, -32010.541, 0.0, 2.5005631, 2.498713 
4.0132752e+2, 3.3728692e+1, -37020.902, -593051.2, -24625.174, -0.00006381615, 0.00006074444, -35932.445, -35932.445, 0.0, 2.5005555, 2.4987144 
4.013274e+2, 3.6227405e+1, -41382.844, -595110.25, -24839.996, -0.000057529356, -0.0000968236, -40270.76, -40270.76, 0.0, 2.5005481, 2.4987147 
4.0132728e+2, 3.8726115e+1, -45746.797, -597170.25, -25055.715, -0.000040581217, -0.00025633437, -44610.652, -44610.652, 0.0, 2.5005405, 2.4987147 
4.0132716e+2, 4.1224918e+1, -2478.426, -499781.38, -27973.24, 0.00007695709, -0.00009778598, -909.88153, -909.88153, 0.0, 2.5005324, 2.4988856 
4.0132698e+2, 4.372381e+1, -6915.792, -500984.75, -28063.277, 0.0000890121, -0.000059011887, -5326.8984, -5326.8984, 0.0, 2.5005238, 2.4988878 
4.0132684e+2, 4.62227e+1, -11914.682, -503350.06, -28190.527, 0.000117796284, -0.000023364837, -10302.857, -10302.857, 0.0, 2.5005152, 2.4988878 
4.013267e+2, 4.8721585e+1, -16916.443, -505716.75, -28318.754, 0.00016434869, 0.000011271737, -15281.261, -15281.261, 0.0, 2.5005066, 2.498888 
4.0132654e+2, 5.122056e+1, 26091.604, -408104.06, -29325.25, 0.00012186072, 0.00024431304, 28063.256, 28063.256, 0.0, 2.5004976, 2.4990597 
4.013264e+2, 5.371962e+1, 21339.006, -409259.3, -29079.28, 0.000040890092, 0.00011175311, 23293.92, 23293.92, 0.0, 2.5004883, 2.4990623 
4.0132624e+2, 5.6218684e+1, 15893.245, -411847.66, -29049.15, -0.000018707922, -0.000024097608, 17857.043, 17857.043, 0.0, 2.500479, 2.4990623 
4.013261e+2, 5.8717746e+1, 10443.848, -414437.75, -29020.11, -0.000057263936, -0.00016002097, 12416.808, 12416.808, 0.0, 2.5004694, 2.4990625 
4.0132594e+2, 6.1216897e+1, 53596.33, -316161.06, -27980.951, 0.000028037606, -0.00000010315095, 55701.766, 55701.766, 0.0, 2.5004601, 2.4992356 
4.013258e+2, 6.371613e+1, 48785.973, -317253.16, -27343.598, 0.000012569548, -0.000105386884, 50817.3, 50817.3, 0.0, 2.5004506, 2.4992383 
4.0132564e+2, 6.621537e+1, 43213.656, -319919.06, -27207.217, 0.000018791874, -0.00021211927, 45240.8, 45240.8, 0.0, 2.500441, 2.4992385 
4.0132552e+2, 6.8714607e+1, 37637.05, -322587.03, -27071.684, 0.000048089478, -0.00031670686, 39660.188, 39660.188, 0.0, 2.5004315, 2.4992385 
4.0132537e+2, 7.1213937e+1, 80561.86, -225089.64, -23950.605, 0.0001991341, -0.000024657964, 82427.23, 82427.23, 0.0, 2.5004225, 2.4994102 
4.0132526e+2, 7.371335e+1, 76079.21, -225923.73, -22870.365, 0.00016198245, 0.000023961855, 77801.336, 77801.336, 0.0, 2.5004134, 2.499413 
4.0132517e+2, 7.6212764e+1, 70763.23, -228475.1, -22625.877, 0.00015453869, 0.00006771874, 72464.336, 72464.336, 0.0, 2.5004041, 2.499413 
4.0132505e+2, 7.871217e+1, 65441.766, -231029.11, -22381.969, 0.00017910366, 0.00011105172, 67121.96, 67121.96, 0.0, 2.500395, 2.499413 
4.0132493e+2, 8.121167e+1, 108004.83, -135402.77, -17001.338, 0.00010754857, 0.00024517553, 109186.586, 109186.586, 0.0, 2.5003872, 2.499581 
4.0132487e+2, 8.371125e+1, 104420.73, -135602.5, -15395.21, -0.000081868515, -0.00002043374, 105404.15, 105404.15, 0.0, 2.5003796, 2.4995844 
4.0132478e+2, 8.621083e+1, 99872.72, -137781.36, -15026.298, -0.00023331853, -0.00029166587, 100819.02, 100819.02, 0.0, 2.5003717, 2.4995844 
4.0132472e+2, 8.871042e+1, 95316.414, -139964.22, -14657.451, -0.00034671178, -0.00056513725, 96226.02, 96226.02, 0.0, 2.5003638, 2.4995844 
4.0132466e+2, 9.1210085e+1, 137345.39, -46800.098, -6923.7715, 0.00038649404, -0.00018763272, 137605.36, 137605.36, 0.0, 2.5003576, 2.4997475 
4.0132466e+2, 9.370983e+1, 134939.33, -46189.9, -4839.9688, 0.00018964373, -0.000075589334, 135068.56, 135068.56, 0.0, 2.5003514, 2.4997516 
4.0132463e+2, 9.620958e+1, 131412.34, -47873.53, -4421.794, 0.0000486786, 0.0000150935775, 131521.33, 131521.33, 0.0, 2.5003455, 2.4997516 
4.0132457e+2, 9.870933e+1, 127869.39, -49564.86, -4002.6953, -0.000021639098, 0.0000915637, 127959.64, 127959.64, 0.0, 2.5003393, 2.4997516 
4.0382907e+2, 1.2491111e+0, -144923.6, -865862.6, -3703.608, 0.00008447263, 0.00000016110491, -144904.58, -144904.58, 0.0, 2.500608, 2.4982214 
4.0382904e+2, 3.7473333e+0, -145624.77, -866312.5, -4149.594, 0.000042423806, 0.0000005355846, -145600.88, -145600.88, 0.0, 2.5006068, 2.4982212 
4.03829e+2, 6.245555e+0, -146251.72, -866604.5, -4602.883, 0.0000025649201, 0.0000009800475, -146222.31, -146222.31, 0.0, 2.5006058, 2.4982212 
4.0382898e+2, 8.743777e+0, -146880.94, -866897.6, -5056.2793, -0.000035103705, 0.0000014944236, -146845.42, -146845.42, 0.0, 2.5006046, 2.4982212 
4.0382895e+2, 1.1242079e+1, -104124.484, -775735.7, -12071.149, -0.00003424307, 0.000092136404, -103907.59, -103907.59, 0.0, 2.5006022, 2.4983788 
4.038289e+2, 1.3740459e+1, -106110.03, -776421.5, -12587.542, -0.000009687664, 0.000020551346, -105873.74, -105873.74, 0.0, 2.5005984, 2.4983795 
4.0382883e+2, 1.6238838e+1, -108250.8, -777426.94, -13010.103, 0.000019989551, -0.000052746494, -107997.95, -107997.95, 0.0, 2.5005946, 2.4983795 
4.0382874e+2, 1.8737216e+1, -110393.58, -778433.3, -13433.298, 0.000054817167, -0.00012744428, -110123.56, -110123.56, 0.0, 2.500591, 2.4983795 
4.0382868e+2, 2.1235679e+1, -67274.46, -684513.6, -19581.752, 0.000068857, -0.00001336983, -66653.86, -66653.86, 0.0, 2.5005863, 2.4985428 
4.0382856e+2, 2.3734224e+1, -70253.97, -685554.9, -20029.828, 0.000015846254, 0.00000034976514, -69602.63, -69602.63, 0.0, 2.5005808, 2.4985437 
4.0382847e+2, 2.623277e+1, -73460.18, -687063.75, -20373.238, -0.00003459254, 0.000011627468, -72784.484, -72784.484, 0.0, 2.5005753, 2.4985437 
4.0382835e+2, 2.8731313e+1, -76668.62, -688573.75, -20717.422, -0.00008233019, 0.000021214168, -75967.984, -75967.984, 0.0, 2.5005698, 2.498544 
4.038282e+2, 3.1229943e+1, -33412.53, -592624.6, -25483.143, -0.000059262326, 0.00016315257, -32253.672, -32253.672, 0.0, 2.5005631, 2.4987116 
4.0382808e+2, 3.3728656e+1, -37384.395, -593881.44, -25768.936, -0.00004479007, 0.000047742273, -36193.695, -36193.695, 0.0, 2.5005558, 2.498713 
4.0382794e+2, 3.6227366e+1, -41744.64, -595942.06, -25981.31, -0.000024834566, -0.000072259325, -40529.277, -40529.277, 0.0, 2.5005481, 2.4987133 
4.0382782e+2, 3.8726082e+1, -46106.902, -598003.6, -26194.58, 0.0000009347707, -0.0001953699, -44866.42, -44866.42, 0.0, 2.5005405, 2.4987133 
4.0382767e+2, 4.122488e+1, -2649.8516, -500249.0, -29279.738, 0.000074812226, -0.000031716463, -932.8971, -932.8971, 0.0, 2.5005326, 2.498885 
4.0382752e+2, 4.372377e+1, -7094.3804, -501471.94, -29371.342, 0.000041503044, -0.000024226116, -5355.5225, -5355.5225, 0.0, 2.500524, 2.4988868 
4.0382737e+2, 4.6222657e+1, -12092.37, -503839.8, -29495.47, 0.000018574576, -0.000020387128, -10329.523, -10329.523, 0.0, 2.5005152, 2.498887 
4.0382722e+2, 4.8721546e+1, -17093.23, -506209.06, -29620.574, 0.0000068026734, -0.000018044208, -15305.957, -15305.957, 0.0, 2.5005066, 2.498887 
4.0382707e+2, 5.122052e+1, 26230.52, -407976.66, -30750.373, 0.000010630752, 0.00020310332, 28397.436, 28397.436, 0.0, 2.5004978, 2.49906 
4.0382686e+2, 5.371958e+1, 21488.277, -409117.22, -30501.64, 0.000010215048, 0.000098528064, 23638.107, 23638.107, 0.0, 2.5004885, 2.4990625 
4.038267e+2, 5.621864e+1, 16044.33, -411708.22, -30468.1, 0.00002289075, -0.00000960891, 18203.623, 18203.623, 0.0, 2.500479, 2.4990625 
4.0382656e+2, 5.8717704e+1, 10596.747, -414301.0, -30435.645, 0.000048735466, -0.000118163785, 12765.795, 12765.795, 0.0, 2.5004697, 2.4990625 
4.0382642e+2, 6.1216855e+1, 53959.38, -315641.7, -29431.46, 0.00011640932, 0.000059007343, 56288.34, 56288.34, 0.0, 2.5004604, 2.4992363 
4.0382627e+2, 6.3716096e+1, 49182.676, -316670.22, -28792.453, 0.0000305748, -0.000025484409, 51434.766, 51434.766, 0.0, 2.5004508, 2.4992392 
4.0382612e+2, 6.621533e+1, 43613.816, -319334.66, -28652.717, -0.00004194715, -0.000111572605, 45861.863, 45861.863, 0.0, 2.5004413, 2.4992392 
4.0382597e+2, 6.871457e+1, 38040.67, -322001.16, -28513.83, -0.00009992662, -0.00019572936, 40284.86, 40284.86, 0.0, 2.5004318, 2.4992392 
4.0382582e+2, 7.1213895e+1, 81146.44, -224188.4, -25317.693, 0.00009597202, 0.00009062972, 83231.49, 83231.49, 0.0, 2.5004227, 2.4994116 
4.0382567e+2, 7.371331e+1, 76746.72, -224856.19, -24248.717, 0.00011540759, 0.00009076674, 78683.87, 78683.87, 0.0, 2.5004137, 2.4994147 
4.0382555e+2, 7.621273e+1, 71432.75, -227408.53, -24000.195, 0.00015226762, 0.00008650145, 73347.95, 73347.95, 0.0, 2.5004046, 2.4994147 
4.0382543e+2, 7.871214e+1, 66113.3, -229963.48, -23752.256, 0.00020976315, 0.00008241148, 68006.67, 68006.67, 0.0, 2.5003953, 2.4994147 
4.038253e+2, 8.121164e+1, 108862.1, -134015.58, -18132.639, 0.000101841324, 0.00022646079, 110208.375, 110208.375, 0.0, 2.5003877, 2.4995832 
4.0382522e+2, 8.3711225e+1, 105411.27, -133940.77, -16569.885, -0.00009680155, 0.000042673393, 106552.93, 106552.93, 0.0, 2.5003798, 2.499587 
4.0382513e+2, 8.6210805e+1, 100864.36, -136118.69, -16194.937, -0.0002740269, -0.00014639167, 101965.97, 101965.97, 0.0, 2.5003722, 2.499587 
4.0382507e+2, 8.87104e+1, 96309.15, -138300.6, -15820.054, -0.00043046332, -0.00033741683, 97371.11, 97371.11, 0.0, 2.5003643, 2.499587 
4.03825e+2, 9.121007e+1, 138409.36, -45112.39, -7839.5894, 0.00052468095, 0.0000772366, 138743.64, 138743.64, 0.0, 2.500358, 2.4997501 
4.0382499e+2, 9.3709815e+1, 136206.44, -44077.832, -5736.534, 0.00026791453, 0.000090926376, 136388.78, 136388.78, 0.0, 2.5003521, 2.499755 
4.0382496e+2, 9.6209574e+1, 132678.25, -45759.586, -5305.4243, 0.000029514536, 0.0000820363, 132835.86, 132835.86, 0.0, 2.500346, 2.499755 
4.0382496e+2, 9.870932e+1, 129134.086, -47449.027, -4873.391, -0.00017136343, 0.000058433114, 129268.484, 129268.484, 0.0, 2.5003397, 2.499755 
4.063297e+2, 1.2491095e+0, -145771.0, -867624.1, -3872.1326, -0.00003967398, -0.0000063587104, -145750.23, -145750.23, 0.0, 2.500608, 2.4982185 
4.0632966e+2, 3.7473285e+0, -146473.63, -868078.7, -4317.6855, -0.000016306267, -0.00001890284, -146447.78, -146447.78, 0.0, 2.5006068, 2.4982183 
4.0632963e+2, 6.2455475e+0, -147100.27, -868371.75, -4767.4766, -0.0000011480108, -0.00003121563, -147068.77, -147068.77, 0.0, 2.5006058, 2.4982183 
4.063296e+2, 8.7437665e+0, -147729.19, -868665.94, -5217.376, 0.0000058011174, -0.000043297154, -147691.42, -147691.42, 0.0, 2.5006046, 2.4982183 
4.0632957e+2, 1.12420656e+1, -104902.75, -777371.2, -12653.329, 0.000024807363, 0.00005184876, -104664.74, -104664.74, 0.0, 2.5006022, 2.498376 
4.0632945e+2, 1.3740443e+1, -106887.36, -778060.25, -13152.021, 0.000018968482, 0.0000063309994, -106629.734, -106629.734, 0.0, 2.5005984, 2.4983766 
4.063294e+2, 1.6238819e+1, -109025.164, -779064.56, -13571.563, 0.000011751192, -0.00004147447, -108750.38, -108750.38, 0.0, 2.5005949, 2.4983766 
4.0632933e+2, 1.8737195e+1, -111164.984, -780069.94, -13991.739, 0.0000032161117, -0.000091262074, -110872.445, -110872.445, 0.0, 2.500591, 2.4983766 
4.0632924e+2, 2.1235657e+1, -67899.22, -685854.44, -20424.352, -0.000018597402, 0.000029362574, -67224.9, -67224.9, 0.0, 2.5005865, 2.4985404 
4.0632913e+2, 2.3734197e+1, -70874.625, -686891.3, -20872.49, -0.000047483216, 0.000015629435, -70168.21, -70168.21, 0.0, 2.5005808, 2.4985414 
4.06329e+2, 2.623274e+1, -74080.055, -688402.6, -21213.205, -0.000079274316, -0.0000007488661, -73348.41, -73348.41, 0.0, 2.5005753, 2.4985414 
4.0632892e+2, 2.8731284e+1, -77287.7, -689915.0, -21554.693, -0.000113985545, -0.000018980152, -76530.26, -76530.26, 0.0, 2.5005698, 2.4985416 
4.063288e+2, 3.122991e+1, -33775.008, -593447.6, -26616.346, -0.00006631662, 0.0001121416, -32512.063, -32512.063, 0.0, 2.5005631, 2.4987102 
4.0632865e+2, 3.3728623e+1, -37748.95, -594713.94, -26912.031, -0.000032494223, 0.000031229833, -36451.61, -36451.61, 0.0, 2.5005558, 2.4987116 
4.063285e+2, 3.6227334e+1, -42107.504, -596776.06, -27121.957, 0.0000018989977, -0.000055335004, -40784.46, -40784.46, 0.0, 2.5005481, 2.4987116 
4.0632838e+2, 3.8726044e+1, -46468.07, -598839.2, -27332.777, 0.000037258542, -0.00014617499, -45118.867, -45118.867, 0.0, 2.5005407, 2.4987118 
4.0632817e+2, 4.1224843e+1, -2839.5642, -500754.66, -30581.813, 0.0000706364, 0.000030858486, -968.27026, -968.27026, 0.0, 2.5005326, 2.498884 
4.0632802e+2, 4.3723732e+1, -7273.973, -501961.22, -30678.58, -0.000006855326, 0.0000024955177, -5378.668, -5378.668, 0.0, 2.500524, 2.498886 
4.0632787e+2, 4.6222618e+1, -12271.0625, -504331.66, -30799.588, -0.00008034732, -0.000030146324, -10350.716, -10350.716, 0.0, 2.5005155, 2.498886 
4.063277e+2, 4.8721504e+1, -17271.023, -506703.5, -30921.568, -0.0001492944, -0.00006476976, -15325.184, -15325.184, 0.0, 2.5005069, 2.498886 
4.0632755e+2, 5.1220477e+1, 26346.18, -407897.6, -32166.836, -0.00011349457, 0.00016311888, 28716.021, 28716.021, 0.0, 2.500498, 2.49906 
4.0632737e+2, 5.371954e+1, 21636.582, -408977.13, -31923.055, -0.00003325206, 0.000082553575, 23990.295, 23990.295, 0.0, 2.5004885, 2.4990625 
4.0632722e+2, 5.62186e+1, 16194.447, -411570.8, -31886.102, 0.00005197414, -0.0000020891011, 18558.21, 18558.21, 0.0, 2.5004792, 2.4990628 
4.0632704e+2, 5.871767e+1, 10748.678, -414166.25, -31850.234, 0.00014249637, -0.000087494875, 13122.803, 13122.803, 0.0, 2.50047, 2.4990628 
4.0632686e+2, 6.1216813e+1, 54303.69, -315161.25, -30874.57, 0.0002056803, 0.0001166098, 56865.977, 56865.977, 0.0, 2.5004606, 2.499237 
4.0632668e+2, 6.3716054e+1, 49578.625, -316088.9, -30240.863, 0.000047097157, 0.00004949315, 52062.684, 52062.684, 0.0, 2.500451, 2.4992402 
4.0632653e+2, 6.6215295e+1, 44013.227, -318751.84, -30097.771, -0.00010671996, -0.00001952508, 46493.41, 46493.41, 0.0, 2.5004416, 2.4992402 
4.0632638e+2, 6.871454e+1, 38443.535, -321416.88, -29955.53, -0.00025452737, -0.00008682513, 40920.055, 40920.055, 0.0, 2.500432, 2.4992402 
4.0632623e+2, 7.121386e+1, 81712.61, -223325.42, -26674.213, -0.000016589529, 0.00020708767, 84027.586, 84027.586, 0.0, 2.5004232, 2.4994128 
4.063261e+2, 7.371328e+1, 77413.59, -223789.98, -25626.61, 0.000057618126, 0.00015584196, 79578.37, 79578.37, 0.0, 2.5004141, 2.4994164 
4.0632597e+2, 7.621269e+1, 72101.63, -226343.28, -25374.055, 0.00013700179, 0.0001004337, 74243.586, 74243.586, 0.0, 2.5004048, 2.4994164 
4.0632585e+2, 7.871211e+1, 66784.195, -228899.22, -25122.082, 0.00022564767, 0.000045800043, 68903.445, 68903.445, 0.0, 2.5003958, 2.4994164 
4.0632573e+2, 8.121161e+1, 109702.02, -132664.45, -19254.355, 0.000096717646, 0.0002070694, 111222.11, 111222.11, 0.0, 2.5003881, 2.4995854 
4.063256e+2, 8.3711195e+1, 106401.12, -132280.48, -17744.531, -0.000112047856, 0.000101543104, 107713.11, 107713.11, 0.0, 2.5003803, 2.4995897 
4.0632552e+2, 8.621079e+1, 101855.3, -134457.47, -17363.547, -0.00031619603, -0.000009056071, 103124.305, 103124.305, 0.0, 2.5003724, 2.4995897 
4.0632543e+2, 8.8710374e+1, 97301.18, -136638.44, -16982.629, -0.00051682314, -0.00012133617, 98527.59, 98527.59, 0.0, 2.5003648, 2.4995897 
4.0632537e+2, 9.1210043e+1, 139448.6, -43476.08, -8732.189, 0.00063588255, 0.00035905902, 139864.5, 139864.5, 0.0, 2.5003586, 2.4997528 
4.0632534e+2, 9.37098e+1, 137472.73, -41967.453, -6633.7754, 0.00031894885, 0.0002692379, 137717.64, 137717.64, 0.0, 2.5003526, 2.4997582 
4.063253e+2, 9.6209556e+1, 133943.34, -43647.324, -6189.731, -0.000016747308, 0.00015512377, 134158.81, 134158.81, 0.0, 2.5003464, 2.4997582 
4.0632528e+2, 9.8709315e+1, 130397.98, -45334.887, -5744.7627, -0.00034804703, 0.000025796251, 130585.58, 130585.58, 0.0, 2.5003405, 2.4997582 
4.0883029e+2, 1.24910794e+0, -148090.27, -870094.44, -4034.1118, -0.00015903192, -0.000013729644, -148067.73, -148067.73, 0.0, 2.5006053, 2.4982154 
4.0883026e+2, 3.7473238e+0, -148653.86, -870487.8, -4474.337, -0.00007259747, -0.000040837756, -148626.13, -148626.13, 0.0, 2.5006046, 2.4982152 
4.0883023e+2, 6.24554e+0, -149242.02, -870763.8, -4918.306, -0.0000033126717, -0.0000674774, -149208.5, -149208.5, 0.0, 2.5006034, 2.4982152 
4.088302e+2, 8.743755e+0, -149935.73, -871090.6, -5366.031, 0.00004882128, -0.00009364869, -149895.81, -149895.81, 0.0, 2.5006022, 2.4982152 
4.0883017e+2, 1.12420514e+1, -107080.32, -779698.2, -13217.214, 0.00008556735, 0.000012878498, -106820.695, -106820.695, 0.0, 2.5005999, 2.498373 
4.0883008e+2, 1.3740426e+1, -109018.914, -780354.06, -13693.278, 0.000047404854, -0.000010936, -108739.73, -108739.73, 0.0, 2.500596, 2.4983737 
4.0883002e+2, 1.62388e+1, -111172.39, -781366.75, -14107.416, 0.000002045656, -0.000037521735, -110875.56, -110875.56, 0.0, 2.5005925, 2.4983737 
4.0882993e+2, 1.8737175e+1, -113382.164, -782406.56, -14526.208, -0.000050422088, -0.0000665569, -113066.914, -113066.914, 0.0, 2.5005887, 2.4983737 
4.0882984e+2, 2.1235631e+1, -70004.61, -687937.56, -21254.914, -0.00010058792, 0.000070149785, -69274.375, -69274.375, 0.0, 2.500584, 2.498538 
4.0882972e+2, 2.373417e+1, -72920.23, -688919.7, -21729.969, -0.00010514404, 0.000024983523, -72154.63, -72154.63, 0.0, 2.5005784, 2.498539 
4.088296e+2, 2.623271e+1, -76127.875, -690435.6, -22101.584, -0.00011740922, -0.00002306962, -75333.734, -75333.734, 0.0, 2.500573, 2.4985392 
4.0882948e+2, 2.873125e+1, -79381.32, -691973.6, -22480.393, -0.0001375028, -0.00007311089, -78557.46, -78557.46, 0.0, 2.5005674, 2.4985392 
4.0882933e+2, 3.1229874e+1, -35645.6, -595035.2, -27884.12, -0.000077298035, 0.0000616873, -34259.086, -34259.086, 0.0, 2.5005608, 2.4987087 
4.0882918e+2, 3.3728588e+1, -39575.938, -596260.7, -28255.803, -0.000023889581, 0.000011158803, -38145.426, -38145.426, 0.0, 2.5005534, 2.4987102 
4.0882903e+2, 3.6227298e+1, -43932.945, -598325.2, -28531.973, 0.000025760866, -0.000046096902, -42468.406, -42468.406, 0.0, 2.5005457, 2.4987102 
4.0882888e+2, 3.8726008e+1, -48319.68, -600403.94, -28815.457, 0.00007201487, -0.00010867763, -46819.766, -46819.766, 0.0, 2.500538, 2.4987104 
4.0882874e+2, 4.1224805e+1, -4505.9463, -502011.56, -32312.674, 0.000068121175, 0.000090020345, -2416.0376, -2416.0376, 0.0, 2.5005302, 2.498883 
4.0882856e+2, 4.372369e+1, -8837.3125, -503130.1, -32521.082, -0.000052769963, 0.000021087208, -6706.83, -6706.83, 0.0, 2.500522, 2.4988852 
4.088284e+2, 4.6222576e+1, -13803.513, -505489.28, -32746.205, -0.00017551205, -0.00005288294, -11632.208, -11632.208, 0.0, 2.5005133, 2.4988852 
4.0882823e+2, 4.8721462e+1, -18818.26, -507871.84, -32976.664, -0.00029976055, -0.00012934701, -16604.678, -16604.678, 0.0, 2.5005045, 2.4988852 
4.0882802e+2, 5.1220435e+1, 25120.545, -408513.25, -34432.62, -0.00024632335, 0.00012371509, 27837.637, 27837.637, 0.0, 2.500496, 2.49906 
4.0882784e+2, 5.3719497e+1, 20599.98, -409421.34, -34298.85, -0.00008609392, 0.00006303949, 23318.498, 23318.498, 0.0, 2.5004869, 2.4990628 
4.0882766e+2, 5.621856e+1, 15261.19, -411969.2, -34359.453, 0.00007174059, -0.0000025488146, 18006.86, 18006.86, 0.0, 2.5004776, 2.4990628 
4.088275e+2, 5.8717626e+1, 9886.119, -414534.5, -34424.734, 0.00022754828, -0.00006931895, 12660.177, 12660.177, 0.0, 2.5004683, 2.4990628 
4.0882733e+2, 6.121677e+1, 53736.26, -315159.5, -33560.793, 0.00029926113, 0.00017106517, 56764.64, 56764.64, 0.0, 2.5004594, 2.4992378 
4.0882716e+2, 6.371601e+1, 49251.82, -315866.8, -33014.805, 0.00006502213, 0.00011751375, 52213.074, 52213.074, 0.0, 2.5004501, 2.4992409 
4.08827e+2, 6.621525e+1, 43819.484, -318466.13, -32945.676, -0.0001725278, 0.00006143248, 46791.137, 46791.137, 0.0, 2.5004408, 2.4992409 
4.088268e+2, 6.87145e+1, 38341.414, -321087.5, -32879.22, -0.0004119658, 0.0000066914927, 41324.33, 41324.33, 0.0, 2.5004313, 2.499241 
4.0882665e+2, 7.121383e+1, 81954.97, -222652.31, -29548.23, -0.00013516971, 0.00032086147, 84794.8, 84794.8, 0.0, 2.500423, 2.499414 
4.088265e+2, 7.3713243e+1, 78073.836, -222732.69, -28546.69, -0.000009361001, 0.0002150635, 80758.96, 80758.96, 0.0, 2.5004144, 2.499418 
4.0882635e+2, 7.621266e+1, 72991.086, -225177.69, -28306.615, 0.00011027545, 0.000104967, 75654.58, 75654.58, 0.0, 2.5004056, 2.499418 
4.0882623e+2, 7.8712076e+1, 67830.56, -227660.16, -28069.004, 0.00022865998, -0.000003909161, 70473.234, 70473.234, 0.0, 2.5003967, 2.499418 
4.0882608e+2, 8.121158e+1, 111124.69, -131057.78, -21926.941, 0.00009383045, 0.00018116849, 113093.92, 113093.92, 0.0, 2.5003896, 2.4995873 
4.08826e+2, 8.371117e+1, 108284.62, -130188.555, -20429.34, -0.00012659722, 0.00014972346, 110022.086, 110022.086, 0.0, 2.5003822, 2.4995923 
4.088259e+2, 8.6210763e+1, 103943.016, -132267.0, -19994.023, -0.00035812153, 0.00011335774, 105623.46, 105623.46, 0.0, 2.5003748, 2.4995923 
4.088258e+2, 8.8710356e+1, 99501.875, -134393.39, -19560.672, -0.00060205924, 0.0000756779, 101126.45, 101126.45, 0.0, 2.5003672, 2.4995925 
4.0882573e+2, 9.121003e+1, 141939.28, -41167.453, -10895.028, 0.0007231452, 0.000649597, 142585.27, 142585.27, 0.0, 2.5003617, 2.4997551 
4.088257e+2, 9.3709785e+1, 140538.4, -38979.453, -8634.291, 0.00034338512, 0.00045046466, 140952.73, 140952.73, 0.0, 2.5003562, 2.4997616 
4.0882567e+2, 9.620955e+1, 137086.8, -40619.895, -7994.9604, -0.0000890262, 0.00022547059, 137445.77, 137445.77, 0.0, 2.5003502, 2.4997616 
4.0882564e+2, 9.8709303e+1, 133374.06, -42386.074, -7363.149, -0.00054732506, -0.000014600523, 133682.0, 133682.0, 0.0, 2.5003438, 2.4997616 
4.113309e+2, 1.2491065e+0, -134043.0, -864569.0, -4189.122, -0.000049590937, -0.0000128885185, -134018.98, -134018.98, 0.0, 2.5006309, 2.4982126 
4.1133088e+2, 3.7473196e+0, -135043.53, -865183.06, -4598.9053, -0.0000107391315, -0.000037371363, -135014.58, -135014.58, 0.0, 2.5006292, 2.4982123 
4.1133085e+2, 6.245533e+0, -135963.3, -865625.3, -5004.3315, 0.00004962225, -0.000060128295, -135928.98, -135928.98, 0.0, 2.5006278, 2.4982123 
4.1133082e+2, 8.7437457e+0, -136885.56, -866068.8, -5410.273, 0.00013149362, -0.00008115933, -136845.42, -136845.42, 0.0, 2.500626, 2.4982123 
4.113308e+2, 1.1242039e+1, -94137.67, -774592.0, -13562.075, 0.00016049577, 0.000025058996, -93867.48, -93867.48, 0.0, 2.5006232, 2.4983706 
4.113307e+2, 1.3740411e+1, -96408.34, -775427.8, -13976.678, 0.000094415336, 0.000007011604, -96120.78, -96120.78, 0.0, 2.5006192, 2.4983711 
4.113306e+2, 1.6238783e+1, -98834.836, -776583.9, -14323.16, 0.000037267968, -0.000010730324, -98532.27, -98532.27, 0.0, 2.500615, 2.4983711 
4.1133052e+2, 1.8737155e+1, -101263.484, -777741.0, -14669.912, -0.000010904723, -0.000027857415, -100945.5, -100945.5, 0.0, 2.5006106, 2.4983711 
4.113304e+2, 2.123561e+1, -58235.676, -683246.3, -21610.967, -0.00006049861, 0.00010042137, -57489.324, -57489.324, 0.0, 2.500605, 2.4985359 
4.1133028e+2, 2.3734148e+1, -62024.688, -684678.2, -21998.127, -0.0000598985, 0.000037867314, -61248.47, -61248.47, 0.0, 2.5005982, 2.4985368 
4.1133016e+2, 2.6232684e+1, -66057.125, -686612.6, -22263.957, -0.00004755603, -0.000027854385, -65259.38, -65259.38, 0.0, 2.5005913, 2.4985368 
4.1133004e+2, 2.873122e+1, -70091.33, -688547.94, -22530.371, -0.000023600991, -0.00009587721, -69271.63, -69271.63, 0.0, 2.5005844, 2.4985368 
4.1132993e+2, 3.1229845e+1, -26865.063, -591553.56, -28045.018, 0.000029435452, 0.00003865464, -25475.637, -25475.637, 0.0, 2.5005767, 2.498707 
4.1132978e+2, 3.3728555e+1, -31559.26, -593171.56, -28321.148, 0.000054496762, 0.000009035713, -30134.686, -30134.686, 0.0, 2.500568, 2.4987085 
4.113296e+2, 3.6227265e+1, -36651.563, -595612.44, -28469.807, 0.000088697, -0.000024311323, -35205.24, -35205.24, 0.0, 2.500559, 2.4987085 
4.1132945e+2, 3.8725972e+1, -41746.023, -598054.4, -28619.22, 0.00013225271, -0.00005998242, -40277.586, -40277.586, 0.0, 2.5005505, 2.4987085 
4.113293e+2, 4.122477e+1, 1447.0372, -499683.56, -32084.705, 0.0001207497, 0.00013947723, 3492.8965, 3492.8965, 0.0, 2.5005412, 2.4988816 
4.113291e+2, 4.3723652e+1, -3936.7607, -501321.56, -32121.61, 0.000006203617, 0.000039494513, -1870.8956, -1870.8956, 0.0, 2.5005307, 2.4988837 
4.113289e+2, 4.6222538e+1, -9914.759, -504187.0, -32146.969, -0.000095535244, -0.00006680951, -7832.722, -7832.722, 0.0, 2.5005205, 2.498884 
4.1132873e+2, 4.872142e+1, -15895.867, -507053.97, -32173.25, -0.0001842039, -0.00017687645, -13797.328, -13797.328, 0.0, 2.5005102, 2.498884 
4.1132852e+2, 5.1220393e+1, 27210.445, -407680.9, -33494.52, -0.00012748274, 0.000074333235, 29775.008, 29775.008, 0.0, 2.5004997, 2.4990594 
4.1132835e+2, 5.3719455e+1, 21543.072, -409123.56, -33214.11, -0.0000021899123, 0.000021447688, 24089.572, 24089.572, 0.0, 2.5004885, 2.4990623 
4.1132817e+2, 5.6218517e+1, 15069.912, -412233.25, -33109.14, 0.00013566694, -0.00003770383, 17620.12, 17620.12, 0.0, 2.5004776, 2.4990623 
4.1132796e+2, 5.8717585e+1, 8593.327, -415344.6, -33004.86, 0.00028648684, -0.000099252095, 11147.468, 11147.468, 0.0, 2.5004663, 2.4990625 
4.1132778e+2, 6.121673e+1, 51479.617, -316081.97, -31959.781, 0.00036471384, 0.00014342545, 54237.848, 54237.848, 0.0, 2.5004554, 2.499238 
4.113276e+2, 6.371597e+1, 45852.21, -317276.72, -31284.154, 0.000120837445, 0.000073205876, 48527.68, 48527.68, 0.0, 2.5004442, 2.4992414 
4.1132742e+2, 6.621522e+1, 39273.168, -320438.34, -31069.465, -0.00010915415, -0.000004757015, 41937.01, 41937.01, 0.0, 2.5004327, 2.4992414 
4.1132724e+2, 6.871445e+1, 32689.865, -323602.0, -30855.672, -0.00032363026, -0.000086495296, 35342.29, 35342.29, 0.0, 2.5004215, 2.4992416 
4.1132706e+2, 7.121378e+1, 75221.98, -225283.61, -27253.344, -0.00002481247, 0.00022213327, 77673.625, 77673.625, 0.0, 2.5004108, 2.4994154 
4.1132692e+2, 7.37132e+1, 70080.01, -225839.88, -26193.176, 0.000056508725, 0.0000928244, 72380.6, 72380.6, 0.0, 2.5003998, 2.4994197 
4.1132677e+2, 7.621262e+1, 63722.29, -228907.06, -25866.957, 0.00015450521, -0.000045009252, 65991.2, 65991.2, 0.0, 2.5003889, 2.4994197 
4.113266e+2, 7.8712046e+1, 57358.676, -231977.1, -25540.896, 0.00027459025, -0.0001855453, 59595.977, 59595.977, 0.0, 2.500378, 2.4994197 
4.1132647e+2, 8.121155e+1, 99316.945, -135623.69, -19081.22, 0.00013886676, -0.000008908832, 100856.58, 100856.58, 0.0, 2.500368, 2.49959 
4.1132635e+2, 8.371114e+1, 95026.19, -135236.4, -17639.42, -0.000121556506, -0.00003648482, 96369.625, 96369.625, 0.0, 2.500358, 2.4995954 
4.1132626e+2, 8.621074e+1, 89191.414, -138036.11, -17211.963, -0.0003571372, -0.00006929063, 90487.79, 90487.79, 0.0, 2.500348, 2.4995954 
4.1132614e+2, 8.871033e+1, 83348.92, -140839.55, -16784.895, -0.00056885055, -0.00010358822, 84598.64, 84598.64, 0.0, 2.500338, 2.4995954 
4.1132608e+2, 9.121001e+1, 124531.86, -47896.44, -7734.792, 0.0008687408, 0.00050523184, 124878.13, 124878.13, 0.0, 2.50033, 2.499759 
4.1132602e+2, 9.370977e+1, 122090.67, -45870.902, -5654.2046, 0.0004114532, 0.00024796906, 122280.8, 122280.8, 0.0, 2.5003223, 2.499766 
4.11326e+2, 9.620953e+1, 117627.266, -48010.2, -5145.1377, -0.000027874117, -0.000017481003, 117786.94, 117786.94, 0.0, 2.5003147, 2.499766 
4.1132596e+2, 9.87093e+1, 113149.47, -50156.426, -4635.1616, -0.0004200254, -0.00027922247, 113280.92, 113280.92, 0.0, 2.500307, 2.499766 
4.1383153e+2, 1.2491052e+0, -134793.05, -866129.75, -4428.6035, -0.000025029347, -0.000008629147, -134766.23, -134766.23, 0.0, 2.5006309, 2.49821 
4.138315e+2, 3.747316e+0, -135790.94, -866743.06, -4840.1743, 0.0000048108295, -0.000025596297, -135758.89, -135758.89, 0.0, 2.5006292, 2.4982097 
4.1383147e+2, 6.245526e+0, -136705.98, -867180.3, -5241.5884, 0.000044730135, -0.000042174936, -136668.38, -136668.38, 0.0, 2.5006278, 2.4982097 
4.1383144e+2, 8.7437373e+0, -137623.55, -867618.7, -5643.517, 0.00009472902, -0.000058365076, -137579.92, -137579.92, 0.0, 2.500626, 2.4982097 
4.1383138e+2, 1.12420276e+1, -94763.32, -775901.1, -14192.916, 0.00008960967, 0.00003957657, -94467.71, -94467.71, 0.0, 2.5006232, 2.4983683 
4.138313e+2, 1.3740398e+1, -97043.29, -776760.3, -14613.792, 0.000043927063, 0.000024080398, -96729.24, -96729.24, 0.0, 2.5006192, 2.498369 
4.1383123e+2, 1.6238767e+1, -99468.07, -777916.9, -14956.266, -0.00000030165165, 0.000009014561, -99138.52, -99138.52, 0.0, 2.500615, 2.498369 
4.1383114e+2, 1.8737137e+1, -101895.01, -779074.5, -15299.008, -0.000043108652, -0.00000533908, -101549.54, -101549.54, 0.0, 2.5006108, 2.498369 
4.1383103e+2, 2.123559e+1, -58700.477, -684244.3, -22645.998, -0.000080792044, 0.00010225735, -57881.715, -57881.715, 0.0, 2.5006053, 2.4985342 
4.138309e+2, 2.3734125e+1, -62503.184, -685709.5, -23051.82, -0.000055905366, 0.00003629406, -61651.684, -61651.684, 0.0, 2.5005984, 2.498535 
4.138308e+2, 2.623266e+1, -66532.79, -687642.9, -23315.006, -0.000024012008, -0.000033743232, -65658.836, -65658.836, 0.0, 2.5005913, 2.4985352 
4.1383067e+2, 2.8731194e+1, -70564.16, -689577.1, -23578.775, 0.000014753452, -0.00010708891, -69667.32, -69667.32, 0.0, 2.5005844, 2.4985352 
4.1383052e+2, 3.1229818e+1, -27100.162, -592106.7, -29344.176, 0.000039804112, 0.000026403251, -25580.232, -25580.232, 0.0, 2.5005767, 2.4987059 
4.138303e+2, 3.3728528e+1, -31807.059, -593755.56, -29649.992, 0.000025689018, 0.000017527334, -30246.973, -30246.973, 0.0, 2.500568, 2.4987073 
4.1383016e+2, 3.6227235e+1, -36897.98, -596198.0, -29796.162, 0.000016258326, 0.0000036729023, -35315.098, -35315.098, 0.0, 2.5005593, 2.4987073 
4.1382998e+2, 3.872594e+1, -41991.06, -598641.44, -29943.086, 0.000011592402, -0.000013810182, -40385.008, -40385.008, 0.0, 2.5005505, 2.4987073 
4.138298e+2, 4.122474e+1, 1445.1235, -499766.22, -33613.125, 0.0000040537516, 0.00018191777, 3689.298, 3689.298, 0.0, 2.5005412, 2.4988816 
4.1382962e+2, 4.3723622e+1, -3944.868, -501422.44, -33680.813, -0.000031855747, 0.000072513, -1674.9276, -1674.9276, 0.0, 2.500531, 2.4988837 
4.1382945e+2, 4.6222505e+1, -9921.064, -504289.53, -33703.004, -0.000060683422, -0.000044377775, -7633.9814, -7633.9814, 0.0, 2.5005207, 2.4988837 
4.1382924e+2, 4.872139e+1, -15900.372, -507158.16, -33726.117, -0.00008228699, -0.00016624655, -13595.798, -13595.798, 0.0, 2.5005105, 2.4988837 
4.1382903e+2, 5.1220363e+1, 27485.193, -407261.5, -35167.02, -0.000023023653, 0.00006827301, 30311.51, 30311.51, 0.0, 2.5005, 2.4990602 
4.1382882e+2, 5.3719425e+1, 21813.799, -408717.22, -34900.188, 0.000015696973, 0.000027405746, 24624.566, 24624.566, 0.0, 2.5004888, 2.499063 
4.1382864e+2, 5.6218493e+1, 15341.992, -411828.25, -34792.4, 0.000060625174, -0.000019471103, 18157.229, 18157.229, 0.0, 2.5004776, 2.499063 
4.1382843e+2, 5.8717555e+1, 8866.759, -414940.9, -34685.293, 0.0001122965, -0.00006866114, 11686.711, 11686.711, 0.0, 2.5004666, 2.499063 
4.1382825e+2, 6.1216706e+1, 51961.957, -315284.6, -33657.03, 0.00018796067, 0.00017374211, 55021.04, 55021.04, 0.0, 2.5004556, 2.4992392 
4.1382805e+2, 6.3715947e+1, 46364.4, -316421.47, -32993.035, 0.00003324676, 0.000085380954, 49340.49, 49340.49, 0.0, 2.5004444, 2.4992428 
4.1382784e+2, 6.621519e+1, 39785.535, -319586.34, -32775.28, -0.00011417977, -0.0000097888515, 42750.234, 42750.234, 0.0, 2.500433, 2.4992428 
4.1382766e+2, 6.8714434e+1, 33202.414, -322753.28, -32558.424, -0.00025261712, -0.00010772999, 36155.95, 36155.95, 0.0, 2.5004218, 2.4992428 
4.1382748e+2, 7.121376e+1, 75965.77, -224045.66, -28880.229, 0.00007410411, 0.00020943875, 78720.59, 78720.59, 0.0, 2.500411, 2.4994173 
4.138273e+2, 7.3713183e+1, 70887.18, -224469.53, -27840.916, 0.00011583604, 0.00010403132, 73488.6, 73488.6, 0.0, 2.5004, 2.4994218 
4.1382715e+2, 7.621261e+1, 64527.152, -227539.47, -27510.941, 0.00016489442, -0.000007799482, 67095.93, 67095.93, 0.0, 2.5003893, 2.4994218 
4.13827e+2, 7.871203e+1, 58161.23, -230612.25, -27181.125, 0.00022685235, -0.00012012627, 60697.41, 60697.41, 0.0, 2.5003784, 2.4994218 
4.1382685e+2, 8.121153e+1, 100284.266, -133997.17, -20559.125, 0.00009682021, 0.000060934566, 102074.73, 102074.73, 0.0, 2.5003686, 2.4995925 
4.1382673e+2, 8.371113e+1, 96107.24, -133377.2, -19147.967, -0.00018210457, 0.000004158231, 97693.96, 97693.96, 0.0, 2.5003586, 2.4995983 
4.1382658e+2, 8.6210734e+1, 90273.67, -136176.72, -18716.533, -0.000449234, -0.000059015325, 91810.2, 91810.2, 0.0, 2.5003486, 2.4995983 
4.1382647e+2, 8.8710326e+1, 84432.38, -138979.95, -18285.484, -0.00070491224, -0.0001247492, 85919.09, 85919.09, 0.0, 2.5003383, 2.4995985 
4.138264e+2, 9.121001e+1, 125742.3, -45875.266, -8834.036, 0.0008383868, 0.0005068221, 126195.83, 126195.83, 0.0, 2.5003307, 2.499762 
4.1382635e+2, 9.370977e+1, 123491.63, -43454.8, -6784.461, 0.00045281684, 0.00026610226, 123766.89, 123766.89, 0.0, 2.5003228, 2.49977 
4.138263e+2, 9.6209544e+1, 119030.03, -45589.484, -6265.0073, 0.000058098714, 0.000014087061, 119268.12, 119268.12, 0.0, 2.5003152, 2.49977 
4.1382626e+2, 9.8709303e+1, 114554.03, -47731.094, -5744.6445, -0.0003150196, -0.00023679654, 114757.13, 114757.13, 0.0, 2.5003076, 2.49977 
4.1633216e+2, 1.249104e+0, -135543.36, -867691.1, -4666.356, -0.0000020424675, -0.000005486844, -135513.63, -135513.63, 0.0, 2.5006309, 2.4982073 
4.1633213e+2, 3.747312e+0, -136539.7, -868305.94, -5081.329, 0.000015636704, -0.000017172437, -136504.42, -136504.42, 0.0, 2.5006292, 2.498207 
4.163321e+2, 6.24552e+0, -137450.03, -868738.06, -5478.731, 0.000031964617, -0.000029806914, -137408.98, -137408.98, 0.0, 2.5006278, 2.498207 
4.1633207e+2, 8.743728e+0, -138362.88, -869171.44, -5876.6475, 0.000046941743, -0.000043390282, -138315.63, -138315.63, 0.0, 2.500626, 2.498207 
4.16332e+2, 1.1242016e+1, -95405.11, -777243.8, -14828.518, 0.000027778064, 0.000056520996, -95082.77, -95082.77, 0.0, 2.5006232, 2.498366 
4.1633195e+2, 1.3740383e+1, -97679.805, -778096.06, -15250.478, 0.0000012272502, 0.00003747486, -97338.16, -97338.16, 0.0, 2.5006192, 2.4983666 
4.1633186e+2, 1.623875e+1, -100102.875, -779253.2, -15588.942, -0.000031405707, 0.000018949784, -99745.24, -99745.24, 0.0, 2.500615, 2.4983666 
4.1633177e+2, 1.8737118e+1, -102528.09, -780411.3, -15927.676, -0.000070169874, 0.0000012343031, -102154.06, -102154.06, 0.0, 2.5006108, 2.4983666 
4.1633165e+2, 2.1235569e+1, -59190.434, -685294.6, -23678.504, -0.000105604624, 0.00010877433, -58296.22, -58296.22, 0.0, 2.5006053, 2.4985323 
4.163315e+2, 2.3734102e+1, -62982.785, -686743.2, -24105.135, -0.000057219073, 0.000034488676, -62052.633, -62052.633, 0.0, 2.5005984, 2.4985332 
4.1633135e+2, 2.6232636e+1, -67009.56, -688675.5, -24365.676, -0.0000065102995, -0.00004490302, -66056.03, -66056.03, 0.0, 2.5005915, 2.4985332 
4.1633123e+2, 2.873117e+1, -71038.09, -690608.6, -24626.8, 0.000046330126, -0.0001286103, -70060.766, -70060.766, 0.0, 2.5005846, 2.4985332 
4.1633108e+2, 3.122979e+1, -27352.773, -592696.1, -30641.654, 0.00005210343, 0.000009434992, -25696.844, -25696.844, 0.0, 2.5005767, 2.498705 
4.163309e+2, 3.3728495e+1, -32055.78, -594341.5, -30978.139, 0.00000016850196, 0.000017049648, -30354.242, -30354.242, 0.0, 2.5005682, 2.4987063 
4.1633072e+2, 3.6227208e+1, -37145.32, -596785.5, -31121.818, -0.000051611398, 0.000018369536, -35419.945, -35419.945, 0.0, 2.5005593, 2.4987063 
4.1633055e+2, 3.8725913e+1, -42237.02, -599230.5, -31266.252, -0.00010321725, 0.000014756239, -40487.418, -40487.418, 0.0, 2.5005505, 2.4987063 
4.1633037e+2, 4.122471e+1, 1418.2266, -499900.78, -35139.355, -0.000120836994, 0.00023213407, 3869.2937, 3869.2937, 0.0, 2.5005412, 2.4988813 
4.1633013e+2, 4.3723592e+1, -3953.9844, -501525.44, -35239.16, -0.00007737148, 0.00010851427, -1470.6597, -1470.6597, 0.0, 2.500531, 2.4988835 
4.1632995e+2, 4.6222472e+1, -9928.38, -504394.2, -35258.184, -0.000032409363, -0.00002402916, -7426.928, -7426.928, 0.0, 2.5005207, 2.4988835 
4.1632974e+2, 4.8721358e+1, -15905.886, -507264.44, -35278.133, 0.000013930764, -0.00016276559, -13385.941, -13385.941, 0.0, 2.5005105, 2.4988835 
4.1632953e+2, 5.122033e+1, 27737.586, -406888.53, -36830.97, 0.00007974907, 0.000062422485, 30836.61, 30836.61, 0.0, 2.5005, 2.4990606 
4.1632932e+2, 5.3719395e+1, 22083.643, -408312.75, -36585.668, 0.000031961605, 0.000028982755, 25171.44, 25171.44, 0.0, 2.500489, 2.4990637 
4.1632912e+2, 5.621846e+1, 15613.188, -411425.06, -36475.055, -0.000016016962, -0.000010330074, 18706.266, 18706.266, 0.0, 2.5004778, 2.4990637 
4.1632888e+2, 5.871752e+1, 9139.308, -414539.03, -36365.13, -0.000063472326, -0.000051872445, 12237.935, 12237.935, 0.0, 2.5004666, 2.4990637 
4.163287e+2, 6.1216676e+1, 52424.73, -314527.88, -35346.535, 0.0000065351537, 0.00020800014, 55798.45, 55798.45, 0.0, 2.5004559, 2.4992404 
4.163285e+2, 6.3715917e+1, 46875.62, -315568.22, -34701.035, -0.00005887396, 0.000097169366, 50168.055, 50168.055, 0.0, 2.5004444, 2.4992442 
4.1632828e+2, 6.6215163e+1, 40296.94, -318736.38, -34480.22, -0.00012355336, -0.000019802861, 43578.3, 43578.3, 0.0, 2.5004332, 2.4992442 
4.163281e+2, 6.871441e+1, 33713.996, -321906.56, -34260.3, -0.0001857699, -0.00013854228, 36984.54, 36984.54, 0.0, 2.500422, 2.4992442 
4.163279e+2, 7.121374e+1, 76686.45, -222855.75, -30490.025, 0.00016766653, 0.00020110563, 79758.484, 79758.484, 0.0, 2.5004113, 2.4994192 
4.1632771e+2, 7.3713166e+1, 71693.445, -223101.08, -29488.479, 0.00017019929, 0.00011554276, 74614.26, 74614.26, 0.0, 2.5004005, 2.499424 
4.1632754e+2, 7.6212585e+1, 65331.113, -226173.78, -29154.746, 0.00017073576, 0.000025411957, 68218.414, 68218.414, 0.0, 2.5003896, 2.499424 
4.1632736e+2, 7.871201e+1, 58962.887, -229249.3, -28821.172, 0.00017498275, -0.00006300834, 61816.742, 61816.742, 0.0, 2.5003786, 2.499424 
4.163272e+2, 8.121152e+1, 101233.24, -132408.78, -22020.914, 0.000048867252, 0.00013112466, 103290.62, 103290.62, 0.0, 2.5003688, 2.499595 
4.163271e+2, 8.3711123e+1, 97187.445, -131519.8, -20656.238, -0.0002484845, 0.000041942603, 99038.086, 99038.086, 0.0, 2.5003588, 2.4996014 
4.1632697e+2, 8.621072e+1, 91355.08, -134319.11, -20220.824, -0.00054707105, -0.00005497515, 93152.586, 93152.586, 0.0, 2.5003488, 2.4996014 
4.1632682e+2, 8.871032e+1, 85514.99, -137122.16, -19785.799, -0.0008466225, -0.0001555217, 87259.69, 87259.69, 0.0, 2.5003388, 2.4996014 
4.1632676e+2, 9.121001e+1, 126930.0, -43901.31, -9918.263, 0.00079506665, 0.00051815744, 127503.914, 127503.914, 0.0, 2.5003312, 2.4997652 
4.163267e+2, 9.370978e+1, 124891.65, -41040.67, -7915.5645, 0.0004803359, 0.000288309, 125268.4, 125268.4, 0.0, 2.5003235, 2.4997737 
4.1632664e+2, 9.620955e+1, 120431.84, -43170.742, -7385.724, 0.0001294516, 0.000043705943, 120764.59, 120764.59, 0.0, 2.5003157, 2.4997737 
4.1632658e+2, 9.8709315e+1, 115957.65, -45307.74, -6854.9746, -0.00022540924, -0.00020234247, 116248.516, 116248.516, 0.0, 2.500308, 2.499774 
4.188328e+2, 1.2491027e+0, -138602.55, -870364.44, -4897.123, 0.000021352222, -0.0000036211063, -138569.78, -138569.78, 0.0, 2.5006268, 2.4982047 
4.1883275e+2, 3.747308e+0, -139547.88, -870959.0, -5309.9087, 0.00002303624, -0.000012503896, -139509.33, -139509.33, 0.0, 2.5006254, 2.4982042 
4.1883272e+2, 6.2455136e+0, -140472.22, -871395.44, -5701.1816, 0.0000128885085, -0.000023573839, -140427.75, -140427.75, 0.0, 2.5006237, 2.4982042 
4.188327e+2, 8.743719e+0, -141468.31, -871866.44, -6097.642, -0.000009091522, -0.000036831014, -141417.4, -141417.4, 0.0, 2.500622, 2.4982042 
4.1883263e+2, 1.12420045e+1, -98423.52, -779757.56, -15453.202, -0.00002216291, 0.000075224576, -98073.22, -98073.22, 0.0, 2.5006192, 2.4983637 
4.1883254e+2, 1.374037e+1, -100569.44, -780520.94, -15867.619, -0.000031959673, 0.00004639598, -100199.34, -100199.34, 0.0, 2.5006151, 2.4983642 
4.1883245e+2, 1.6238736e+1, -102930.41, -781650.2, -16206.265, -0.00005455698, 0.00001811244, -102543.664, -102543.664, 0.0, 2.500611, 2.4983642 
4.1883236e+2, 1.87371e+1, -105342.11, -782803.94, -16552.813, -0.00008996668, -0.000009296517, -104937.91, -104937.91, 0.0, 2.500607, 2.4983642 
4.1883224e+2, 2.123555e+1, -61849.28, -687432.94, -24722.135, -0.00013242853, 0.00011848899, -60873.82, -60873.82, 0.0, 2.5006015, 2.4985304 
4.188321e+2, 2.3734081e+1, -65534.168, -688780.3, -25195.578, -0.00006163569, 0.00003075532, -64517.26, -64517.26, 0.0, 2.5005949, 2.4985313 
4.1883197e+2, 2.6232612e+1, -69513.24, -690690.56, -25483.11, 0.000007182181, -0.00006308069, -68469.58, -68469.58, 0.0, 2.500588, 2.4985313 
4.1883183e+2, 2.8731143e+1, -73522.31, -692615.25, -25777.002, 0.00007372238, -0.00016207874, -72450.9, -72450.9, 0.0, 2.500581, 2.4985316 
4.1883168e+2, 3.1229764e+1, -29556.025, -594259.3, -32087.654, 0.0000689719, -0.000013981719, -27738.586, -27738.586, 0.0, 2.5005736, 2.4987037 
4.1883144e+2, 3.3728468e+1, -34109.652, -595805.25, -32519.133, -0.000019581277, 0.0000056234026, -32233.24, -32233.24, 0.0, 2.500565, 2.4987051 
4.1883126e+2, 3.6227176e+1, -39105.875, -598207.1, -32729.703, -0.00011211048, 0.000017713326, -37196.402, -37196.402, 0.0, 2.5005565, 2.4987054 
4.1883108e+2, 3.8725883e+1, -44141.24, -600627.8, -32947.055, -0.00020858618, 0.00002372642, -42197.383, -42197.383, 0.0, 2.500548, 2.4987054 
4.188309e+2, 4.122468e+1, -208.4689, -500854.47, -37102.934, -0.0002500703, 0.00028820094, 2526.2952, 2526.2952, 0.0, 2.5005386, 2.4988809 
4.188307e+2, 4.372356e+1, -5430.866, -502346.3, -37326.492, -0.00012681902, 0.00014574685, -2642.6797, -2642.6797, 0.0, 2.5005286, 2.4988832 
4.1883048e+2, 4.6222442e+1, -11331.448, -505182.63, -37440.117, -0.0000070101923, -0.0000071288146, -8509.147, -8509.147, 0.0, 2.5005186, 2.4988832 
4.1883028e+2, 4.8721325e+1, -17271.195, -508037.8, -37562.125, 0.00010883182, -0.00016720094, -14412.926, -14412.926, 0.0, 2.5005083, 2.4988832 
4.1883004e+2, 5.12203e+1, 26720.316, -407172.6, -39323.336, 0.00018512644, 0.000056414512, 30255.355, 30255.355, 0.0, 2.500498, 2.499061 
4.188298e+2, 5.3719366e+1, 21286.62, -408433.84, -39211.7, 0.000050139493, 0.000025912856, 24835.354, 24835.354, 0.0, 2.5004873, 2.4990642 
4.188296e+2, 5.621843e+1, 14942.556, -411487.7, -39206.945, -0.000090782705, -0.000010396778, 18517.361, 18517.361, 0.0, 2.5004764, 2.4990642 
4.1882938e+2, 5.8717495e+1, 8538.698, -414570.3, -39207.332, -0.00023671021, -0.000048803333, 12141.168, 12141.168, 0.0, 2.5004654, 2.4990642 
4.1882914e+2, 6.1216646e+1, 52115.98, -314182.1, -38286.617, -0.00017547655, 0.000246322, 56075.027, 56075.027, 0.0, 2.5004547, 2.4992416 
4.188289e+2, 6.3715893e+1, 46811.13, -315001.97, -37742.543, -0.00015218895, 0.00010855533, 50706.31, 50706.31, 0.0, 2.5004437, 2.4992454 
4.188287e+2, 6.621514e+1, 40353.945, -318114.97, -37594.01, -0.00013398955, -0.0000350651, 44254.14, 44254.14, 0.0, 2.5004327, 2.4992454 
4.188285e+2, 6.8714386e+1, 33836.56, -321256.94, -37445.63, -0.000119159515, -0.00017955987, 37742.348, 37742.348, 0.0, 2.5004215, 2.4992454 
4.188283e+2, 7.1213716e+1, 77153.055, -221828.61, -33621.563, 0.00025943643, 0.0001964871, 80887.28, 80887.28, 0.0, 2.5004113, 2.4994211 
4.1882813e+2, 7.371314e+1, 72520.37, -221727.55, -32710.541, 0.00022174069, 0.00012708177, 76112.83, 76112.83, 0.0, 2.5004008, 2.4994264 
4.1882795e+2, 7.6212573e+1, 66336.01, -224716.05, -32405.584, 0.00017355393, 0.000054518903, 69900.375, 69900.375, 0.0, 2.5003903, 2.4994264 
4.1882777e+2, 7.8712e+1, 60073.367, -227742.25, -32097.408, 0.000120685756, -0.000014324653, 63609.45, 63609.45, 0.0, 2.5003796, 2.4994261 
4.1882756e+2, 8.12115e+1, 102636.695, -130627.04, -25094.924, -0.0000036876472, 0.00020138487, 105305.91, 105305.91, 0.0, 2.50037, 2.4995975 
4.1882744e+2, 8.3711106e+1, 98926.28, -129342.86, -23753.977, -0.0003198778, 0.000076547614, 101371.95, 101371.95, 0.0, 2.5003605, 2.4996042 
4.188273e+2, 8.621071e+1, 93141.38, -132119.81, -23278.95, -0.0006487624, -0.000057491332, 95521.92, 95521.92, 0.0, 2.5003505, 2.4996045 
4.1882715e+2, 8.8710314e+1, 87208.22, -134968.17, -22807.19, -0.0009894843, -0.00019618432, 89525.3, 89525.3, 0.0, 2.5003402, 2.4996045 
4.1882706e+2, 9.121001e+1, 128864.945, -41588.21, -12392.87, 0.0007422281, 0.00053894403, 129761.266, 129761.266, 0.0, 2.5003328, 2.4997683 
4.18827e+2, 9.370978e+1, 127376.93, -38090.723, -10264.6045, 0.0004937126, 0.0003143293, 128011.26, 128011.26, 0.0, 2.500326, 2.4997778 
4.1882694e+2, 9.620955e+1, 122935.58, -40209.082, -9547.551, 0.00018535175, 0.00007123178, 123492.42, 123492.42, 0.0, 2.5003183, 2.4997778 
4.1882688e+2, 9.8709327e+1, 118180.09, -42478.71, -8840.993, -0.00014935808, -0.00017580685, 118665.15, 118665.15, 0.0, 2.50031, 2.4997778 
4.2133343e+2, 1.2491016e+0, -122942.55, -863791.06, -5081.652, 0.0000910367, -0.000005610049, -122907.695, -122907.695, 0.0, 2.500655, 2.4982023 
4.213334e+2, 3.747305e+0, -124102.15, -864503.6, -5397.114, 0.00005900936, -0.00001681042, -124062.81, -124062.81, 0.0, 2.500653, 2.498202 
4.2133337e+2, 6.245508e+0, -125167.414, -865017.5, -5677.428, 0.000038548318, -0.000027984208, -125123.85, -125123.85, 0.0, 2.5006511, 2.498202 
4.2133334e+2, 8.743712e+0, -126234.336, -865532.1, -5957.6123, 0.000029653947, -0.000039131486, -126186.336, -126186.336, 0.0, 2.5006495, 2.498202 
4.2133328e+2, 1.1241995e+1, -83396.17, -773370.06, -15588.951, 0.000018892071, 0.0000684916, -83044.14, -83044.14, 0.0, 2.5006459, 2.4983618 
4.2133316e+2, 1.3740358e+1, -86234.79, -774496.25, -15919.648, 0.0000014846231, 0.00003317927, -85866.76, -85866.76, 0.0, 2.5006409, 2.4983623 
4.2133307e+2, 1.6238722e+1, -89235.26, -775956.7, -16157.898, -0.0000052305663, -0.000003903558, -88855.29, -88855.29, 0.0, 2.5006356, 2.4983623 
4.21333e+2, 1.8737084e+1, -92236.88, -777417.7, -16396.43, -0.0000012623839, -0.00004243801, -91844.74, -91844.74, 0.0, 2.5006306, 2.4983623 
4.2133287e+2, 2.1235532e+1, -49207.523, -681988.2, -24788.922, -0.000047884812, 0.000080348305, -48237.914, -48237.914, 0.0, 2.500624, 2.498529 
4.2133272e+2, 2.3734063e+1, -53675.723, -683728.8, -25131.836, -0.000002119334, 0.0000013340535, -52674.84, -52674.84, 0.0, 2.5006158, 2.49853 
4.2133254e+2, 2.623259e+1, -58411.336, -686021.5, -25252.105, 0.000048834867, -0.00007882382, -57396.95, -57396.95, 0.0, 2.5006077, 2.49853 
4.213324e+2, 2.8731123e+1, -63148.66, -688315.06, -25372.791, 0.000104574, -0.00015918555, -62120.58, -62120.58, 0.0, 2.5005996, 2.49853 
4.2133224e+2, 3.122974e+1, -19867.318, -590029.56, -31737.912, 0.000092663286, -0.000013216468, -18106.076, -18106.076, 0.0, 2.5005906, 2.4987028 
4.2133203e+2, 3.3728448e+1, -25509.791, -592118.06, -32032.326, 0.000017071223, -0.000021803438, -23704.645, -23704.645, 0.0, 2.5005803, 2.4987042 
4.2133185e+2, 3.622715e+1, -31559.03, -595046.25, -32061.086, -0.000050086866, -0.000034510125, -29740.697, -29740.697, 0.0, 2.5005698, 2.4987042 
4.2133164e+2, 3.8725856e+1, -37610.53, -597975.56, -32090.375, -0.00010882652, -0.000049881834, -35778.8, -35778.8, 0.0, 2.5005596, 2.4987042 
4.2133147e+2, 4.1224653e+1, 5559.719, -498194.94, -36200.19, -0.00015959839, 0.00022732331, 8147.796, 8147.796, 0.0, 2.5005486, 2.4988806 
4.213312e+2, 4.3723533e+1, -832.24084, -500248.5, -36234.203, -0.000044625613, 0.00010043758, 1782.9684, 1782.9684, 0.0, 2.5005367, 2.4988828 
4.21331e+2, 4.6222416e+1, -7881.4214, -503658.53, -36103.293, 0.00007840999, -0.000030649822, -5266.117, -5266.117, 0.0, 2.5005245, 2.4988828 
4.2133078e+2, 4.87213e+1, -14934.059, -507070.22, -35972.953, 0.00020873333, -0.00016254482, -12318.497, -12318.497, 0.0, 2.5005124, 2.4988828 
4.2133054e+2, 5.1220274e+1, 28051.607, -406394.47, -37546.68, 0.00028694374, 0.0000729304, 31272.67, 31272.67, 0.0, 2.5005002, 2.4990616 
4.213303e+2, 5.3719336e+1, 21469.336, -408205.88, -37272.992, 0.00012718653, 0.000026925896, 24678.682, 24678.682, 0.0, 2.5004873, 2.4990644 
4.2133006e+2, 5.6218404e+1, 14021.594, -411806.97, -37071.168, -0.00001965741, -0.000024962867, 17224.787, 17224.787, 0.0, 2.5004747, 2.4990644 
4.2132983e+2, 5.8717465e+1, 6569.9595, -415409.9, -36870.1, -0.00015253019, -0.0000789822, 9767.226, 9767.226, 0.0, 2.5004618, 2.4990644 
4.213296e+2, 6.121662e+1, 49205.19, -315093.72, -35726.49, -0.00009049273, 0.00021920446, 52675.793, 52675.793, 0.0, 2.5004492, 2.4992428 
4.2132938e+2, 6.3715863e+1, 42597.918, -316487.06, -35038.99, -0.00008219089, 0.00007139465, 45985.023, 45985.023, 0.0, 2.5004358, 2.4992466 
4.2132914e+2, 6.621511e+1, 34856.793, -320223.03, -34713.42, -0.00006124966, -0.000086490254, 38218.63, 38218.63, 0.0, 2.5004227, 2.4992466 
4.2132893e+2, 6.871436e+1, 27110.701, -323961.4, -34388.38, -0.000025946772, -0.0002492774, 30447.414, 30447.414, 0.0, 2.5004094, 2.4992466 
4.213287e+2, 7.12137e+1, 69171.3, -224794.14, -30266.566, 0.00036351255, 0.0001441359, 72255.17, 72255.17, 0.0, 2.5003967, 2.499423 
4.213285e+2, 7.371313e+1, 63176.176, -225231.66, -29293.451, 0.0002857373, 0.00009484001, 66121.42, 66121.42, 0.0, 2.5003836, 2.4994285 
4.213283e+2, 7.6212555e+1, 55630.645, -228873.25, -28887.338, 0.00021469798, 0.000034618628, 58534.113, 58534.113, 0.0, 2.5003707, 2.4994285 
4.2132813e+2, 7.871198e+1, 48078.38, -232518.08, -28481.947, 0.00015652442, -0.000029413206, 50940.254, 50940.254, 0.0, 2.5003579, 2.4994285 
4.2132795e+2, 8.1211495e+1, 89337.01, -135693.1, -21183.457, 0.00003862932, 0.00017800646, 91313.77, 91313.77, 0.0, 2.500346, 2.4996004 
4.213278e+2, 8.37111e+1, 84466.266, -134782.56, -19883.62, -0.00030150573, 0.000009259192, 86254.914, 86254.914, 0.0, 2.500334, 2.4996078 
4.2132765e+2, 8.621071e+1, 77545.984, -138108.69, -19405.463, -0.00061337504, -0.00016638335, 79278.25, 79278.25, 0.0, 2.500322, 2.4996078 
4.2132747e+2, 8.8710314e+1, 70616.805, -141439.1, -18927.107, -0.0008956569, -0.0003441236, 72292.9, 72292.9, 0.0, 2.5003102, 2.4996078 
4.2132738e+2, 9.121001e+1, 110930.99, -48232.19, -8073.71, 0.0008595062, 0.0004430072, 111339.49, 111339.49, 0.0, 2.5003, 2.4997728 
4.213273e+2, 9.3709785e+1, 107564.6, -45362.75, -6172.3296, 0.000520265, 0.000249056, 107813.32, 107813.32, 0.0, 2.5002894, 2.4997828 
4.2132723e+2, 9.620956e+1, 101358.23, -48351.313, -5595.482, 0.00019755015, 0.00003744618, 101567.07, 101567.07, 0.0, 2.5002787, 2.4997828 
4.2132717e+2, 9.8709345e+1, 95136.07, -51347.477, -5017.436, -0.00007415321, -0.00017635012, 95307.73, 95307.73, 0.0, 2.500268, 2.4997828 
4.238341e+2, 1.2491007e+0, -123460.41, -864867.56, -5354.6963, 0.00007591689, -0.0000029724674, -123421.734, -123421.734, 0.0, 2.500655, 2.4982007 
4.2383406e+2, 3.747302e+0, -124622.07, -865585.4, -5674.685, 0.00004576058, -0.000008600842, -124578.61, -124578.61, 0.0, 2.500653, 2.4982002 
4.2383403e+2, 6.2455034e+0, -125686.945, -866099.4, -5952.1567, 0.000019508858, -0.000013806857, -125639.1, -125639.1, 0.0, 2.5006511, 2.4982002 
4.23834e+2, 8.7437046e+0, -126753.49, -866614.2, -6229.4985, -0.0000028378759, -0.00001859059, -126701.05, -126701.05, 0.0, 2.5006495, 2.4982002 
4.2383394e+2, 1.1241987e+1, -83816.72, -774252.0, -16352.519, -0.000029805571, 0.00007394702, -83429.64, -83429.64, 0.0, 2.5006459, 2.4983602 
4.238338e+2, 1.3740349e+1, -86670.57, -775413.75, -16700.414, -0.000008210951, 0.00003428173, -86265.86, -86265.86, 0.0, 2.5006409, 2.4983606 
4.238337e+2, 1.623871e+1, -89668.086, -776871.94, -16935.182, 0.000020441019, -0.000007283558, -89250.99, -89250.99, 0.0, 2.5006356, 2.4983606 
4.238336e+2, 1.8737072e+1, -92666.75, -778330.7, -17170.229, 0.000056074878, -0.000050470193, -92237.05, -92237.05, 0.0, 2.5006306, 2.4983606 
4.238335e+2, 2.1235518e+1, -49399.36, -682418.9, -25991.098, -0.000004910684, 0.00006513595, -48333.99, -48333.99, 0.0, 2.5006242, 2.4985282 
4.238333e+2, 2.3734047e+1, -53883.36, -684193.56, -26366.117, -0.000005912459, 0.0000265078, -52782.38, -52782.38, 0.0, 2.500616, 2.4985292 
4.2383316e+2, 2.623258e+1, -58619.426, -686488.44, -26483.594, -0.0000056944223, -0.000013102361, -57504.324, -57504.324, 0.0, 2.5006077, 2.4985292 
4.23833e+2, 2.8731108e+1, -63357.195, -688784.1, -26601.484, -0.0000046998734, -0.00005286857, -62227.785, -62227.785, 0.0, 2.5005996, 2.4985292 
4.2383283e+2, 3.1229725e+1, -19893.516, -590125.56, -33270.547, -0.000031697302, 0.0000929365, -17958.889, -17958.889, 0.0, 2.5005908, 2.4987025 
4.2383263e+2, 3.3728427e+1, -25545.89, -592238.2, -33606.277, -0.000034426386, 0.00003533206, -23559.914, -23559.914, 0.0, 2.5005803, 2.498704 
4.238324e+2, 3.6227134e+1, -31593.82, -595167.1, -33632.668, -0.00003319641, -0.000028053302, -29593.803, -29593.803, 0.0, 2.50057, 2.498704 
4.238322e+2, 3.8725838e+1, -37644.008, -598097.2, -33659.59, -0.000028213964, -0.00009573226, -35629.727, -35629.727, 0.0, 2.5005596, 2.498704 
4.23832e+2, 4.1224632e+1, 5848.9595, -497675.94, -37976.145, -0.00008530635, 0.00015359088, 8697.033, 8697.033, 0.0, 2.5005488, 2.4988813 
4.2383176e+2, 4.3723518e+1, -552.27954, -499754.84, -38066.434, -0.000036395668, 0.00007323626, 2333.7712, 2333.7712, 0.0, 2.5005367, 2.4988837 
4.2383152e+2, 4.62224e+1, -7598.6333, -503164.78, -37932.316, 0.000013470845, -0.000013041775, -4711.9795, -4711.9795, 0.0, 2.5005245, 2.4988837 
4.2383125e+2, 4.8721284e+1, -14648.444, -506576.34, -37798.77, 0.00006342962, -0.00010207831, -11761.009, -11761.009, 0.0, 2.5005126, 2.4988837 
4.2383105e+2, 5.122026e+1, 28492.7, -405594.7, -39458.79, 0.00014233464, 0.00014486357, 32050.367, 32050.367, 0.0, 2.5005002, 2.4990628 
4.2383078e+2, 5.3719324e+1, 21901.738, -407429.2, -39207.188, 0.000061098406, 0.000068332476, 25452.828, 25452.828, 0.0, 2.5004876, 2.4990659 
4.2383054e+2, 5.621839e+1, 14456.286, -411030.34, -39002.145, -0.000014644292, -0.000015609972, 18001.863, 18001.863, 0.0, 2.5004747, 2.4990656 
4.238303e+2, 5.871746e+1, 7006.9434, -414633.4, -38797.863, -0.00008378413, -0.00010311446, 10547.26, 10547.26, 0.0, 2.500462, 2.4990656 
4.2383006e+2, 6.1216617e+1, 49903.105, -313838.1, -37696.848, -0.00001820053, 0.00017188044, 53768.79, 53768.79, 0.0, 2.5004494, 2.4992447 
4.238298e+2, 6.3715863e+1, 43309.984, -315204.66, -37049.2, -0.000061492356, 0.00004056023, 47098.64, 47098.64, 0.0, 2.500436, 2.4992487 
4.2382956e+2, 6.621511e+1, 35567.195, -318945.94, -36719.613, -0.000100753634, -0.0001000486, 39330.574, 39330.574, 0.0, 2.500423, 2.4992487 
4.2382935e+2, 6.8714356e+1, 27819.441, -322689.63, -36390.555, -0.00013434501, -0.00024493213, 31557.71, 31557.71, 0.0, 2.5004096, 2.4992487 
4.238291e+2, 7.12137e+1, 70065.336, -223211.9, -32196.29, 0.0002659873, 0.0001526697, 73558.28, 73558.28, 0.0, 2.500397, 2.4994256 
4.238289e+2, 7.371313e+1, 64109.293, -223570.4, -31249.97, 0.00022785153, 0.00010222231, 67464.766, 67464.766, 0.0, 2.500384, 2.4994311 
4.2382866e+2, 7.6212555e+1, 56563.195, -227214.27, -30839.451, 0.00018412647, 0.000041929045, 59875.992, 59875.992, 0.0, 2.500371, 2.4994311 
4.2382845e+2, 7.871199e+1, 49010.363, -230861.36, -30429.654, 0.0001413433, -0.000021132046, 52280.676, 52280.676, 0.0, 2.500358, 2.4994311 
4.2382827e+2, 8.12115e+1, 90426.63, -133801.16, -22954.861, 0.000060771825, 0.00016648423, 92752.46, 92752.46, 0.0, 2.5003462, 2.4996035 
4.2382813e+2, 8.371111e+1, 85644.66, -132708.19, -21672.943, -0.00026413333, -0.000051789146, 87775.05, 87775.05, 0.0, 2.5003343, 2.4996111 
4.2382798e+2, 8.621072e+1, 78724.016, -136035.56, -21189.564, -0.00057632517, -0.0002761149, 80794.75, 80794.75, 0.0, 2.5003226, 2.4996111 
4.238278e+2, 8.871033e+1, 71794.47, -139367.22, -20705.986, -0.00087416323, -0.0005015986, 73805.69, 73805.69, 0.0, 2.5003107, 2.4996111 
4.238277e+2, 9.121003e+1, 112323.305, -45844.05, -9576.451, 0.00089936354, 0.0003326527, 112901.016, 112901.016, 0.0, 2.5003006, 2.4997766 
4.2382762e+2, 9.3709815e+1, 109107.52, -42663.258, -7751.9746, 0.0005416282, 0.00019285202, 109502.44, 109502.44, 0.0, 2.50029, 2.499787 
4.2382753e+2, 9.62096e+1, 102906.3, -45640.316, -7162.5884, 0.000169846, 0.00003318788, 103250.87, 103250.87, 0.0, 2.5002792, 2.499787 
4.238274e+2, 9.870938e+1, 96689.3, -48624.97, -6572.004, -0.0001808937, -0.00013012397, 96985.914, 96985.914, 0.0, 2.5002685, 2.499787 
4.2633474e+2, 1.2490998e+0, -123978.26, -865944.06, -5627.4424, 0.000060349328, -0.000001495214, -123935.58, -123935.58, 0.0, 2.500655, 2.4981987 
4.263347e+2, 3.7472993e+0, -125143.086, -866669.4, -5952.2827, 0.000031168554, -0.000003872253, -125095.305, -125095.305, 0.0, 2.500653, 2.4981983 
4.2633465e+2, 6.245499e+0, -126207.58, -867183.56, -6226.912, -0.0000017693014, -0.0000054311513, -126155.25, -126155.25, 0.0, 2.5006511, 2.4981983 
4.2633462e+2, 8.743699e+0, -127273.734, -867698.56, -6501.411, -0.000038463833, -0.0000061719907, -127216.66, -127216.66, 0.0, 2.5006495, 2.4981983 
4.2633456e+2, 1.124198e+1, -84257.52, -775175.94, -17115.99, -0.00007801828, 0.000086468346, -83833.77, -83833.77, 0.0, 2.5006459, 2.4983587 
4.2633444e+2, 1.374034e+1, -87107.875, -776334.44, -17481.072, -0.000019508458, 0.000034392182, -86664.78, -86664.78, 0.0, 2.5006409, 2.4983592 
4.2633435e+2, 1.6238698e+1, -90102.44, -777790.4, -17712.355, 0.00004241616, -0.000019762701, -89646.53, -89646.53, 0.0, 2.5006356, 2.4983592 
4.2633426e+2, 1.8737058e+1, -93098.15, -779246.9, -17943.92, 0.00010762121, -0.0000757086, -92629.2, -92629.2, 0.0, 2.5006306, 2.498359 
4.263341e+2, 2.1235505e+1, -49625.063, -682920.0, -27191.879, 0.000037631493, 0.000054393302, -48459.664, -48459.664, 0.0, 2.5006242, 2.4985273 
4.2633396e+2, 2.3734033e+1, -54092.043, -684660.56, -27599.824, -0.0000087541075, 0.000050465496, -52886.31, -52886.31, 0.0, 2.500616, 2.4985282 
4.2633379e+2, 2.6232564e+1, -58828.555, -686957.56, -27714.506, -0.000057920686, 0.000045580713, -57608.098, -57608.098, 0.0, 2.500608, 2.4985282 
4.263336e+2, 2.8731093e+1, -63566.77, -689255.3, -27829.604, -0.00011031918, 0.00004058777, -62331.395, -62331.395, 0.0, 2.5005999, 2.4985282 
4.263334e+2, 3.122971e+1, -19939.324, -590262.25, -34800.996, -0.00015819204, 0.00020221435, -17823.623, -17823.623, 0.0, 2.5005908, 2.4987023 
4.263332e+2, 3.3728412e+1, -25582.781, -592359.94, -35179.652, -0.000086762135, 0.0000918902, -23407.541, -23407.541, 0.0, 2.5005803, 2.4987037 
4.2633298e+2, 3.6227116e+1, -31629.4, -595289.7, -35203.676, -0.000015803296, -0.000026020609, -29439.248, -29439.248, 0.0, 2.50057, 2.4987037 
4.2633277e+2, 3.8725817e+1, -37678.28, -598220.56, -35228.227, 0.00005424203, -0.00014985353, -35472.98, -35472.98, 0.0, 2.5005596, 2.4987037 
4.2633256e+2, 4.1224617e+1, 6120.6616, -497193.44, -39747.23, -0.000015533693, 0.00007980179, 9240.206, 9240.206, 0.0, 2.5005488, 2.4988823 
4.2633227e+2, 4.37235e+1, -273.09583, -499262.84, -39898.074, -0.000032201468, 0.000041816853, 2896.9236, 2896.9236, 0.0, 2.500537, 2.4988844 
4.2633203e+2, 4.6222386e+1, -7316.6226, -502672.66, -39760.75, -0.000054953507, -0.0000039178512, -4145.4473, -4145.4473, 0.0, 2.5005248, 2.4988844 
4.263318e+2, 4.8721272e+1, -14363.606, -506084.13, -39623.996, -0.000084808766, -0.000054361888, -11191.08, -11191.08, 0.0, 2.5005126, 2.4988844 
4.2633155e+2, 5.1220244e+1, 28915.47, -404833.0, -41370.098, 0.0000013354245, 0.00021941501, 32826.016, 32826.016, 0.0, 2.5005004, 2.499064 
4.2633128e+2, 5.371931e+1, 22333.379, -406654.1, -41140.617, -0.0000009147181, 0.00010840502, 26243.2, 26243.2, 0.0, 2.5004876, 2.499067 
4.26331e+2, 5.621838e+1, 14890.218, -410255.34, -40932.36, -0.000005171679, -0.0000117470145, 18795.254, 18795.254, 0.0, 2.500475, 2.499067 
4.2633075e+2, 5.871745e+1, 7443.167, -413858.5, -40724.863, -0.000010194106, -0.00013689247, 11343.698, 11343.698, 0.0, 2.500462, 2.499067 
4.263305e+2, 6.1216605e+1, 50576.305, -312633.8, -39655.914, 0.00004930105, 0.00012963587, 54855.59, 54855.59, 0.0, 2.5004497, 2.4992468 
4.2633027e+2, 6.371586e+1, 44021.047, -313924.38, -39058.547, -0.00004293419, 0.000009650927, 48233.492, 48233.492, 0.0, 2.5004363, 2.499251 
4.2633e+2, 6.6215104e+1, 36276.594, -317671.0, -38724.95, -0.00013961871, -0.00011907195, 40463.902, 40463.902, 0.0, 2.5004232, 2.499251 
4.2632973e+2, 6.8714356e+1, 28527.176, -321419.97, -38391.87, -0.00023932518, -0.00025144184, 32689.549, 32689.549, 0.0, 2.5004098, 2.499251 
4.263295e+2, 7.12137e+1, 70938.055, -221674.02, -34111.11, 0.00016426481, 0.00016501248, 74861.92, 74861.92, 0.0, 2.5003972, 2.499428 
4.2632928e+2, 7.3713136e+1, 65041.676, -221910.72, -33205.855, 0.00016667486, 0.00010994571, 68834.1, 68834.1, 0.0, 2.5003843, 2.499434 
4.2632908e+2, 7.621256e+1, 57495.008, -225556.83, -32790.93, 0.00015128995, 0.000045863868, 61244.11, 61244.11, 0.0, 2.5003715, 2.499434 
4.2632884e+2, 7.8712e+1, 49941.605, -229206.19, -32376.727, 0.00012492297, -0.000019943103, 53647.594, 53647.594, 0.0, 2.5003583, 2.4994338 
4.2632863e+2, 8.121152e+1, 91500.82, -131941.31, -24709.123, 0.0000831232, 0.00015623581, 94200.63, 94200.63, 0.0, 2.5003467, 2.4996066 
4.2632845e+2, 8.371113e+1, 86822.28, -130635.414, -23462.355, -0.00022709915, -0.00011525121, 89324.93, 89324.93, 0.0, 2.5003347, 2.4996145 
4.2632827e+2, 8.621074e+1, 79901.28, -133964.03, -22973.756, -0.00054016174, -0.00039211544, 82341.32, 82341.32, 0.0, 2.5003228, 2.4996145 
4.2632812e+2, 8.871035e+1, 72971.375, -137296.95, -22484.957, -0.00085410447, -0.0006691977, 75348.914, 75348.914, 0.0, 2.500311, 2.4996145 
4.26328e+2, 9.1210055e+1, 113690.36, -43508.418, -11057.038, 0.0009332564, 0.00023468237, 114464.27, 114464.27, 0.0, 2.5003011, 2.4997804 
4.2632788e+2, 9.370984e+1, 110649.28, -39966.19, -9333.345, 0.00054855994, 0.00014088333, 111225.445, 111225.445, 0.0, 2.5002904, 2.4997916 
4.263278e+2, 9.6209633e+1, 104453.22, -42931.734, -8731.42, 0.00011933333, 0.000024603432, 104968.68, 104968.68, 0.0, 2.50028, 2.4997916 
4.263277e+2, 9.8709416e+1, 98241.37, -45904.883, -8128.298, -0.00031881977, -0.000096785305, 98698.266, 98698.266, 0.0, 2.5002692, 2.4997916 
4.288354e+2, 1.2490989e+0, -127891.39, -868656.8, -5898.242, 0.000047906615, -0.0000011885284, -127844.43, -127844.43, 0.0, 2.500649, 2.4981968 
4.2883536e+2, 3.747297e+0, -128943.54, -869335.7, -6225.503, 0.000017598413, -0.0000027420624, -128891.195, -128891.195, 0.0, 2.5006473, 2.4981966 
4.2883533e+2, 6.245495e+0, -129942.56, -869818.9, -6495.8247, -0.000023279255, -0.000003197113, -129885.53, -129885.53, 0.0, 2.5006456, 2.4981966 
4.288353e+2, 8.7436926e+0, -130995.08, -870327.8, -6766.654, -0.00007472719, -0.0000025535958, -130933.15, -130933.15, 0.0, 2.500644, 2.4981966 
4.288352e+2, 1.1241971e+1, -87884.016, -777668.25, -17874.54, -0.00012282011, 0.00010469085, -87421.14, -87421.14, 0.0, 2.5006406, 2.498357 
4.2883512e+2, 1.374033e+1, -90632.66, -778746.25, -18262.914, -0.000029641387, 0.0000312562, -90148.29, -90148.29, 0.0, 2.5006356, 2.4983575 
4.28835e+2, 1.6238688e+1, -93566.266, -780172.1, -18495.324, 0.00006349587, -0.000044513814, -93068.41, -93068.41, 0.0, 2.5006306, 2.4983575 
4.2883486e+2, 1.8737045e+1, -96522.54, -781608.94, -18726.502, 0.00015640543, -0.00012227282, -96011.05, -96011.05, 0.0, 2.5006254, 2.4983575 
4.2883474e+2, 2.1235491e+1, -52771.816, -684886.06, -28419.04, 0.000082571096, 0.00004354822, -51496.703, -51496.703, 0.0, 2.5006192, 2.4985263 
4.2883456e+2, 2.3734018e+1, -57017.324, -686442.2, -28903.908, -0.000008217315, 0.000068737456, -55692.813, -55692.813, 0.0, 2.5006113, 2.4985275 
4.2883438e+2, 2.6232547e+1, -61610.48, -688672.4, -29060.992, -0.00010529342, 0.00009270123, -60266.535, -60266.535, 0.0, 2.5006034, 2.4985275 
4.288342e+2, 2.8731078e+1, -66233.25, -690916.9, -29220.484, -0.00020908737, 0.000116449184, -64869.395, -64869.395, 0.0, 2.5005956, 2.4985275 
4.2883402e+2, 3.1229696e+1, -22320.67, -591560.3, -36538.67, -0.0002832279, 0.00030961877, -19984.89, -19984.89, 0.0, 2.5005867, 2.498702 
4.2883378e+2, 3.3728397e+1, -27789.328, -593533.7, -37011.746, -0.00013628289, 0.00014294314, -25378.246, -25378.246, 0.0, 2.5005767, 2.4987035 
4.2883354e+2, 3.62271e+1, -33730.26, -596414.44, -37089.9, 0.0000062629974, -0.00003299483, -31295.977, -31295.977, 0.0, 2.5005665, 2.4987035 
4.2883334e+2, 3.8725802e+1, -39716.152, -599316.94, -37175.2, 0.00014368305, -0.00021621054, -37257.348, -37257.348, 0.0, 2.5005562, 2.4987035 
4.288331e+2, 4.12246e+1, 4536.7056, -497638.53, -41966.652, 0.000054611686, 0.0000024385092, 8019.6904, 8019.6904, 0.0, 2.5005457, 2.498883 
4.2883283e+2, 4.3723485e+1, -1574.3877, -499539.88, -42273.727, -0.000028383773, 0.000002995389, 1988.8535, 1988.8535, 0.0, 2.5005343, 2.4988852 
4.288326e+2, 4.622237e+1, -8429.9375, -502861.03, -42232.785, -0.00012343629, -0.000005885719, -4848.4854, -4848.4854, 0.0, 2.5005224, 2.4988852 
4.288323e+2, 4.8721257e+1, -15362.321, -506219.2, -42200.555, -0.0002317963, -0.000021186577, -11760.631, -11760.631, 0.0, 2.5005105, 2.4988852 
4.2883202e+2, 5.122023e+1, 28187.541, -404661.72, -44127.97, -0.00013167849, 0.00029530717, 32640.475, 32640.475, 0.0, 2.5004985, 2.4990652 
4.2883176e+2, 5.3719306e+1, 21821.709, -406341.88, -44003.105, -0.000055074146, 0.00014611735, 26297.203, 26297.203, 0.0, 2.5004861, 2.4990683 
4.288315e+2, 5.621837e+1, 14506.227, -409883.2, -43879.246, 0.0000125518045, -0.000013911239, 18995.58, 18995.58, 0.0, 2.5004737, 2.4990683 
4.2883122e+2, 5.8717436e+1, 7122.433, -413457.4, -43761.324, 0.00007264675, -0.00018012937, 11627.54, 11627.54, 0.0, 2.500461, 2.4990683 
4.2883095e+2, 6.121659e+1, 50602.234, -311786.8, -42808.64, 0.00011627071, 0.000093389186, 55590.508, 55590.508, 0.0, 2.5004487, 2.4992485 
4.2883068e+2, 6.371585e+1, 44320.457, -312849.84, -42365.895, -0.000023196893, -0.000019699526, 49276.92, 49276.92, 0.0, 2.5004358, 2.499253 
4.2883042e+2, 6.6215104e+1, 36707.703, -316537.22, -42117.36, -0.0001746211, -0.0001410977, 41659.926, 41659.926, 0.0, 2.5004227, 2.499253 
4.2883015e+2, 6.8714356e+1, 29011.28, -320264.9, -41864.473, -0.00033692355, -0.00026540237, 33959.094, 33959.094, 0.0, 2.5004096, 2.4992528 
4.288299e+2, 7.12137e+1, 71688.04, -220229.92, -37537.508, 0.00006184117, 0.00018526224, 76437.68, 76437.68, 0.0, 2.5003974, 2.4994304 
4.2882964e+2, 7.3713136e+1, 66056.086, -220213.0, -36716.51, 0.00010430188, 0.0001225553, 70690.28, 70690.28, 0.0, 2.5003848, 2.4994366 
4.2882943e+2, 7.6212573e+1, 58590.035, -223821.9, -36323.258, 0.00011822666, 0.000051426305, 63187.03, 63187.03, 0.0, 2.500372, 2.4994366 
4.288292e+2, 7.8712004e+1, 51014.137, -227483.73, -35927.824, 0.000110577996, -0.00002037454, 55574.363, 55574.363, 0.0, 2.500359, 2.4994366 
4.2882898e+2, 8.1211525e+1, 92771.63, -130004.164, -28035.889, 0.00010879706, 0.00015324114, 96245.71, 96245.71, 0.0, 2.5003474, 2.4996095 
4.288288e+2, 8.371114e+1, 88381.33, -128373.03, -26795.281, -0.00018916874, -0.00017451622, 91644.64, 91644.64, 0.0, 2.500336, 2.4996178 
4.2882863e+2, 8.621075e+1, 81515.25, -131676.39, -26258.016, -0.0005043067, -0.00050710776, 84701.73, 84701.73, 0.0, 2.500324, 2.4996178 
4.2882842e+2, 8.8710374e+1, 74525.305, -135039.4, -25723.27, -0.00083434425, -0.0008389431, 77636.55, 77636.55, 0.0, 2.500312, 2.4996178 
4.2882827e+2, 9.1210073e+1, 115417.52, -41023.62, -13871.45, 0.00096163386, 0.00015733087, 116637.97, 116637.97, 0.0, 2.5003023, 2.499784 
4.2882818e+2, 9.370987e+1, 112594.92, -37061.17, -12115.219, 0.00054029777, 0.000101404294, 113569.35, 113569.35, 0.0, 2.5002916, 2.499796 
4.288281e+2, 9.6209663e+1, 106195.125, -40116.58, -11356.594, 0.000046277622, 0.000020078147, 107071.37, 107071.37, 0.0, 2.5002806, 2.499796 
4.2882797e+2, 9.870946e+1, 99550.73, -43289.766, -10609.732, -0.00048440733, -0.000067709116, 100334.484, 100334.484, 0.0, 2.5002692, 2.4997962 
4.3133605e+2, 1.2490983e+0, -110663.305, -860892.06, -6060.2866, 0.00011078553, -0.00000006506976, -110614.35, -110614.35, 0.0, 2.5006793, 2.4981956 
4.3133602e+2, 3.747295e+0, -111889.59, -861665.0, -6222.9434, 0.00005695815, -0.0000019812942, -111837.95, -111837.95, 0.0, 2.5006773, 2.4981954 
4.3133596e+2, 6.2454915e+0, -113008.09, -862211.7, -6319.695, 0.000013362246, -0.000006278681, -112954.79, -112954.79, 0.0, 2.5006754, 2.4981952 
4.3133593e+2, 8.7436885e+0, -114127.984, -862759.06, -6416.4077, -0.00002000181, -0.000012957363, -114072.99, -114072.99, 0.0, 2.5006735, 2.4981952 
4.3133587e+2, 1.12419665e+1, -71346.26, -770091.1, -17868.574, -0.00006225865, 0.00008053298, -70889.62, -70889.62, 0.0, 2.5006692, 2.498356 
4.3133575e+2, 1.3740323e+1, -74912.55, -771566.94, -18070.896, 0.000020716976, -0.0000073649453, -74444.11, -74444.11, 0.0, 2.500663, 2.4983566 
4.3133563e+2, 1.623868e+1, -78641.336, -773378.3, -18098.568, 0.000106680025, -0.00009751612, -78170.17, -78170.17, 0.0, 2.5006566, 2.4983566 
4.313355e+2, 1.8737037e+1, -82371.3, -775190.2, -18126.107, 0.00019542847, -0.00018957762, -81897.39, -81897.39, 0.0, 2.5006502, 2.4983566 
4.3133536e+2, 2.1235481e+1, -39329.95, -678565.0, -27957.984, 0.00012478212, -0.000041706844, -38109.492, -38109.492, 0.0, 2.5006425, 2.498526 
4.3133518e+2, 2.373401e+1, -44548.28, -680626.56, -28257.871, 0.00003412703, -0.000018406789, -43295.39, -43295.39, 0.0, 2.500633, 2.498527 
4.31335e+2, 2.6232538e+1, -50071.844, -683318.7, -28197.068, -0.000050002804, -0.00000066680866, -48818.77, -48818.77, 0.0, 2.5006235, 2.498527 
4.313348e+2, 2.8731066e+1, -55597.02, -686011.56, -28136.451, -0.00012799629, 0.000012462177, -54343.734, -54343.734, 0.0, 2.5006142, 2.4985268 
4.3133458e+2, 3.1229684e+1, -12453.865, -586654.2, -35518.516, -0.00021363281, 0.0002073568, -10265.126, -10265.126, 0.0, 2.5006037, 2.4987023 
4.3133435e+2, 3.3728385e+1, -19222.752, -589262.25, -35749.855, -0.00006124663, 0.00004406396, -16989.46, -16989.46, 0.0, 2.5005913, 2.498704 
4.3133414e+2, 3.622709e+1, -26428.268, -592769.9, -35524.93, 0.000097241755, -0.00012056496, -24208.594, -24208.594, 0.0, 2.5005789, 2.4987037 
4.313339e+2, 3.8725793e+1, -33636.504, -596278.75, -35300.31, 0.0002608857, -0.00028446183, -31430.402, -31430.402, 0.0, 2.5005667, 2.4987037 
4.3133366e+2, 4.122459e+1, 9487.647, -494825.2, -39944.848, 0.00017163847, -0.000063155974, 12631.935, 12631.935, 0.0, 2.5005538, 2.498884 
4.3133336e+2, 4.3723476e+1, 2178.978, -497336.72, -40080.492, 0.000047242193, -0.00006374545, 5374.5415, 5374.5415, 0.0, 2.5005403, 2.498886 
4.313331e+2, 4.6222362e+1, -5791.7383, -501216.84, -39812.902, -0.00006086162, -0.000067770205, -2612.7288, -2612.7288, 0.0, 2.5005267, 2.498886 
4.3133283e+2, 4.8721248e+1, -13765.394, -505098.38, -39545.75, -0.00015378316, -0.00007228449, -10602.845, -10602.845, 0.0, 2.5005128, 2.4988859 
4.3133256e+2, 5.1220226e+1, 28937.68, -403604.75, -41277.355, -0.000066019464, 0.00026339342, 32841.527, 32841.527, 0.0, 2.5004992, 2.4990668 
4.3133223e+2, 5.3719294e+1, 21107.473, -405998.16, -40916.566, 0.000017328213, 0.00011593157, 24991.938, 24991.938, 0.0, 2.5004842, 2.49907 
4.3133196e+2, 5.621836e+1, 12385.842, -410230.1, -40498.727, 0.00010523892, -0.00003581558, 16231.781, 16231.781, 0.0, 2.5004692, 2.4990697 
4.313317e+2, 5.8717436e+1, 3659.5698, -414464.28, -40081.402, 0.00019881537, -0.0001870477, 7467.106, 7467.106, 0.0, 2.5004544, 2.4990697 
4.313314e+2, 6.12166e+1, 45913.62, -313132.56, -38792.297, 0.00025611863, 0.00010369444, 50057.027, 50057.027, 0.0, 2.5004396, 2.4992507 
4.3133113e+2, 6.371585e+1, 38502.215, -314705.38, -38199.176, 0.00007006287, 0.00000060453937, 42586.21, 42586.21, 0.0, 2.5004249, 2.4992552 
4.3133083e+2, 6.6215104e+1, 29822.457, -318901.28, -37754.06, -0.000106437925, -0.00010963324, 33863.027, 33863.027, 0.0, 2.50041, 2.4992552 
4.3133056e+2, 6.871436e+1, 21138.047, -323099.47, -37309.5, -0.0002720115, -0.00022157504, 25135.346, 25135.346, 0.0, 2.500395, 2.499255 
4.313303e+2, 7.1213704e+1, 62697.813, -223345.64, -32711.568, 0.00011420756, 0.00024329133, 66390.984, 66390.984, 0.0, 2.5003805, 2.4994333 
4.3133005e+2, 7.371314e+1, 55753.223, -223884.9, -31857.277, 0.00013905246, 0.00018244195, 59336.586, 59336.586, 0.0, 2.5003657, 2.4994395 
4.3132982e+2, 7.6212585e+1, 47038.17, -228085.83, -31383.758, 0.00017356446, 0.00011284334, 50572.75, 50572.75, 0.0, 2.5003507, 2.4994395 
4.3132952e+2, 7.871202e+1, 38317.156, -232289.61, -30910.83, 0.00022478418, 0.000042351934, 41803.125, 41803.125, 0.0, 2.5003357, 2.4994395 
4.313293e+2, 8.121155e+1, 78813.71, -135029.61, -22729.385, 0.0002384785, 0.00023453993, 81202.92, 81202.92, 0.0, 2.5003216, 2.4996133 
4.313291e+2, 8.3711165e+1, 72832.3, -134040.86, -21518.334, -0.00012556187, -0.0000762814, 75046.87, 75046.87, 0.0, 2.500307, 2.4996219 
4.3132892e+2, 8.621079e+1, 64411.95, -138094.77, -20956.66, -0.00047750867, -0.0003921207, 66557.93, 66557.93, 0.0, 2.5002928, 2.4996219 
4.313287e+2, 8.8710403e+1, 55982.06, -142153.28, -20395.19, -0.0008148628, -0.0007072274, 58059.664, 58059.664, 0.0, 2.5002782, 2.4996219 
4.313286e+2, 9.1210115e+1, 95329.04, -48428.63, -8200.219, 0.0009434405, 0.00032487843, 95795.28, 95795.28, 0.0, 2.5002654, 2.499789 
4.3132848e+2, 9.3709916e+1, 91170.56, -44901.984, -6686.1406, 0.0004982145, 0.0002397186, 91498.31, 91498.31, 0.0, 2.5002522, 2.4998014 
4.3132833e+2, 9.620971e+1, 83526.125, -48579.66, -6048.4106, 0.000035607154, 0.00013291316, 83802.47, 83802.47, 0.0, 2.5002391, 2.4998014 
4.313282e+2, 9.870951e+1, 75867.36, -52264.227, -5410.1353, -0.00040855756, 0.000024095361, 76095.39, 76095.39, 0.0, 2.500226, 2.4998014 
4.3383673e+2, 1.249098e+0, -110836.38, -861251.06, -6344.872, 0.00005387101, -0.0000014556739, -110782.74, -110782.74, 0.0, 2.5006793, 2.4981952 
4.338367e+2, 3.7472942e+0, -112064.945, -862027.44, -6514.439, 0.00003095745, -0.000005117173, -112008.37, -112008.37, 0.0, 2.5006773, 2.4981947 
4.3383667e+2, 6.2454903e+0, -113184.8, -862575.7, -6608.7275, 0.00001219902, -0.000009778595, -113126.516, -113126.516, 0.0, 2.5006754, 2.4981947 
4.338366e+2, 8.7436855e+0, -114306.04, -863124.56, -6702.9766, -0.0000024038798, -0.000015440075, -114246.04, -114246.04, 0.0, 2.5006733, 2.4981947 
4.3383655e+2, 1.12419635e+1, -71367.68, -770147.25, -18821.95, -0.00005607836, 0.0000775496, -70861.07, -70861.07, 0.0, 2.5006695, 2.498356 
4.338364e+2, 1.374032e+1, -74950.336, -771652.06, -19042.361, -0.000011178874, 0.000024067533, -74430.26, -74430.26, 0.0, 2.500663, 2.4983566 
4.3383628e+2, 1.6238678e+1, -78683.98, -773468.4, -19065.645, 0.000033022974, -0.000028325681, -78161.19, -78161.19, 0.0, 2.5006566, 2.4983566 
4.3383616e+2, 1.8737036e+1, -82418.8, -775285.25, -19088.797, 0.00007632378, -0.000079327954, -81893.29, -81893.29, 0.0, 2.5006502, 2.4983563 
4.33836e+2, 2.123548e+1, -39140.535, -678197.06, -29367.23, 0.000015375606, 0.00003481018, -37793.83, -37793.83, 0.0, 2.5006425, 2.4985266 
4.338358e+2, 2.3734006e+1, -44418.76, -680381.9, -29695.6, -0.0000065065014, 0.000017041235, -43035.17, -43035.17, 0.0, 2.500633, 2.4985275 
4.3383563e+2, 2.6232538e+1, -49945.08, -683078.44, -29631.352, -0.000026259138, -0.0000054967018, -48561.324, -48561.324, 0.0, 2.5006235, 2.4985273 
4.3383542e+2, 2.8731063e+1, -55473.01, -685775.75, -29567.291, -0.00004429452, -0.00003203141, -54089.06, -54089.06, 0.0, 2.5006142, 2.4985273 
4.338352e+2, 3.1229684e+1, -12006.72, -585762.75, -37329.188, -0.00015119447, 0.00015234467, -9588.236, -9588.236, 0.0, 2.5006037, 2.498704 
4.3383497e+2, 3.3728385e+1, -18785.918, -588394.8, -37620.477, -0.00006197695, 0.00005153346, -16311.976, -16311.976, 0.0, 2.5005913, 2.4987054 
4.3383473e+2, 3.6227092e+1, -25990.861, -591903.75, -37392.79, 0.0000274548, -0.00005165702, -23530.82, -23530.82, 0.0, 2.500579, 2.4987051 
4.3383443e+2, 3.87258e+1, -33198.527, -595413.94, -37165.402, 0.000115976974, -0.00015530415, -30752.34, -30752.34, 0.0, 2.5005667, 2.4987051 
4.338342e+2, 4.1224593e+1, 10048.515, -493730.4, -41985.918, 0.00006022812, 0.00006282166, 13523.7295, 13523.7295, 0.0, 2.5005538, 2.4988856 
4.338339e+2, 4.3723485e+1, 2712.315, -496303.7, -42148.23, -0.0000053243634, 0.000011032928, 6247.227, 6247.227, 0.0, 2.5005403, 2.4988878 
4.3383363e+2, 4.622237e+1, -5256.164, -500183.5, -41877.766, -0.00006140557, -0.00004525594, -1737.7328, -1737.7328, 0.0, 2.5005267, 2.4988878 
4.3383333e+2, 4.872126e+1, -13227.582, -504064.7, -41607.734, -0.00010870966, -0.00010317549, -9725.526, -9725.526, 0.0, 2.500513, 2.4988878 
4.3383303e+2, 5.1220244e+1, 29783.672, -401959.34, -43463.93, -0.000070388865, 0.00020942655, 34115.754, 34115.754, 0.0, 2.5004992, 2.4990695 
4.3383273e+2, 5.371931e+1, 21943.574, -404376.72, -43178.176, -0.0000011144239, 0.000095559495, 26272.744, 26272.744, 0.0, 2.5004845, 2.4990726 
4.3383244e+2, 5.6218386e+1, 13222.765, -408610.06, -42756.25, 0.0000640328, -0.000023533341, 17512.834, 17512.834, 0.0, 2.5004694, 2.4990726 
4.338321e+2, 5.871746e+1, 4497.3145, -412845.63, -42334.844, 0.00012533898, -0.00014319514, 8748.416, 8748.416, 0.0, 2.5004544, 2.4990723 
4.3383184e+2, 6.121662e+1, 46865.34, -311327.0, -41009.867, 0.00022498761, 0.00013534336, 51500.625, 51500.625, 0.0, 2.50044, 2.4992537 
4.3383154e+2, 6.3715875e+1, 39431.934, -312949.1, -40453.88, 0.00004387619, 0.000010404801, 44016.453, 44016.453, 0.0, 2.500425, 2.499258 
4.3383124e+2, 6.6215134e+1, 30751.86, -317148.6, -40005.195, -0.00013684932, -0.00012275075, 35292.8, 35292.8, 0.0, 2.50041, 2.499258 
4.3383095e+2, 6.871439e+1, 22067.137, -321350.34, -39557.066, -0.0003150768, -0.0002588923, 26564.676, 26564.676, 0.0, 2.5003953, 2.499258 
4.3383065e+2, 7.1213746e+1, 63739.76, -221435.27, -34931.79, 0.00008094493, 0.00017463382, 67956.3, 67956.3, 0.0, 2.500381, 2.4994364 
4.338304e+2, 7.3713183e+1, 56806.293, -221955.17, -34116.277, 0.00013554018, 0.00010402537, 60920.887, 60920.887, 0.0, 2.500366, 2.4994426 
4.3383014e+2, 7.621262e+1, 48091.543, -226158.17, -33638.703, 0.00018973008, 0.000024539493, 52157.297, 52157.297, 0.0, 2.500351, 2.4994426 
4.3382987e+2, 7.8712064e+1, 39370.83, -230364.03, -33161.72, 0.00025054114, -0.000056127814, 43387.97, 43387.97, 0.0, 2.500336, 2.4994426 
4.3382967e+2, 8.121159e+1, 80087.82, -132731.16, -24867.531, 0.000260041, 0.00015299712, 82954.92, 82954.92, 0.0, 2.5003219, 2.499617 
4.3382943e+2, 8.371122e+1, 74156.5, -131643.16, -23701.025, -0.00012375526, -0.000106460604, 76850.766, 76850.766, 0.0, 2.5003076, 2.499626 
4.3382922e+2, 8.6210847e+1, 65738.78, -135695.08, -23134.238, -0.0005096307, -0.00037111266, 68361.55, 68361.55, 0.0, 2.500293, 2.499626 
4.33829e+2, 8.8710463e+1, 57311.52, -139751.58, -22567.658, -0.0008950711, -0.00063524133, 59862.934, 59862.934, 0.0, 2.5002787, 2.499626 
4.3382883e+2, 9.121018e+1, 96872.234, -45722.566, -10074.932, 0.00084148033, 0.00037180734, 97580.555, 97580.555, 0.0, 2.5002658, 2.4997935 
4.338287e+2, 9.370998e+1, 92818.1, -41981.715, -8637.218, 0.00046800915, 0.00018661552, 93369.27, 93369.27, 0.0, 2.5002527, 2.4998062 
4.338286e+2, 9.620979e+1, 85176.72, -45653.18, -7988.8735, 0.000054730415, -0.00002085426, 85662.74, 85662.74, 0.0, 2.5002396, 2.4998062 
4.3382847e+2, 9.870959e+1, 77521.02, -49331.54, -7339.9834, -0.0003630125, -0.00023096797, 77944.32, 77944.32, 0.0, 2.5002265, 2.4998062 
4.3633744e+2, 1.2490977e+0, -111009.35, -861609.9, -6629.372, -0.000002928028, -0.0000041839585, -110950.805, -110950.805, 0.0, 2.5006793, 2.4981945 
4.3633738e+2, 3.7472934e+0, -112241.266, -862391.9, -6805.843, 0.0000053031913, -0.000012266093, -112179.52, -112179.52, 0.0, 2.5006773, 2.498194 
4.3633735e+2, 6.2454885e+0, -113362.46, -862941.6, -6897.668, 0.000011613194, -0.000019966898, -113298.99, -113298.99, 0.0, 2.5006754, 2.498194 
4.363373e+2, 8.7436837e+0, -114485.055, -863492.06, -6989.454, 0.00001600242, -0.000027286513, -114419.836, -114419.836, 0.0, 2.5006733, 2.498194 
4.363372e+2, 1.1241961e+1, -71415.61, -770258.44, -19770.807, -0.00005207449, 0.00008446755, -70856.73, -70856.73, 0.0, 2.5006695, 2.4983559 
4.3633705e+2, 1.3740319e+1, -74989.9, -771740.8, -20013.506, -0.00004298821, 0.000054528693, -74415.5, -74415.5, 0.0, 2.500663, 2.4983563 
4.3633693e+2, 1.6238676e+1, -78728.39, -773562.1, -20032.402, -0.000038272447, 0.00002895874, -78151.33, -78151.33, 0.0, 2.5006566, 2.4983563 
4.3633682e+2, 1.8737034e+1, -82468.06, -775384.0, -20051.166, -0.000038144197, 0.000008081097, -81888.32, -81888.32, 0.0, 2.5006502, 2.4983563 
4.3633664e+2, 2.1235478e+1, -38997.785, -677926.06, -30768.105, -0.000100232246, 0.000121840276, -37519.543, -37519.543, 0.0, 2.5006425, 2.498527 
4.3633646e+2, 2.3734005e+1, -44290.53, -680139.94, -31132.766, -0.000049912625, 0.000055677185, -42769.83, -42769.83, 0.0, 2.500633, 2.4985278 
4.3633625e+2, 2.6232535e+1, -49819.6, -682840.9, -31065.074, -0.0000017943621, -0.000014671099, -48298.758, -48298.758, 0.0, 2.5006237, 2.4985278 
4.3633604e+2, 2.8731063e+1, -55350.29, -685542.6, -30997.572, 0.000043622, -0.00008840182, -53829.27, -53829.27, 0.0, 2.5006142, 2.4985278 
4.363358e+2, 3.122968e+1, -11578.1045, -584909.8, -39136.066, -0.00008956707, 0.00009651904, -8918.9795, -8918.9795, 0.0, 2.5006037, 2.4987054 
4.3633553e+2, 3.372839e+1, -18349.854, -587529.06, -39490.543, -0.00006179253, 0.00005483471, -15623.001, -15623.001, 0.0, 2.5005913, 2.4987068 
4.363353e+2, 3.6227095e+1, -25554.225, -591039.25, -39260.086, -0.00003964515, 0.000009614189, -22841.518, -22841.518, 0.0, 2.500579, 2.4987066 
4.3633503e+2, 3.8725802e+1, -32761.318, -594550.8, -39029.934, -0.000024472512, -0.00003725162, -30062.703, -30062.703, 0.0, 2.5005667, 2.4987066 
4.3633476e+2, 4.1224602e+1, 10592.025, -492671.72, -44022.93, -0.000052047526, 0.0001895254, 14413.901, 14413.901, 0.0, 2.500554, 2.4988875 
4.3633443e+2, 4.372349e+1, 3244.922, -495272.25, -44215.414, -0.00005875935, 0.00008244546, 7136.184, 7136.184, 0.0, 2.5005403, 2.4988897 
4.3633413e+2, 4.6222383e+1, -4721.32, -499151.7, -43942.07, -0.000062758634, -0.0000303299, -846.3755, -846.3755, 0.0, 2.5005267, 2.4988894 
4.3633384e+2, 4.8721272e+1, -12690.501, -503032.56, -43669.16, -0.00006438599, -0.000145877, -8831.755, -8831.755, 0.0, 2.500513, 2.4988894 
4.3633354e+2, 5.122025e+1, 30608.371, -400358.22, -45647.797, -0.00006687616, 0.00015909105, 35390.305, 35390.305, 0.0, 2.5004995, 2.4990723 
4.363332e+2, 5.371933e+1, 22778.896, -402756.94, -45439.07, -0.000009895294, 0.00007455458, 27576.822, 27576.822, 0.0, 2.5004845, 2.4990752 
4.363329e+2, 5.6218404e+1, 14058.908, -406991.66, -45013.066, 0.000034158395, -0.000016361935, 18817.324, 18817.324, 0.0, 2.5004694, 2.4990752 
4.3633258e+2, 5.871748e+1, 5334.2793, -411228.63, -44587.58, 0.00006486416, -0.00010893132, 10053.332, 10053.332, 0.0, 2.5004547, 2.4990752 
4.363323e+2, 6.1216646e+1, 47797.152, -309562.8, -43217.86, 0.00019114613, 0.00016893115, 52949.484, 52949.484, 0.0, 2.5004401, 2.4992566 
4.3633196e+2, 6.3715905e+1, 40360.88, -311194.47, -42707.727, 0.000017977616, 0.000017719673, 45474.72, 45474.72, 0.0, 2.5004253, 2.499261 
4.3633166e+2, 6.6215163e+1, 31680.492, -315397.56, -42255.47, -0.00016376805, -0.0001429612, 36750.867, 36750.867, 0.0, 2.5004103, 2.499261 
4.3633133e+2, 6.871442e+1, 22995.455, -319602.9, -41803.773, -0.00035144493, -0.00030790997, 28022.578, 28022.578, 0.0, 2.5003955, 2.499261 
4.3633106e+2, 7.1213776e+1, 64757.992, -219574.2, -37139.36, 0.000051463343, 0.00011076915, 69529.06, 69529.06, 0.0, 2.5003812, 2.4994395 
4.3633077e+2, 7.371322e+1, 57858.56, -220027.17, -36374.56, 0.0001371168, 0.000026205335, 62540.996, 62540.996, 0.0, 2.5003662, 2.499446 
4.363305e+2, 7.621267e+1, 49144.11, -224232.23, -35892.93, 0.00021234607, -0.000067635934, 53778.117, 53778.117, 0.0, 2.5003512, 2.499446 
4.363302e+2, 7.871211e+1, 40423.695, -228440.17, -35411.89, 0.00028410985, -0.00016294715, 45009.555, 45009.555, 0.0, 2.5003364, 2.499446 
4.3632996e+2, 8.1211644e+1, 81342.61, -130472.9, -26990.324, 0.00028364005, 0.000073341034, 84727.72, 84727.72, 0.0, 2.5003223, 2.4996207 
4.3632975e+2, 8.371127e+1, 75480.01, -129246.93, -25883.672, -0.00012241953, -0.00013845017, 78701.79, 78701.79, 0.0, 2.5003078, 2.4996297 
4.3632948e+2, 8.62109e+1, 67064.914, -133296.84, -25311.773, -0.00054462254, -0.0003558105, 70213.09, 70213.09, 0.0, 2.5002935, 2.4996297 
4.3632928e+2, 8.871052e+1, 58640.285, -137351.36, -24740.082, -0.0009805482, -0.0005728566, 61714.996, 61714.996, 0.0, 2.500279, 2.4996297 
4.363291e+2, 9.1210246e+1, 98390.46, -43068.426, -11928.947, 0.00075540546, 0.0004329254, 99389.35, 99389.35, 0.0, 2.5002663, 2.4997978 
4.3632898e+2, 9.371005e+1, 94464.29, -39064.266, -10588.98, 0.0004495631, 0.00013760806, 95298.8, 95298.8, 0.0, 2.5002532, 2.499811 
4.3632883e+2, 9.6209854e+1, 86825.97, -42729.523, -9930.021, 0.000081146405, -0.0001810672, 87582.66, 87582.66, 0.0, 2.50024, 2.499811 
4.3632868e+2, 9.870966e+1, 79173.336, -46401.67, -9270.517, -0.00031464142, -0.00050301774, 79854.04, 79854.04, 0.0, 2.500227, 2.499811 
4.388381e+2, 1.24909736e+0, -115471.76, -864036.5, -6915.355, -0.000053499723, -0.00000884259, -115407.875, -115407.875, 0.0, 2.5006719, 2.4981937 
4.3883803e+2, 3.7472922e+0, -116633.29, -864790.2, -7100.552, -0.000014682404, -0.000025356125, -116565.91, -116565.91, 0.0, 2.50067, 2.4981935 
4.38838e+2, 6.245487e+0, -117731.74, -865329.7, -7188.4844, 0.00001688815, -0.000040306884, -117662.63, -117662.63, 0.0, 2.500668, 2.4981935 
4.3883795e+2, 8.743682e+0, -118882.29, -865894.3, -7272.9956, 0.000041211242, -0.000053694694, -118811.484, -118811.484, 0.0, 2.5006661, 2.4981933 
4.3883786e+2, 1.1241958e+1, -75635.7, -772425.25, -20723.201, -0.000044278495, 0.000095841264, -75019.92, -75019.92, 0.0, 2.5006623, 2.4983556 
4.3883774e+2, 1.3740316e+1, -78989.17, -773743.75, -21027.492, -0.00006967538, 0.00007962355, -78353.336, -78353.336, 0.0, 2.5006561, 2.498356 
4.388376e+2, 1.6238675e+1, -82578.77, -775496.2, -21075.844, -0.00010250264, 0.000070331844, -81938.32, -81938.32, 0.0, 2.5006502, 2.498356 
4.3883747e+2, 1.8737032e+1, -86203.58, -777265.6, -21122.787, -0.00014300598, 0.00006837619, -85558.55, -85558.55, 0.0, 2.500644, 2.498356 
4.388373e+2, 2.1235475e+1, -42428.137, -679454.06, -32301.906, -0.00021684534, 0.00021436768, -40794.383, -40794.383, 0.0, 2.5006366, 2.4985273 
4.3883708e+2, 2.3734003e+1, -47502.977, -681512.5, -32743.408, -0.00009076486, 0.000091908405, -45816.43, -45816.43, 0.0, 2.5006273, 2.4985282 
4.3883684e+2, 2.6232532e+1, -52895.223, -684150.5, -32701.285, 0.000029438186, -0.000034359797, -51205.703, -51205.703, 0.0, 2.5006182, 2.4985282 
4.3883666e+2, 2.873106e+1, -58336.613, -686812.2, -32655.604, 0.0001431056, -0.00016339663, -56644.383, -56644.383, 0.0, 2.500609, 2.498528 
4.3883643e+2, 3.1229678e+1, -14074.534, -585499.4, -41208.313, -0.000021663012, 0.000032887103, -11118.093, -11118.093, 0.0, 2.5005987, 2.4987068 
4.3883616e+2, 3.372839e+1, -20497.309, -587913.4, -41698.25, -0.00005548913, 0.00004729799, -17449.361, -17449.361, 0.0, 2.500587, 2.4987082 
4.388359e+2, 3.62271e+1, -27427.535, -591293.4, -41538.73, -0.000099939854, 0.000057012614, -24383.9, -24383.9, 0.0, 2.500575, 2.4987082 
4.388356e+2, 3.8725808e+1, -34410.777, -594699.0, -41384.113, -0.00015664019, 0.000064001986, -31370.555, -31370.555, 0.0, 2.5005631, 2.498708 
4.388353e+2, 4.122461e+1, 9259.71, -492548.6, -46617.598, -0.00016122648, 0.00031174833, 13553.704, 13553.704, 0.0, 2.500551, 2.4988892 
4.38835e+2, 4.37235e+1, 2146.1143, -495032.25, -46909.348, -0.00010883091, 0.00014574091, 6533.351, 6533.351, 0.0, 2.5005376, 2.4988914 
4.388347e+2, 4.622239e+1, -5636.743, -498824.28, -46702.105, -0.000060217782, -0.000027162832, -1253.2753, -1253.2753, 0.0, 2.5005243, 2.4988914 
4.3883434e+2, 4.8721278e+1, -13469.183, -502640.16, -46498.684, -0.00001543902, -0.00020385589, -9088.431, -9088.431, 0.0, 2.500511, 2.498891 
4.3883404e+2, 5.122026e+1, 30304.904, -399338.66, -48680.402, -0.00005063458, 0.00010989289, 35751.547, 35751.547, 0.0, 2.5004976, 2.499075 
4.388337e+2, 5.371935e+1, 22774.416, -401547.25, -48645.945, -0.000005316535, 0.000051758798, 28279.95, 28279.95, 0.0, 2.5004833, 2.499078 
4.388334e+2, 5.621842e+1, 14240.549, -405694.13, -48311.24, 0.000019438861, -0.0000141091905, 19726.822, 19726.822, 0.0, 2.5004685, 2.4990778 
4.3883303e+2, 5.87175e+1, 5619.3823, -409883.03, -47977.145, 0.000022598615, -0.00008269996, 11087.242, 11087.242, 0.0, 2.5004537, 2.4990778 
4.388327e+2, 6.121667e+1, 48286.61, -308045.2, -46634.2, 0.00016002258, 0.00020695577, 54288.668, 54288.668, 0.0, 2.5004396, 2.4992595 
4.388324e+2, 6.371593e+1, 41034.316, -309565.8, -46246.484, -0.0000036048282, 0.000025835589, 47031.934, 47031.934, 0.0, 2.500425, 2.4992638 
4.3883207e+2, 6.6215193e+1, 32443.941, -313728.9, -45860.016, -0.00018382627, -0.00016585724, 38416.31, 38416.31, 0.0, 2.5004103, 2.4992638 
4.3883172e+2, 6.871445e+1, 23771.447, -317931.6, -45475.57, -0.00037767566, -0.00036277133, 29720.01, 29720.01, 0.0, 2.5003953, 2.4992638 
4.3883142e+2, 7.121381e+1, 65676.555, -217794.84, -40800.18, 0.000028849312, 0.000058656067, 71432.086, 71432.086, 0.0, 2.5003812, 2.4994423 
4.3883115e+2, 7.3713255e+1, 58970.664, -218067.3, -40108.004, 0.0001460597, -0.000043299933, 64660.42, 64660.42, 0.0, 2.5003667, 2.499449 
4.3883085e+2, 7.621271e+1, 50296.15, -222255.16, -39630.918, 0.00024367751, -0.00015495121, 55941.82, 55941.82, 0.0, 2.5003517, 2.499449 
4.3883055e+2, 7.871216e+1, 41518.566, -226492.64, -39152.996, 0.00032853076, -0.0002681115, 47121.195, 47121.195, 0.0, 2.5003366, 2.499449 
4.388303e+2, 8.121169e+1, 82609.48, -128229.234, -30561.213, 0.00031197286, 0.000006653674, 86949.99, 86949.99, 0.0, 2.5003228, 2.4996245 
4.3883005e+2, 8.371132e+1, 76883.04, -126803.195, -29471.422, -0.0001198942, -0.0001603829, 81061.55, 81061.55, 0.0, 2.5003085, 2.4996338 
4.388298e+2, 8.6210954e+1, 68417.836, -130876.586, -28838.295, -0.0005802821, -0.00033351537, 72506.89, 72506.89, 0.0, 2.500294, 2.4996338 
4.3882957e+2, 8.871059e+1, 59841.383, -135003.55, -28207.484, -0.001066984, -0.00050649786, 63842.773, 63842.773, 0.0, 2.5002792, 2.4996338 
4.3882936e+2, 9.1210306e+1, 99640.125, -40563.547, -14951.965, 0.0006895582, 0.0005226236, 101216.94, 101216.94, 0.0, 2.5002666, 2.499802 
4.388292e+2, 9.371012e+1, 95731.74, -36311.527, -13575.415, 0.0004455791, 0.00010778723, 97112.984, 97112.984, 0.0, 2.5002532, 2.4998157 
4.3882906e+2, 9.620993e+1, 87745.81, -40139.48, -12749.155, 0.000118017364, -0.00033224362, 89004.414, 89004.414, 0.0, 2.5002394, 2.4998157 
4.3882892e+2, 9.870974e+1, 79528.375, -44078.914, -11921.249, -0.00025774207, -0.0007764913, 80667.62, 80667.62, 0.0, 2.5002253, 2.499816 
4.4133878e+2, 1.2490974e+0, -96281.72, -854635.3, -7113.623, 0.000037750797, -0.00001971903, -96214.99, -96214.99, 0.0, 2.5007045, 2.4981942 
4.4133875e+2, 3.7472922e+0, -98090.63, -855698.4, -7022.6855, 0.0000745852, -0.00006227579, -98025.54, -98025.54, 0.0, 2.5007017, 2.4981937 
4.413387e+2, 6.2454873e+0, -99785.89, -856522.7, -6830.856, 0.000120656034, -0.00010899054, -99724.234, -99724.234, 0.0, 2.5006988, 2.4981937 
4.4133866e+2, 8.743682e+0, -101482.79, -857347.75, -6638.913, 0.00017596387, -0.0001598635, -101424.484, -101424.484, 0.0, 2.500696, 2.4981937 
4.4133857e+2, 1.124196e+1, -58753.273, -763958.4, -20348.805, 0.00009429089, -0.000018867853, -58166.594, -58166.594, 0.0, 2.500691, 2.4983563 
4.4133842e+2, 1.3740318e+1, -62782.105, -765632.0, -20356.555, 0.000036832447, -0.0000038548187, -62193.01, -62193.01, 0.0, 2.5006838, 2.4983568 
4.4133827e+2, 1.6238676e+1, -67001.414, -767698.75, -20088.39, -0.000013962754, 0.0000010985549, -66425.97, -66425.97, 0.0, 2.5006764, 2.4983568 
4.413381e+2, 1.8737034e+1, -71222.11, -769766.2, -19820.023, -0.000058328693, -0.0000036269016, -70660.195, -70660.195, 0.0, 2.5006692, 2.4983568 
4.4133794e+2, 2.123548e+1, -28255.59, -671995.5, -31142.746, -0.0001420635, 0.00012766909, -26752.482, -26752.482, 0.0, 2.5006602, 2.4985287 
4.413377e+2, 2.373401e+1, -34771.277, -674751.25, -31268.75, -0.0000008294595, -0.000008532217, -33247.15, -33247.15, 0.0, 2.5006485, 2.4985297 
4.413375e+2, 2.6232538e+1, -41553.926, -678057.06, -30872.58, 0.00014831645, -0.00014682587, -40060.004, -40060.004, 0.0, 2.5006368, 2.4985297 
4.413373e+2, 2.873107e+1, -48338.52, -681363.75, -30476.348, 0.0003046327, -0.00028616886, -46874.652, -46874.652, 0.0, 2.5006254, 2.4985294 
4.4133702e+2, 3.122969e+1, -5289.0225, -580313.4, -38972.168, 0.00014774589, -0.0001092662, -2659.7136, -2659.7136, 0.0, 2.5006127, 2.4987087 
4.4133672e+2, 3.37284e+1, -12972.371, -583383.94, -39202.547, 0.000056955618, -0.00008311678, -10290.714, -10290.714, 0.0, 2.500599, 2.4987102 
4.4133645e+2, 3.6227113e+1, -21087.527, -587346.5, -38737.188, -0.000024481591, -0.000057775153, -18449.844, -18449.844, 0.0, 2.500585, 2.4987102 
4.4133615e+2, 3.8725823e+1, -29204.568, -591310.0, -38272.08, -0.0000980479, -0.000031423253, -26610.707, -26610.707, 0.0, 2.5005713, 2.49871 
4.4133586e+2, 4.1224626e+1, 13467.323, -489295.25, -43325.176, -0.0001141086, 0.0002263996, 17173.516, 17173.516, 0.0, 2.5005567, 2.498892 
4.413355e+2, 4.3723518e+1, 4753.541, -492593.03, -43264.223, -0.00003355249, 0.000055673798, 8489.043, 8489.043, 0.0, 2.500541, 2.498894 
4.413352e+2, 4.6222413e+1, -4561.464, -497130.5, -42644.2, 0.00004538951, -0.00011816603, -896.8041, -896.8041, 0.0, 2.500525, 2.498894 
4.4133487e+2, 4.8721305e+1, -13879.238, -501669.28, -42024.203, 0.000122425, -0.00029199533, -10285.239, -10285.239, 0.0, 2.500509, 2.4988937 
4.4133455e+2, 5.122029e+1, 28621.555, -398781.66, -43873.465, 0.00008300354, 0.000024028825, 33078.74, 33078.74, 0.0, 2.5004933, 2.4990778 
4.413342e+2, 5.371938e+1, 19997.053, -401550.3, -43653.46, 0.000077515804, 0.0000024078229, 24470.137, 24470.137, 0.0, 2.5004768, 2.499081 
4.4133383e+2, 5.621846e+1, 10470.134, -406182.97, -43070.48, 0.00008481047, -0.000028018292, 14875.852, 14875.852, 0.0, 2.5004606, 2.499081 
4.413335e+2, 5.8717537e+1, 939.4996, -410817.38, -42487.703, 0.00010405828, -0.00006245253, 5277.9404, 5277.9404, 0.0, 2.5004444, 2.499081 
4.4133317e+2, 6.121671e+1, 42574.918, -309291.78, -40871.47, 0.00024810838, 0.000249844, 47260.008, 47260.008, 0.0, 2.5004282, 2.4992628 
4.4133282e+2, 6.371597e+1, 33960.48, -311477.5, -40308.656, 0.0000826038, 0.0000833273, 38601.684, 38601.684, 0.0, 2.5004113, 2.499267 
4.4133246e+2, 6.621524e+1, 24090.373, -316258.66, -39691.14, -0.00008257083, -0.0000858556, 28657.816, 28657.816, 0.0, 2.5003943, 2.499267 
4.4133213e+2, 6.8714505e+1, 14215.429, -321042.13, -39073.832, -0.00024452657, -0.00025234284, 18709.197, 18709.197, 0.0, 2.5003774, 2.499267 
4.413318e+2, 7.1213865e+1, 54991.117, -221226.1, -34062.332, 0.00014765482, 0.00018793598, 59129.582, 59129.582, 0.0, 2.5003612, 2.4994462 
4.4133148e+2, 7.371332e+1, 47203.06, -221991.94, -33283.516, 0.00021003143, 0.00009462901, 51257.203, 51257.203, 0.0, 2.5003445, 2.4994528 
4.4133118e+2, 7.621277e+1, 37531.66, -226653.63, -32662.713, 0.0002691936, -0.0000030012693, 41510.027, 41510.027, 0.0, 2.5003278, 2.4994528 
4.4133088e+2, 7.871222e+1, 27854.379, -231318.13, -32042.977, 0.00033188917, -0.00009680278, 31757.262, 31757.262, 0.0, 2.5003114, 2.4994528 
4.413306e+2, 8.1211764e+1, 67771.56, -133403.22, -23258.242, 0.00032825518, 0.00020734398, 70425.484, 70425.484, 0.0, 2.5002952, 2.4996288 
4.413303e+2, 8.37114e+1, 60710.836, -132562.95, -22304.0, -0.000086122585, 0.00005899978, 63251.348, 63251.348, 0.0, 2.5002785, 2.4996383 
4.4133008e+2, 8.621103e+1, 50983.36, -137242.66, -21741.734, -0.00048767522, -0.00009298203, 53462.074, 53462.074, 0.0, 2.5002618, 2.4996383 
4.413298e+2, 8.871067e+1, 41248.52, -141925.9, -21179.63, -0.00087379775, -0.0002422038, 43665.53, 43665.53, 0.0, 2.500245, 2.4996383 
4.4132963e+2, 9.1210395e+1, 79577.76, -47549.906, -7712.927, 0.0008215367, 0.0007898119, 80044.0, 80044.0, 0.0, 2.5002291, 2.499808 
4.4132945e+2, 9.3710214e+1, 73747.32, -44144.03, -6588.1636, 0.0005066469, 0.0003953194, 74114.34, 74114.34, 0.0, 2.5002124, 2.499822 
4.4132927e+2, 9.6210027e+1, 64011.324, -48813.258, -5913.059, 0.00015089157, -0.000029109255, 64320.375, 64320.375, 0.0, 2.5001957, 2.499822 
4.413291e+2, 9.870984e+1, 54260.2, -53489.77, -5236.756, -0.00021160125, -0.00046283798, 54514.113, 54514.113, 0.0, 2.5001788, 2.499822 
4.4383952e+2, 1.2490982e+0, -95912.195, -853866.06, -7552.959, -0.000028366498, -0.0000090694975, -95836.94, -95836.94, 0.0, 2.5007045, 2.4981954 
4.4383946e+2, 3.7472945e+0, -97722.11, -854928.3, -7463.029, 0.000022426117, -0.000028745711, -97648.56, -97648.56, 0.0, 2.5007017, 2.4981952 
4.4383937e+2, 6.245491e+0, -99420.35, -855755.94, -7267.7993, 0.000075172684, -0.00005047132, -99350.52, -99350.52, 0.0, 2.5006988, 2.4981952 
4.4383934e+2, 8.743688e+0, -101120.23, -856584.3, -7072.456, 0.00012987379, -0.00007424652, -101054.02, -101054.02, 0.0, 2.500696, 2.498195 
4.4383922e+2, 1.12419665e+1, -58182.4, -762790.5, -21435.547, 0.00006513192, 0.000034732588, -57530.89, -57530.89, 0.0, 2.500691, 2.4983582 
4.4383907e+2, 1.3740326e+1, -62260.12, -764557.94, -21454.857, 0.000030900035, 0.0000277053, -61605.297, -61605.297, 0.0, 2.5006838, 2.4983587 
4.4383892e+2, 1.6238685e+1, -66486.51, -766631.56, -21181.668, -0.0000015909679, 0.000014882923, -65846.28, -65846.28, 0.0, 2.5006764, 2.4983587 
4.4383878e+2, 1.8737045e+1, -70714.28, -768705.9, -20908.273, -0.000032556152, -0.0000034379414, -70088.53, -70088.53, 0.0, 2.5006692, 2.4983585 
4.438386e+2, 2.1235493e+1, -27456.773, -670357.4, -32870.004, -0.00013618631, 0.00010693537, -25780.578, -25780.578, 0.0, 2.5006602, 2.4985316 
4.438384e+2, 2.3734026e+1, -34011.504, -673190.4, -33030.766, -0.000042047188, 0.000025694033, -32309.11, -32309.11, 0.0, 2.5006485, 2.4985323 
4.4383815e+2, 2.6232558e+1, -40799.293, -676502.8, -32630.41, 0.000054320928, -0.000055505767, -39128.773, -39128.773, 0.0, 2.500637, 2.4985323 
4.4383788e+2, 2.873109e+1, -47589.027, -679816.2, -32229.992, 0.00015215129, -0.00013582665, -45950.24, -45950.24, 0.0, 2.5006254, 2.498532 
4.4383764e+2, 3.1229717e+1, -4346.2725, -578393.75, -41055.16, 0.00004027393, 0.000015518473, -1424.9255, -1424.9255, 0.0, 2.500613, 2.498712 
4.4383734e+2, 3.3728427e+1, -12084.941, -581581.4, -41306.28, 0.000002632045, -0.0000002514229, -9104.543, -9104.543, 0.0, 2.500599, 2.4987133 
4.4383705e+2, 3.6227143e+1, -20199.549, -585544.7, -40838.707, -0.000030558123, -0.000016669139, -17264.727, -17264.727, 0.0, 2.500585, 2.4987133 
4.4383672e+2, 3.8725856e+1, -28316.043, -589508.94, -40371.39, -0.000060410865, -0.00003219761, -25426.66, -25426.66, 0.0, 2.5005713, 2.498713 
4.438364e+2, 4.122466e+1, 14695.428, -486811.63, -45672.4, -0.00011234765, 0.00020691156, 18820.89, 18820.89, 0.0, 2.500557, 2.4988961 
4.4383606e+2, 4.372356e+1, 5943.5396, -490188.5, -45680.508, -0.000047270965, 0.00006604959, 10114.43, 10114.43, 0.0, 2.500541, 2.498898 
4.4383574e+2, 4.6222457e+1, -3372.587, -494727.94, -45056.918, 0.000010683525, -0.000075902106, 724.92896, 724.92896, 0.0, 2.500525, 2.498898 
4.4383538e+2, 4.8721355e+1, -12691.482, -499268.72, -44433.363, 0.000060714887, -0.00021591736, -8667.19, -8667.19, 0.0, 2.500509, 2.4988978 
4.4383502e+2, 5.1220345e+1, 29818.281, -396400.34, -46297.61, 0.000051429903, 0.000055812525, 34789.34, 34789.34, 0.0, 2.5004933, 2.4990819 
4.4383466e+2, 5.371943e+1, 21141.377, -399277.7, -46124.33, 0.000026256275, 0.000009447748, 26142.209, 26142.209, 0.0, 2.500477, 2.4990847 
4.4383428e+2, 5.6218517e+1, 11611.288, -403916.28, -45537.355, 0.0000051088687, -0.000043620887, 16543.156, 16543.156, 0.0, 2.5004609, 2.4990847 
4.4383392e+2, 5.87176e+1, 2077.4846, -408556.7, -44950.594, -0.000012233332, -0.000099143865, 6940.4683, 6940.4683, 0.0, 2.5004444, 2.4990847 
4.438336e+2, 6.121678e+1, 43850.75, -306816.3, -43377.984, 0.00012789507, 0.00020492953, 49136.977, 49136.977, 0.0, 2.5004284, 2.4992669 
4.4383323e+2, 6.371605e+1, 35218.207, -309041.94, -42866.77, 0.00003996101, 0.000054543983, 40475.625, 40475.625, 0.0, 2.5004115, 2.4992714 
4.4383284e+2, 6.621532e+1, 25349.207, -313822.1, -42245.254, -0.00005712027, -0.00009977577, 30531.844, 30531.844, 0.0, 2.5003946, 2.4992712 
4.4383252e+2, 6.871458e+1, 15475.37, -318604.56, -41623.94, -0.00016081557, -0.00025274677, 20583.314, 20583.314, 0.0, 2.5003777, 2.4992712 
4.4383216e+2, 7.121395e+1, 56333.082, -218659.69, -36527.73, 0.00021897549, 0.00016897797, 61102.402, 61102.402, 0.0, 2.5003614, 2.4994504 
4.4383186e+2, 7.3713404e+1, 48528.68, -219469.88, -35793.62, 0.00019065899, 0.00007246965, 53226.875, 53226.875, 0.0, 2.5003448, 2.4994571 
4.438315e+2, 7.621286e+1, 38861.96, -224131.58, -35168.098, 0.0001481529, -0.000031496973, 43483.504, 43483.504, 0.0, 2.500328, 2.4994571 
4.4383118e+2, 7.871232e+1, 29189.357, -228796.11, -34543.637, 0.00009817793, -0.0001351262, 33734.59, 33734.59, 0.0, 2.5003116, 2.4994571 
4.4383088e+2, 8.121186e+1, 69083.02, -131000.41, -25737.148, 0.0001572776, 0.00013712182, 72340.61, 72340.61, 0.0, 2.5002954, 2.4996328 
4.438306e+2, 8.3711505e+1, 62016.633, -130174.61, -24824.637, -0.00012584316, -0.000056696506, 65171.36, 65171.36, 0.0, 2.5002787, 2.4996421 
4.4383034e+2, 8.6211133e+1, 52290.88, -134852.42, -24258.441, -0.00040849095, -0.00025442656, 55384.246, 55384.246, 0.0, 2.500262, 2.4996421 
4.4383007e+2, 8.871078e+1, 42557.766, -139533.77, -23692.408, -0.0006871682, -0.00044968555, 45589.953, 45589.953, 0.0, 2.5002453, 2.4996421 
4.4382986e+2, 9.121051e+1, 81341.4, -44393.848, -10139.666, 0.00086835236, 0.00053097814, 82153.84, 82153.84, 0.0, 2.5002296, 2.499813 
4.4382966e+2, 9.3710333e+1, 75477.81, -41053.883, -9090.997, 0.00047203642, 0.00025142546, 76182.766, 76182.766, 0.0, 2.500213, 2.499827 
4.4382948e+2, 9.621015e+1, 65740.45, -45720.01, -8403.651, 0.000013650871, -0.000054882836, 66370.49, 66370.49, 0.0, 2.5001962, 2.499827 
4.438293e+2, 9.8709977e+1, 55987.97, -50393.426, -7715.1074, -0.00047522952, -0.00036858782, 56544.582, 56544.582, 0.0, 2.5001795, 2.4998271 
4.463402e+2, 1.2490989e+0, -95542.336, -853096.1, -7992.916, -0.00009386509, -0.0000006260184, -95458.016, -95458.016, 0.0, 2.5007045, 2.4981968 
4.4634014e+2, 3.747297e+0, -97355.195, -854161.6, -7903.22, -0.000027876868, -0.0000018337876, -97272.67, -97272.67, 0.0, 2.5007017, 2.4981964 
4.4634008e+2, 6.245495e+0, -99056.414, -854992.5, -7704.591, 0.000032782802, -0.0000029823154, -98977.89, -98977.89, 0.0, 2.5006988, 2.4981964 
4.4634002e+2, 8.7436926e+0, -100759.266, -855824.2, -7505.8477, 0.00008811454, -0.0000040718046, -100684.66, -100684.66, 0.0, 2.500696, 2.4981964 
4.4633994e+2, 1.1241973e+1, -57651.39, -761705.5, -22513.898, 0.000029811088, 0.000104307386, -56932.184, -56932.184, 0.0, 2.500691, 2.4983602 
4.463398e+2, 1.3740334e+1, -61740.207, -763488.2, -22552.771, 0.000022322307, 0.000063298015, -61016.152, -61016.152, 0.0, 2.5006838, 2.4983606 
4.4633964e+2, 1.6238695e+1, -65973.67, -765568.7, -22274.555, 0.000011685668, 0.000020659956, -65265.18, -65265.18, 0.0, 2.5006764, 2.4983604 
4.4633946e+2, 1.8737057e+1, -70208.516, -767649.9, -21996.135, -0.0000023286557, -0.000023296103, -69515.484, -69515.484, 0.0, 2.5006692, 2.4983604 
4.4633925e+2, 2.1235506e+1, -26699.441, -668805.44, -34588.68, -0.00013256891, 0.00009256044, -24841.61, -24841.61, 0.0, 2.5006602, 2.4985342 
4.46339e+2, 2.3734044e+1, -33253.39, -671633.0, -34792.16, -0.00008089446, 0.000057551526, -31362.791, -31362.791, 0.0, 2.5006485, 2.498535 
4.4633877e+2, 2.623258e+1, -40046.324, -674952.06, -34387.617, -0.000032626158, 0.000024543555, -38189.26, -38189.26, 0.0, 2.500637, 2.498535 
4.4633853e+2, 2.8731114e+1, -46841.203, -678272.06, -33983.016, 0.0000113962005, -0.0000056570993, -45017.535, -45017.535, 0.0, 2.5006254, 2.4985347 
4.4633827e+2, 3.122974e+1, -3431.2373, -576531.75, -43129.457, -0.00007629891, 0.00013924975, -203.64851, -203.64851, 0.0, 2.500613, 2.4987154 
4.463379e+2, 3.372846e+1, -11198.407, -579780.7, -43409.465, -0.000060233502, 0.00007802567, -7903.327, -7903.327, 0.0, 2.5005991, 2.4987164 
4.463376e+2, 3.6227173e+1, -19312.467, -583744.75, -42939.684, -0.000044434826, 0.00001613034, -16064.483, -16064.483, 0.0, 2.500585, 2.4987164 
4.463373e+2, 3.8725892e+1, -27428.414, -587709.7, -42470.16, -0.000029832243, -0.0000449967, -24227.4, -24227.4, 0.0, 2.5005713, 2.498716 
4.4633698e+2, 4.12247e+1, 15898.25, -484380.56, -48018.402, -0.00009695688, 0.0001900939, 20465.518, 20465.518, 0.0, 2.500557, 2.4989004 
4.463366e+2, 4.37236e+1, 7132.4443, -487786.25, -48096.37, -0.00004691875, 0.00007288586, 11763.14, 11763.14, 0.0, 2.500541, 2.498902 
4.4633624e+2, 4.6222505e+1, -2184.8032, -492327.7, -47469.223, -0.00000970883, -0.000043556804, 2370.153, 2370.153, 0.0, 2.500525, 2.498902 
4.4633588e+2, 4.8721406e+1, -11504.82, -496870.47, -46842.105, 0.000013561289, -0.00015613693, -7025.4795, -7025.4795, 0.0, 2.500509, 2.4989018 
4.4633552e+2, 5.12204e+1, 30987.055, -394077.16, -48711.918, 0.000015940097, 0.00009347667, 36497.94, 36497.94, 0.0, 2.5004935, 2.499086 
4.4633514e+2, 5.371949e+1, 22284.572, -397007.47, -48594.387, -0.000025847967, 0.000016840397, 27842.8, 27842.8, 0.0, 2.500477, 2.4990888 
4.4633475e+2, 5.6218576e+1, 12751.315, -401652.03, -48003.426, -0.00007213315, -0.0000646933, 18239.234, 18239.234, 0.0, 2.5004609, 2.4990885 
4.463344e+2, 5.871767e+1, 3214.3433, -406298.34, -47412.676, -0.00012276122, -0.0001471274, 8632.027, 8632.027, 0.0, 2.5004444, 2.4990885 
4.46334e+2, 6.121685e+1, 45104.484, -304386.78, -45871.89, 0.0000134024485, 0.00016148739, 51025.023, 51025.023, 0.0, 2.5004284, 2.4992712 
4.4633362e+2, 6.371612e+1, 36474.965, -306608.4, -45424.57, 0.0000045024685, 0.000023116421, 42387.336, 42387.336, 0.0, 2.5004115, 2.4992754 
4.4633326e+2, 6.6215396e+1, 26607.074, -311387.56, -44799.05, -0.000023014698, -0.00012066864, 32444.102, 32444.102, 0.0, 2.5003946, 2.4992752 
4.4633287e+2, 6.8714666e+1, 16734.346, -316169.03, -44173.742, -0.00006697891, -0.00026445178, 22496.14, 22496.14, 0.0, 2.5003777, 2.4992752 
4.463325e+2, 7.121403e+1, 57648.6, -216148.28, -38988.09, 0.00030082004, 0.0001564072, 63092.19, 63092.19, 0.0, 2.5003617, 2.4994547 
4.463322e+2, 7.3713493e+1, 49852.996, -216950.56, -38302.613, 0.00018215677, 0.000051391355, 55242.875, 55242.875, 0.0, 2.500345, 2.4994614 
4.4633186e+2, 7.6212955e+1, 40190.957, -221612.28, -37672.36, 0.00003831517, -0.00006451376, 45504.023, 45504.023, 0.0, 2.5003283, 2.4994614 
4.4633147e+2, 7.8712416e+1, 30523.03, -226276.86, -37043.176, -0.00012399766, -0.00018357275, 35759.69, 35759.69, 0.0, 2.5003119, 2.4994614 
4.4633117e+2, 8.121196e+1, 70373.19, -128641.9, -28207.225, -0.0000058619366, 0.000066965236, 74293.875, 74293.875, 0.0, 2.5002959, 2.4996367 
4.463309e+2, 8.37116e+1, 63321.633, -127787.99, -27345.26, -0.00015893434, -0.00017588258, 67157.39, 67157.39, 0.0, 2.5002792, 2.4996462 
4.463306e+2, 8.621125e+1, 53597.598, -132463.89, -26775.133, -0.00032382392, -0.00042312068, 57374.02, 57374.02, 0.0, 2.5002625, 2.4996462 
4.463303e+2, 8.871089e+1, 43866.207, -137143.34, -26205.168, -0.0004962027, -0.00066817657, 47583.645, 47583.645, 0.0, 2.5002458, 2.4996462 
4.4633007e+2, 9.121063e+1, 83070.97, -41308.63, -12539.84, 0.00094296376, 0.0002921275, 84322.625, 84322.625, 0.0, 2.5002303, 2.4998183 
4.4632986e+2, 9.3710446e+1, 77206.586, -37967.348, -11595.311, 0.0004626703, 0.000114995426, 78362.36, 78362.36, 0.0, 2.5002136, 2.499832 
4.4632968e+2, 9.6210283e+1, 67467.87, -42630.383, -10895.723, -0.00010127298, -0.00008628149, 68535.79, 68535.79, 0.0, 2.5001967, 2.4998322 
4.4632947e+2, 9.871011e+1, 57714.023, -47300.7, -10194.9375, -0.0007194685, -0.00029305136, 58694.6, 58694.6, 0.0, 2.50018, 2.4998322 
4.4884092e+2, 1.24909975e+0, -100437.67, -854866.6, -8444.198, -0.00014688823, 0.000005552686, -100343.17, -100343.17, 0.0, 2.5006955, 2.498198 
4.4884086e+2, 3.747299e+0, -102091.05, -855860.1, -8379.846, -0.00006617692, 0.000018142, -101997.9, -101997.9, 0.0, 2.5006928, 2.4981978 
4.488408e+2, 6.245498e+0, -103695.55, -856646.25, -8202.777, 0.0000029815515, 0.000032710515, -103606.195, -103606.195, 0.0, 2.5006902, 2.4981978 
4.4884074e+2, 8.743698e+0, -105366.32, -857464.4, -8025.333, 0.00006058583, 0.00004925848, -105280.695, -105280.695, 0.0, 2.5006874, 2.4981976 
4.4884065e+2, 1.124198e+1, -62024.508, -763050.2, -23698.68, -0.000001557022, 0.00018726237, -61224.27, -61224.27, 0.0, 2.5006826, 2.4983618 
4.4884044e+2, 1.3740343e+1, -65898.81, -764678.6, -23797.266, 0.000020890278, 0.0000987158, -65089.324, -65089.324, 0.0, 2.5006757, 2.4983623 
4.488403e+2, 1.6238707e+1, -69994.96, -766695.75, -23537.662, 0.000036020207, 0.000012381404, -69200.66, -69200.66, 0.0, 2.5006688, 2.4983623 
4.488401e+2, 1.8737069e+1, -74135.98, -768734.5, -23269.324, 0.000043550906, -0.00007131674, -73357.32, -73357.32, 0.0, 2.5006616, 2.498362 
4.4883993e+2, 2.123552e+1, -30206.709, -669379.25, -36518.23, -0.00012038869, 0.0000757885, -28127.059, -28127.059, 0.0, 2.500653, 2.4985368 
4.4883966e+2, 2.3734058e+1, -36391.188, -671960.4, -36839.074, -0.0001084779, 0.00007927382, -34263.035, -34263.035, 0.0, 2.5006418, 2.4985375 
4.4883943e+2, 2.6232597e+1, -42901.99, -675147.7, -36496.95, -0.000104892286, 0.000086311935, -40802.145, -40802.145, 0.0, 2.5006309, 2.4985375 
4.4883913e+2, 2.8731138e+1, -49456.46, -678356.1, -36154.637, -0.00011059803, 0.00009785432, -47384.805, -47384.805, 0.0, 2.5006196, 2.4985373 
4.4883886e+2, 3.1229767e+1, -5642.8257, -576224.06, -45675.113, -0.00019503203, 0.000255522, -2009.6599, -2009.6599, 0.0, 2.5006077, 2.4987183 
4.4883853e+2, 3.3728486e+1, -13129.962, -579342.94, -46051.043, -0.00012457083, 0.00014516086, -9409.007, -9409.007, 0.0, 2.5005941, 2.4987195 
4.488382e+2, 3.6227202e+1, -20999.81, -583190.3, -45639.914, -0.00005861742, 0.000033921664, -17318.76, -17318.76, 0.0, 2.5005808, 2.4987192 
4.4883785e+2, 3.8725924e+1, -28909.633, -587057.0, -45231.01, 0.0000018987589, -0.00007667013, -25267.975, -25267.975, 0.0, 2.5005672, 2.4987192 
4.4883752e+2, 4.122474e+1, 14981.933, -483012.16, -51081.402, -0.0000604281, 0.0001696114, 20167.574, 20167.574, 0.0, 2.5005534, 2.4989045 
4.4883716e+2, 4.3723643e+1, 6565.0874, -486233.7, -51283.496, -0.000026653473, 0.00007100905, 11845.368, 11845.368, 0.0, 2.500538, 2.4989061 
4.4883677e+2, 4.622255e+1, -2472.5803, -490642.25, -50710.19, -0.000010581652, -0.000025422885, 2739.4558, 2739.4558, 0.0, 2.5005226, 2.4989061 
4.488364e+2, 4.8721454e+1, -11571.096, -495080.16, -50140.813, -0.000013452277, -0.00011634466, -6426.144, -6426.144, 0.0, 2.500507, 2.498906 
4.48836e+2, 5.122045e+1, 31127.535, -392294.6, -52073.004, -0.000017931143, 0.00013421399, 37437.508, 37437.508, 0.0, 2.5004919, 2.4990897 
4.4883564e+2, 5.3719544e+1, 22684.525, -395097.22, -52087.145, -0.00007395279, 0.000023128005, 29080.596, 29080.596, 0.0, 2.5004761, 2.4990926 
4.4883522e+2, 5.621864e+1, 13306.259, -399670.94, -51551.79, -0.00014193557, -0.00009148443, 19644.182, 19644.182, 0.0, 2.50046, 2.4990923 
4.4883484e+2, 5.8717734e+1, 3824.0964, -404294.72, -51009.293, -0.00022159162, -0.00020558352, 10102.963, 10102.963, 0.0, 2.5004437, 2.4990923 
4.4883445e+2, 6.1216915e+1, 45953.69, -302184.03, -49531.55, -0.00009001206, 0.00012153764, 52863.68, 52863.68, 0.0, 2.500428, 2.499275 
4.4883403e+2, 6.3716197e+1, 37580.914, -304245.72, -49205.91, -0.000020180183, -0.000007194302, 44523.11, 44523.11, 0.0, 2.5004115, 2.4992795 
4.4883364e+2, 6.621547e+1, 27829.395, -308968.28, -48623.086, 0.000023054628, -0.00014281737, 34708.543, 34708.543, 0.0, 2.5003948, 2.4992795 
4.4883326e+2, 6.871475e+1, 17955.6, -313749.75, -48041.61, 0.00004147122, -0.00027957524, 24773.438, 24773.438, 0.0, 2.500378, 2.4992793 
4.488329e+2, 7.121412e+1, 58915.145, -213695.47, -42782.836, 0.0003977132, 0.00015953364, 65471.684, 65471.684, 0.0, 2.5003617, 2.4994588 
4.488325e+2, 7.371358e+1, 51199.52, -214415.31, -42146.953, 0.00018783893, 0.000041664993, 57726.863, 57726.863, 0.0, 2.5003452, 2.4994655 
4.4883215e+2, 7.621305e+1, 41474.957, -219109.23, -41511.594, -0.00005676484, -0.00009029179, 47928.035, 47928.035, 0.0, 2.5003285, 2.4994655 
4.4883183e+2, 7.871251e+1, 31631.135, -223860.61, -40879.84, -0.0003294092, -0.00022837459, 38012.7, 38012.7, 0.0, 2.5003116, 2.4994655 
4.4883147e+2, 8.121206e+1, 71342.78, -126457.61, -31961.412, -0.00015595056, 0.000012239451, 76379.016, 76379.016, 0.0, 2.5002956, 2.4996405 
4.4883117e+2, 8.371171e+1, 64341.684, -125525.6, -31067.008, -0.00018175955, -0.0002823128, 69295.76, 69295.76, 0.0, 2.500279, 2.49965 
4.4883087e+2, 8.621136e+1, 54466.83, -130272.945, -30401.639, -0.00022984832, -0.0005818449, 59341.25, 59341.25, 0.0, 2.500262, 2.49965 
4.4883057e+2, 8.8711e+1, 44416.754, -135104.67, -29736.844, -0.00029514087, -0.00087939436, 49214.31, 49214.31, 0.0, 2.5002449, 2.4996502 
4.4883034e+2, 9.121074e+1, 83779.72, -38750.152, -15826.757, 0.0010517718, 0.000092768234, 85790.99, 85790.99, 0.0, 2.5002291, 2.499823 
4.4883007e+2, 9.371057e+1, 77785.58, -35418.547, -14900.201, 0.00048486196, 0.000006785008, 79713.93, 79713.93, 0.0, 2.500212, 2.4998372 
4.4882986e+2, 9.621041e+1, 67631.914, -40278.094, -14075.084, -0.00018490633, -0.000101618345, 69437.56, 69437.56, 0.0, 2.5001945, 2.4998372 
4.4882965e+2, 9.8710245e+1, 57210.54, -45266.547, -13249.566, -0.0009299636, -0.00021393354, 58895.895, 58895.895, 0.0, 2.5001767, 2.4998372 
4.513416e+2, 1.249101e+0, -81556.59, -844583.06, -8624.222, 0.00008925951, 0.000006117323, -81459.125, -81459.125, 0.0, 2.5007267, 2.498201 
4.5134154e+2, 3.747303e+0, -83430.68, -845684.06, -8102.0884, 0.00010396468, 0.000015902562, -83344.57, -83344.57, 0.0, 2.5007236, 2.4982004 
4.5134148e+2, 6.2455046e+0, -85191.93, -846547.8, -7465.116, 0.00013163961, 0.000022422164, -85118.734, -85118.734, 0.0, 2.5007207, 2.4982004 
4.5134142e+2, 8.743707e+0, -86954.93, -847412.44, -6827.996, 0.00017228504, 0.000025675952, -86893.63, -86893.63, 0.0, 2.5007176, 2.4982002 
4.513413e+2, 1.1241991e+1, -44221.066, -753051.5, -22743.262, 0.00010985196, 0.00013801642, -43492.086, -43492.086, 0.0, 2.5007117, 2.498365 
4.5134115e+2, 1.3740358e+1, -49479.824, -755336.56, -22409.506, 0.00015364555, 0.000017999842, -48769.082, -48769.082, 0.0, 2.5007024, 2.4983656 
4.5134097e+2, 1.6238724e+1, -54912.824, -757981.2, -21699.4, 0.00020518617, -0.00010699534, -54243.734, -54243.734, 0.0, 2.500693, 2.4983654 
4.513408e+2, 1.873709e+1, -60347.098, -760626.4, -20989.426, 0.00026417893, -0.0002365586, -59718.547, -59718.547, 0.0, 2.5006838, 2.4983654 
4.513406e+2, 2.1235543e+1, -17603.799, -661572.2, -34277.08, 0.0001050181, -0.00011247024, -15784.442, -15784.442, 0.0, 2.5006728, 2.4985406 
4.513403e+2, 2.3734087e+1, -25090.09, -664818.0, -34150.832, 0.000060013735, -0.00008026965, -23272.168, -23272.168, 0.0, 2.5006595, 2.4985414 
4.5134005e+2, 2.623263e+1, -32840.008, -668607.3, -33325.47, 0.000021053449, -0.00004905913, -31097.938, -31097.938, 0.0, 2.500646, 2.4985414 
4.5133978e+2, 2.8731173e+1, -40591.594, -672397.5, -32500.28, -0.000012779377, -0.000017965254, -38924.168, -38924.168, 0.0, 2.500633, 2.498541 
4.5133948e+2, 3.1229806e+1, 1999.1421, -570514.9, -41848.5, -0.000105522275, 0.00013977176, 5041.9297, 5041.9297, 0.0, 2.5006185, 2.4987228 
4.5133913e+2, 3.372853e+1, -7205.5054, -574490.9, -41732.23, -0.000013129122, 0.000014242246, -4151.9194, -4151.9194, 0.0, 2.5006022, 2.498724 
4.5133877e+2, 3.6227253e+1, -16738.736, -579143.94, -40782.76, 0.00008025898, -0.0001116218, -13796.769, -13796.769, 0.0, 2.500586, 2.4987237 
4.5133844e+2, 3.8725975e+1, -26273.639, -583797.8, -39833.363, 0.00017363991, -0.00023631175, -23442.05, -23442.05, 0.0, 2.5005696, 2.4987237 
4.5133808e+2, 4.1224793e+1, 16225.354, -480201.66, -45393.23, 0.00011087413, 0.000006893395, 20341.969, 20341.969, 0.0, 2.5005531, 2.4989092 
4.5133767e+2, 4.3723705e+1, 6599.6035, -484061.53, -45342.027, 0.000097979515, -0.000042843385, 10754.48, 10754.48, 0.0, 2.5005357, 2.4989111 
4.5133728e+2, 4.6222615e+1, -3562.2644, -489027.1, -44462.348, 0.00009254734, -0.00009730515, 476.31888, 476.31888, 0.0, 2.5005183, 2.498911 
4.5133692e+2, 4.8721528e+1, -13726.879, -493993.97, -43582.277, 0.00009349374, -0.00015338299, -9804.008, -9804.008, 0.0, 2.500501, 2.4989107 
4.5133647e+2, 5.122053e+1, 27758.451, -391666.78, -45162.18, 0.00009622297, 0.00011245473, 32566.24, 32566.24, 0.0, 2.5004838, 2.4990947 
4.513361e+2, 5.371963e+1, 17897.752, -395202.56, -44841.668, 0.000032771084, 0.000015570477, 22709.232, 22709.232, 0.0, 2.5004654, 2.4990973 
4.5133567e+2, 5.6218725e+1, 7241.98, -400378.72, -43924.477, -0.000024539833, -0.00008891126, 11921.482, 11921.482, 0.0, 2.5004473, 2.4990973 
4.5133525e+2, 5.871782e+1, -3417.8127, -405556.78, -43007.074, -0.000075348995, -0.0001970709, 1130.1777, 1130.1777, 0.0, 2.500429, 2.499097 
4.5133486e+2, 6.121701e+1, 37552.27, -304023.44, -41123.297, 0.00004325997, 0.00013832394, 42433.47, 42433.47, 0.0, 2.5004113, 2.49928 
4.5133445e+2, 6.371629e+1, 28258.281, -306564.1, -40635.125, 0.00006193108, 0.0000548972, 33119.316, 33119.316, 0.0, 2.5003932, 2.4992843 
4.5133406e+2, 6.6215575e+1, 17727.977, -311659.7, -39827.145, 0.000090584814, -0.000030888892, 22475.166, 22475.166, 0.0, 2.500375, 2.4992843 
4.513336e+2, 6.871486e+1, 7193.0396, -316757.53, -39019.805, 0.00013106782, -0.0001134667, 11826.692, 11826.692, 0.0, 2.5003572, 2.4992843 
4.5133325e+2, 7.1214235e+1, 47227.89, -217165.86, -33523.457, 0.00048265466, 0.00035356262, 51412.23, 51412.23, 0.0, 2.5003393, 2.4994638 
4.5133287e+2, 7.37137e+1, 38456.08, -218412.22, -32890.906, 0.0002590352, 0.00025593373, 42600.746, 42600.746, 0.0, 2.5003211, 2.4994702 
4.5133248e+2, 7.6213175e+1, 27802.287, -223551.48, -32202.188, 0.00003562521, 0.00015954598, 31862.291, 31862.291, 0.0, 2.5003028, 2.4994702 
4.513321e+2, 7.8712636e+1, 17142.357, -228693.7, -31513.613, -0.00018100809, 0.00007227105, 21117.785, 21117.785, 0.0, 2.5002844, 2.4994702 
4.5133176e+2, 8.12122e+1, 55795.957, -131640.27, -22469.232, 0.000007923694, 0.0003569139, 58451.863, 58451.863, 0.0, 2.5002666, 2.4996457 
4.513314e+2, 8.3711845e+1, 47714.395, -131230.6, -21620.006, -0.00007586413, 0.00007582746, 50289.45, 50289.45, 0.0, 2.500248, 2.4996552 
4.513311e+2, 8.6211497e+1, 36933.625, -136407.1, -20953.955, -0.00013585621, -0.0002067022, 39430.633, 39430.633, 0.0, 2.5002294, 2.4996552 
4.5133078e+2, 8.871115e+1, 26143.428, -141588.16, -20288.963, -0.00016669255, -0.00048362155, 28562.705, 28562.705, 0.0, 2.5002108, 2.4996552 
4.5133054e+2, 9.121089e+1, 64147.68, -45454.973, -6375.3965, 0.0011318987, 0.000489809, 64517.28, 64517.28, 0.0, 2.5001924, 2.4998293 
4.513303e+2, 9.371073e+1, 56244.137, -43072.2, -5752.37, 0.00058248726, 0.00045493915, 56576.2, 56576.2, 0.0, 2.5001721, 2.4998431 
4.5133004e+2, 9.621057e+1, 44449.65, -48733.688, -5114.8184, 0.0000007512498, 0.0003897201, 44729.56, 44729.56, 0.0, 2.5001519, 2.4998431 
4.513298e+2, 9.871041e+1, 32640.45, -54402.254, -4476.373, -0.00058694434, 0.00031198328, 32870.05, 32870.05, 0.0, 2.5001316, 2.4998431 
4.5384234e+2, 1.2491031e+0, -80358.734, -842092.6, -9082.885, 0.00003999183, 0.0000007231344, -80250.445, -80250.445, 0.0, 2.5007267, 2.498205 
4.5384228e+2, 3.747309e+0, -82231.99, -843189.06, -8558.965, 0.000011088369, 0.00000086206273, -82135.734, -82135.734, 0.0, 2.5007236, 2.4982047 
4.5384222e+2, 6.2455153e+0, -83995.336, -844054.3, -7918.85, -0.000012505505, -0.00000074192883, -83912.84, -83912.84, 0.0, 2.5007207, 2.4982047 
4.5384216e+2, 8.743721e+0, -85760.44, -844920.4, -7278.587, -0.000030789015, -0.000004089014, -85690.66, -85690.66, 0.0, 2.5007176, 2.4982045 
4.5384204e+2, 1.12420104e+1, -42837.55, -750185.0, -24137.553, -0.000099743156, 0.0000852338, -42014.836, -42014.836, 0.0, 2.5007117, 2.49837 
4.5384187e+2, 1.3740382e+1, -48135.668, -752551.75, -23818.691, -0.000026218893, 0.000019051422, -47331.195, -47331.195, 0.0, 2.5007024, 2.4983704 
4.538417e+2, 1.6238752e+1, -53571.008, -755200.94, -23102.914, 0.00005041048, -0.000050293507, -52811.11, -52811.11, 0.0, 2.500693, 2.4983702 
4.5384148e+2, 1.8737124e+1, -59007.617, -757850.75, -22387.268, 0.00012987263, -0.00012251163, -58291.184, -58291.184, 0.0, 2.5006838, 2.4983702 
4.5384124e+2, 2.1235582e+1, -15979.98, -658226.56, -36269.78, 0.00002102078, -0.00002145822, -13938.197, -13938.197, 0.0, 2.5006728, 2.4985464 
4.5384097e+2, 2.3734131e+1, -23527.879, -661598.94, -36161.43, -0.0000008327366, -0.000023235441, -21485.041, -21485.041, 0.0, 2.5006595, 2.4985468 
4.538407e+2, 2.623268e+1, -31280.137, -665391.6, -35332.82, -0.000021694523, -0.000024893912, -29317.459, -29317.459, 0.0, 2.5006464, 2.4985468 
4.538404e+2, 2.8731227e+1, -39034.06, -669185.1, -34504.387, -0.00004233166, -0.000025733494, -37150.375, -37150.375, 0.0, 2.500633, 2.4985466 
4.5384008e+2, 3.1229866e+1, 3818.5957, -566766.2, -44275.707, -0.00013859449, 0.00010888353, 7233.819, 7233.819, 0.0, 2.5006187, 2.4987292 
4.5383972e+2, 3.3728597e+1, -5419.061, -570811.56, -44201.348, -0.00006502845, 0.000013137737, -1984.3467, -1984.3467, 0.0, 2.5006022, 2.4987302 
4.5383936e+2, 3.6227325e+1, -14952.917, -575466.7, -43249.42, 0.0000055818277, -0.00008170134, -11635.412, -11635.412, 0.0, 2.500586, 2.4987302 
4.5383903e+2, 3.8726056e+1, -24488.443, -580122.56, -42297.57, 0.00007222393, -0.00017428608, -21286.992, -21286.992, 0.0, 2.5005696, 2.49873 
4.5383862e+2, 4.122488e+1, 17961.754, -476664.5, -47994.73, 0.000018560844, 0.000037599748, 22575.754, 22575.754, 0.0, 2.5005531, 2.4989154 
4.5383823e+2, 4.3723798e+1, 8276.831, -480640.88, -47971.246, 0.000020254698, 0.0000025602326, 12939.176, 12939.176, 0.0, 2.500536, 2.4989169 
4.538378e+2, 4.6222714e+1, -1891.0721, -485612.2, -47086.496, 0.000023125467, -0.000032251886, 2649.8057, 2649.8057, 0.0, 2.5005186, 2.4989166 
4.538374e+2, 4.872163e+1, -12061.723, -490584.84, -46201.36, 0.00002625626, -0.00006424093, -7641.8105, -7641.8105, 0.0, 2.5005012, 2.4989166 
4.5383698e+2, 5.1220644e+1, 29608.174, -387955.03, -47882.117, 0.00005087025, 0.00019938088, 35028.473, 35028.473, 0.0, 2.5004838, 2.499101 
4.5383656e+2, 5.371975e+1, 19688.193, -391607.28, -47608.07, 0.000026628399, 0.00008836734, 25126.979, 25126.979, 0.0, 2.5004656, 2.4991035 
4.538361e+2, 5.6218845e+1, 9024.66, -396791.9, -46685.97, -0.0000013981219, -0.000025426096, 14326.25, 14326.25, 0.0, 2.5004473, 2.4991033 
4.538357e+2, 5.871795e+1, -1642.8945, -401978.44, -45763.656, -0.000032857897, -0.00013817153, 3521.8667, 3521.8667, 0.0, 2.500429, 2.4991033 
4.5383528e+2, 6.121714e+1, 39213.598, -300708.6, -43817.24, 0.000093777664, 0.00014596994, 44770.945, 44770.945, 0.0, 2.5004113, 2.4992857 
4.5383483e+2, 6.371643e+1, 29864.117, -303370.4, -43368.156, 0.000039871193, 0.000049655777, 35415.69, 35415.69, 0.0, 2.5003934, 2.4992898 
4.538344e+2, 6.6215724e+1, 19337.691, -308463.4, -42555.043, -0.000016799502, -0.000050108778, 24772.082, 24772.082, 0.0, 2.5003753, 2.4992898 
4.53834e+2, 6.871501e+1, 8806.635, -313558.63, -41742.57, -0.00007398636, -0.00014833451, 14124.103, 14124.103, 0.0, 2.5003572, 2.4992895 
4.5383358e+2, 7.1214384e+1, 48710.09, -214288.13, -36242.52, 0.00028488, 0.00028746197, 53613.094, 53613.094, 0.0, 2.5003395, 2.4994686 
4.538332e+2, 7.3713857e+1, 39895.344, -215632.81, -35654.453, 0.00019671346, 0.00019819943, 44777.03, 44777.03, 0.0, 2.5003214, 2.499475 
4.538328e+2, 7.6213336e+1, 29247.1, -220768.98, -34959.61, 0.00009318059, 0.00010841167, 34043.47, 34043.47, 0.0, 2.500303, 2.499475 
4.538324e+2, 7.871281e+1, 18592.72, -225908.11, -34264.91, -0.000019328621, 0.0000255871, 23303.906, 23303.906, 0.0, 2.5002847, 2.499475 
4.5383203e+2, 8.1212366e+1, 57345.758, -128730.25, -25241.139, 0.00015549021, 0.00032302432, 60708.92, 60708.92, 0.0, 2.5002668, 2.4996505 
4.5383167e+2, 8.3712023e+1, 49230.023, -128398.516, -24419.564, -0.0000578582, 0.00007965726, 52525.957, 52525.957, 0.0, 2.5002482, 2.49966 
4.5383132e+2, 8.6211675e+1, 38454.23, -133570.45, -23746.465, -0.00026821176, -0.00016673832, 41672.023, 41672.023, 0.0, 2.5002298, 2.49966 
4.53831e+2, 8.8711333e+1, 27669.004, -138746.92, -23074.424, -0.0004703437, -0.00040924814, 30809.14, 30809.14, 0.0, 2.5002112, 2.49966 
4.5383072e+2, 9.121108e+1, 65847.984, -42410.285, -9339.6045, 0.0008001002, 0.00048052633, 66647.81, 66647.81, 0.0, 2.5001929, 2.4998343 
4.5383045e+2, 9.371093e+1, 57883.523, -40144.543, -8796.366, 0.00041609397, 0.00038682143, 58666.594, 58666.594, 0.0, 2.5001726, 2.499848 
4.538302e+2, 9.621077e+1, 46079.7, -45813.477, -8145.531, -0.000030838844, 0.0002671285, 46796.145, 46796.145, 0.0, 2.5001523, 2.499848 
4.538299e+2, 9.8710614e+1, 34261.164, -51489.496, -7493.802, -0.0005149083, 0.00013812367, 34911.13, 34911.13, 0.0, 2.500132, 2.499848 
4.5634308e+2, 1.2491051e+0, -79160.97, -839602.4, -9541.792, -0.00000902532, -0.0000064979627, -79041.26, -79041.26, 0.0, 2.5007267, 2.4982092 
4.56343e+2, 3.7473154e+0, -81034.97, -840697.5, -9015.81, -0.000081036385, -0.00001965915, -80927.98, -80927.98, 0.0, 2.5007236, 2.498209 
4.5634294e+2, 6.2455255e+0, -82800.41, -841564.25, -8372.552, -0.00015539808, -0.000033040506, -82708.03, -82708.03, 0.0, 2.5007207, 2.4982088 
4.5634288e+2, 8.7437356e+0, -84567.6, -842431.8, -7729.146, -0.00023210961, -0.000046642206, -84488.79, -84488.79, 0.0, 2.5007176, 2.4982088 
4.5634276e+2, 1.1242029e+1, -41487.695, -747388.5, -25527.451, -0.00031071753, 0.000044307668, -40565.75, -40565.75, 0.0, 2.5007117, 2.4983747 
4.5634255e+2, 1.3740405e+1, -46794.297, -749772.7, -25227.357, -0.00020480402, 0.000017599952, -45890.14, -45890.14, 0.0, 2.5007024, 2.4983752 
4.5634234e+2, 1.623878e+1, -52231.977, -752426.56, -24505.908, -0.00010041628, -0.000010535753, -51375.348, -51375.348, 0.0, 2.500693, 2.498375 
4.5634216e+2, 1.8737158e+1, -57670.926, -755081.0, -23784.59, 0.0000021847836, -0.00003984954, -56860.71, -56860.71, 0.0, 2.5006838, 2.498375 
4.5634192e+2, 2.1235622e+1, -14414.079, -655001.3, -38255.766, -0.00007033658, 0.00007882602, -12137.541, -12137.541, 0.0, 2.5006728, 2.4985518 
4.5634165e+2, 2.3734176e+1, -21967.297, -658383.4, -38171.4, -0.000066854205, 0.00003674854, -19686.004, -19686.004, 0.0, 2.5006595, 2.4985523 
4.5634133e+2, 2.6232728e+1, -29721.895, -662179.4, -37339.543, -0.00006734768, -0.0000043589857, -27525.043, -27525.043, 0.0, 2.5006464, 2.4985523 
4.5634103e+2, 2.873128e+1, -37478.156, -665976.25, -36507.867, -0.00007251941, -0.00004371194, -35364.613, -35364.613, 0.0, 2.500633, 2.498552 
4.563407e+2, 3.1229928e+1, 5620.5615, -563053.9, -46701.36, -0.00016817133, 0.00007404848, 9430.304, 9430.304, 0.0, 2.5006187, 2.4987357 
4.5634034e+2, 3.3728665e+1, -3633.895, -567135.0, -46669.965, -0.00011251687, 0.0000032467624, 205.22256, 205.22256, 0.0, 2.5006022, 2.4987364 
4.5633996e+2, 3.6227402e+1, -13168.374, -571792.06, -45715.586, -0.000063791675, -0.00006549219, -9451.914, -9451.914, 0.0, 2.500586, 2.4987364 
4.5633957e+2, 3.8726136e+1, -22704.525, -576449.94, -44761.277, -0.000022995726, -0.00013089643, -19109.645, -19109.645, 0.0, 2.5005698, 2.4987361 
4.5633918e+2, 4.1224968e+1, 19669.89, -473186.1, -50588.223, -0.00007355553, 0.00007486473, 24808.834, 24808.834, 0.0, 2.5005534, 2.4989214 
4.5633873e+2, 4.3723893e+1, 9952.315, -477223.9, -50600.06, -0.000055353765, 0.00004409966, 15152.335, 15152.335, 0.0, 2.500536, 2.4989228 
4.5633832e+2, 4.6222812e+1, -221.62224, -482201.0, -49710.24, -0.000042176376, 0.000018232813, 4851.9697, 4851.9697, 0.0, 2.5005186, 2.4989226 
4.563379e+2, 4.8721737e+1, -10398.308, -487179.38, -48820.035, -0.000034857618, -0.00000037146012, -5450.718, -5450.718, 0.0, 2.5005012, 2.4989223 
4.5633745e+2, 5.122075e+1, 31400.389, -384362.8, -50582.37, -0.000000276032, 0.0002937189, 37465.83, 37465.83, 0.0, 2.500484, 2.4991071 
4.56337e+2, 5.371986e+1, 21477.348, -388014.72, -50373.746, 0.000019105315, 0.00016173822, 27583.045, 27583.045, 0.0, 2.5004656, 2.4991095 
4.563366e+2, 5.621897e+1, 10806.053, -393207.8, -49446.734, 0.000024940764, 0.000031346, 16769.744, 16769.744, 0.0, 2.5004475, 2.4991095 
4.563361e+2, 5.871808e+1, 130.73657, -398402.8, -48519.51, 0.000017407725, -0.00009327206, 5952.6997, 5952.6997, 0.0, 2.5004292, 2.4991093 
4.5633566e+2, 6.121728e+1, 40849.785, -297446.06, -46504.668, 0.00015369192, 0.00015592748, 47126.215, 47126.215, 0.0, 2.5004115, 2.4992912 
4.5633525e+2, 6.371657e+1, 31468.521, -300179.78, -46100.53, 0.000026040816, 0.000041842613, 37757.438, 37757.438, 0.0, 2.5003934, 2.4992952 
4.5633477e+2, 6.6215867e+1, 20945.977, -305270.16, -45282.29, -0.00011711929, -0.00007705692, 27114.98, 27114.98, 0.0, 2.5003755, 2.499295 
4.5633435e+2, 6.8715155e+1, 10418.8, -310362.78, -44464.688, -0.00027314108, -0.00019608693, 16468.13, 16468.13, 0.0, 2.5003574, 2.499295 
4.5633394e+2, 7.121454e+1, 50168.137, -211460.63, -38958.637, 0.00010642153, 0.00022439154, 55846.164, 55846.164, 0.0, 2.5003397, 2.4994733 
4.563335e+2, 7.371402e+1, 41333.438, -212855.89, -38417.82, 0.00015127883, 0.00013875154, 47012.953, 47012.953, 0.0, 2.5003216, 2.4994798 
4.563331e+2, 7.62135e+1, 30690.744, -217988.97, -37716.85, 0.00016501207, 0.00005055537, 36285.336, 36285.336, 0.0, 2.5003033, 2.4994795 
4.5633268e+2, 7.8712976e+1, 20041.916, -223125.02, -37016.027, 0.00015401587, -0.000032827098, 25551.822, 25551.822, 0.0, 2.500285, 2.4994795 
4.5633227e+2, 8.121254e+1, 58873.652, -125865.8, -28004.344, 0.00031603937, 0.0002892233, 63025.477, 63025.477, 0.0, 2.500267, 2.4996552 
4.5633194e+2, 8.37122e+1, 50744.727, -125568.43, -27218.635, -0.00002922309, 0.00008072923, 54851.016, 54851.016, 0.0, 2.5002487, 2.4996645 
4.5633158e+2, 8.621186e+1, 39973.906, -130735.78, -26538.486, -0.0003923546, -0.00013260743, 44004.414, 44004.414, 0.0, 2.50023, 2.4996648 
4.563312e+2, 8.8711524e+1, 29193.656, -135907.67, -25859.396, -0.00076819863, -0.00034378277, 33149.18, 33149.18, 0.0, 2.5002115, 2.4996648 
4.563309e+2, 9.1211283e+1, 67522.67, -39418.895, -12281.736, 0.0005077761, 0.00048415607, 68915.05, 68915.05, 0.0, 2.5001934, 2.499839 
4.5633063e+2, 9.3711126e+1, 59521.492, -37219.902, -11840.93, 0.0002953298, 0.00032151848, 60949.71, 60949.71, 0.0, 2.500173, 2.4998527 
4.5633036e+2, 9.6210974e+1, 47708.336, -42896.29, -11176.811, -0.000011230767, 0.00013682045, 49066.72, 49066.72, 0.0, 2.5001528, 2.4998527 
4.563301e+2, 9.8710823e+1, 35880.465, -48579.754, -10511.797, -0.0003861054, -0.000053983124, 37169.086, 37169.086, 0.0, 2.5001326, 2.4998527 
4.5884377e+2, 1.2491071e+0, -83725.02, -839895.5, -10025.173, -0.00004300037, -0.000016123664, -83592.13, -83592.13, 0.0, 2.5007167, 2.4982135 
4.588437e+2, 3.7473214e+0, -85467.05, -840927.6, -9548.484, -0.00015882457, -0.000047440306, -85346.38, -85346.38, 0.0, 2.500714, 2.498213 
4.5884365e+2, 6.2455356e+0, -87154.44, -841757.06, -8952.647, -0.0002837825, -0.00007751579, -87048.234, -87048.234, 0.0, 2.5007112, 2.498213 
4.5884356e+2, 8.74375e+0, -88897.65, -842613.44, -8356.049, -0.00041787518, -0.00010635021, -88805.016, -88805.016, 0.0, 2.500708, 2.498213 
4.5884344e+2, 1.12420484e+1, -45562.37, -747265.4, -27137.344, -0.0005094037, 0.000010280986, -44514.438, -44514.438, 0.0, 2.5007024, 2.4983792 
4.5884326e+2, 1.374043e+1, -50597.348, -749483.2, -26917.281, -0.00036954365, 0.000009110933, -49562.17, -49562.17, 0.0, 2.5006936, 2.4983797 
4.5884305e+2, 1.6238812e+1, -55824.664, -752039.44, -26253.152, -0.0002353202, 0.000008301419, -54836.1, -54836.1, 0.0, 2.5006847, 2.4983797 
4.5884287e+2, 1.8737192e+1, -61089.85, -754613.94, -25594.742, -0.00010699741, 0.000008142858, -60146.55, -60146.55, 0.0, 2.5006757, 2.4983797 
4.5884258e+2, 2.1235663e+1, -17411.518, -654071.44, -40710.293, -0.0001575887, 0.00018495493, -14818.914, -14818.914, 0.0, 2.5006652, 2.498557 
4.5884228e+2, 2.3734221e+1, -24599.49, -657194.7, -40713.055, -0.00012730992, 0.00009546445, -21990.012, -21990.012, 0.0, 2.5006523, 2.4985578 
4.5884198e+2, 2.623278e+1, -32084.531, -660862.75, -39934.727, -0.000105288986, 0.000007630904, -29558.361, -29558.361, 0.0, 2.5006397, 2.4985578 
4.5884168e+2, 2.8731337e+1, -39613.73, -664552.1, -39156.273, -0.00009225402, -0.000077423436, -37169.906, -37169.906, 0.0, 2.5006268, 2.4985576 
4.5884135e+2, 3.1229988e+1, 4005.6177, -561018.44, -49823.457, -0.00018366316, 0.000029480078, 8365.378, 8365.378, 0.0, 2.5006127, 2.4987419 
4.5884094e+2, 3.3728734e+1, -4887.418, -564927.2, -49889.934, -0.00014652743, -0.000021002461, -477.80093, -477.80093, 0.0, 2.5005972, 2.4987428 
4.5884055e+2, 3.6227474e+1, -14097.444, -569429.6, -48988.953, -0.00011974681, -0.00006818122, -9808.973, -9808.973, 0.0, 2.5005815, 2.4987426 
4.5884016e+2, 3.8726217e+1, -23346.13, -573950.7, -48090.01, -0.00010429333, -0.000110778295, -19177.492, -19177.492, 0.0, 2.5005655, 2.4987426 
4.588397e+2, 4.1225055e+1, 19244.266, -470782.22, -54096.688, -0.00015837343, 0.000114574854, 25145.232, 25145.232, 0.0, 2.5005498, 2.498927 
4.588393e+2, 4.3723983e+1, 9861.044, -474661.4, -54201.41, -0.00012262855, 0.00007777229, 15850.285, 15850.285, 0.0, 2.5005329, 2.4989285 
4.5883885e+2, 4.6222913e+1, -38.048946, -479507.88, -53344.23, -0.00009739834, 0.00004976862, 5825.156, 5825.156, 0.0, 2.500516, 2.4989283 
4.588384e+2, 4.872184e+1, -9999.59, -484384.44, -52474.395, -0.000083527484, 0.000032983946, -4264.436, -4264.436, 0.0, 2.500499, 2.4989283 
4.5883796e+2, 5.1220864e+1, 32135.953, -381367.63, -54328.43, -0.000051691983, 0.00039085478, 39154.79, 39154.79, 0.0, 2.5004823, 2.499113 
4.5883748e+2, 5.371998e+1, 22573.066, -384754.56, -54250.875, 0.000013929107, 0.00023356725, 29674.777, 29674.777, 0.0, 2.5004647, 2.4991157 
4.58837e+2, 5.621909e+1, 12118.042, -389848.0, -53361.12, 0.00005749138, 0.00008131933, 19081.129, 19081.129, 0.0, 2.5004468, 2.4991157 
4.5883656e+2, 5.8718204e+1, 1575.8135, -394983.44, -52466.53, 0.00007881843, -0.000060893683, 8399.935, 8399.935, 0.0, 2.5004287, 2.4991155 
4.5883608e+2, 6.121741e+1, 42283.51, -294313.72, -50390.164, 0.00022628171, 0.0001708294, 49665.266, 49665.266, 0.0, 2.5004113, 2.4992967 
4.5883563e+2, 6.371671e+1, 33023.066, -297008.38, -50036.313, 0.000023374681, 0.000035329896, 40442.324, 40442.324, 0.0, 2.5003936, 2.4993005 
4.5883515e+2, 6.621601e+1, 22494.316, -302101.34, -49221.12, -0.00020643437, -0.000106443265, 29793.965, 29793.965, 0.0, 2.5003755, 2.4993005 
4.5883468e+2, 6.871531e+1, 11821.874, -307263.53, -48415.207, -0.00046012315, -0.00024984404, 19006.213, 19006.213, 0.0, 2.5003572, 2.4993005 
4.5883426e+2, 7.12147e+1, 51389.938, -208772.73, -42885.043, -0.000046902314, 0.00017267854, 58276.773, 58276.773, 0.0, 2.5003397, 2.4994779 
4.5883384e+2, 7.371418e+1, 42693.777, -210105.97, -42348.3, 0.0001258755, 0.00008721063, 49599.215, 49599.215, 0.0, 2.5003216, 2.4994843 
4.588334e+2, 7.6213664e+1, 32016.922, -215255.5, -41601.06, 0.0002538671, -0.0000030760689, 38828.25, 38828.25, 0.0, 2.5003033, 2.4994843 
4.5883295e+2, 7.871314e+1, 21158.564, -220492.44, -40859.688, 0.00034361557, -0.000090671594, 27880.373, 27880.373, 0.0, 2.5002847, 2.4994843 
4.5883256e+2, 8.121272e+1, 59888.797, -123267.83, -31786.43, 0.00049488764, 0.0002689245, 65248.426, 65248.426, 0.0, 2.5002666, 2.49966 
4.5883217e+2, 8.371238e+1, 51672.895, -123007.055, -30951.02, 0.000014771641, 0.00009324236, 56994.87, 56994.87, 0.0, 2.500248, 2.4996693 
4.588318e+2, 8.6212045e+1, 40623.78, -128306.36, -30173.008, -0.000502115, -0.0000894506, 45851.29, 45851.29, 0.0, 2.500229, 2.4996693 
4.5883143e+2, 8.8711715e+1, 29376.605, -133701.05, -29398.967, -0.0010506527, -0.00027183263, 34514.645, 34514.645, 0.0, 2.5002096, 2.4996696 
4.5883107e+2, 9.1211474e+1, 67610.414, -37212.777, -15839.76, 0.0002649199, 0.00051671243, 69951.664, 69951.664, 0.0, 2.5001912, 2.499844 
4.5883077e+2, 9.3711317e+1, 59455.414, -35097.61, -15369.565, 0.00023008656, 0.0002756706, 61890.996, 61890.996, 0.0, 2.5001707, 2.4998574 
4.588305e+2, 9.621117e+1, 46977.89, -41096.133, -14518.565, 0.00007531612, 0.000015672551, 49309.48, 49309.48, 0.0, 2.5001493, 2.4998574 
4.588302e+2, 9.871102e+1, 33971.477, -47349.33, -13647.364, -0.00017306877, -0.00024761487, 36200.688, 36200.688, 0.0, 2.5001268, 2.4998577 
4.613445e+2, 1.2491101e+0, -64909.746, -828094.1, -10195.057, 0.00025964258, -0.000023580953, -64773.58, -64773.58, 0.0, 2.5007463, 2.4982197 
4.6134445e+2, 3.7473303e+0, -67455.38, -829509.56, -9023.714, 0.00014250398, -0.00007203189, -67348.55, -67348.55, 0.0, 2.500742, 2.4982193 
4.613444e+2, 6.2455505e+0, -69892.33, -830696.6, -7734.9336, 0.000035258498, -0.00012220119, -69813.695, -69813.695, 0.0, 2.500738, 2.4982193 
4.613443e+2, 8.743771e+0, -72330.875, -831884.44, -6446.306, -0.00006209301, -0.00017408877, -72276.17, -72276.17, 0.0, 2.5007336, 2.4982193 
4.6134418e+2, 1.1242075e+1, -29822.855, -736630.5, -25412.252, -0.00015545778, -0.00007246133, -28910.373, -28910.373, 0.0, 2.5007262, 2.4983861 
4.6134397e+2, 1.3740464e+1, -36196.066, -739520.94, -24486.979, -0.00006408373, -0.00005986833, -35344.56, -35344.56, 0.0, 2.500715, 2.4983866 
4.6134374e+2, 1.6238852e+1, -42714.2, -742709.6, -23086.055, 0.000033241577, -0.00004144468, -41953.64, -41953.64, 0.0, 2.5007038, 2.4983864 
4.6134353e+2, 1.873724e+1, -49233.76, -745898.94, -21684.803, 0.00013626368, -0.000016919812, -48559.44, -48559.44, 0.0, 2.5006928, 2.4983864 
4.6134326e+2, 2.1235718e+1, -6868.17, -645621.2, -36602.484, 0.00006424176, 0.0001544481, -4777.579, -4777.579, 0.0, 2.5006795, 2.4985647 
4.6134296e+2, 2.3734283e+1, -15876.357, -649632.5, -35924.22, 0.00008837262, 0.000045393575, -13846.509, -13846.509, 0.0, 2.5006638, 2.4985654 
4.6134263e+2, 2.6232848e+1, -25129.277, -654148.3, -34427.89, 0.0001177564, -0.000059447797, -23250.559, -23250.559, 0.0, 2.500648, 2.4985652 
4.6134228e+2, 2.8731412e+1, -34383.63, -658664.75, -32931.832, 0.00015165018, -0.00015900718, -32651.23, -32651.23, 0.0, 2.500632, 2.4985652 
4.6134195e+2, 3.123007e+1, 7736.0566, -555743.75, -43285.957, 0.00005603917, -0.00006697925, 11041.847, 11041.847, 0.0, 2.5006156, 2.4987497 
4.6134153e+2, 3.372882e+1, -2503.9883, -560334.4, -42862.664, 0.00005031666, -0.00010792768, 770.2816, 770.2816, 0.0, 2.5005975, 2.4987504 
4.613411e+2, 3.6227572e+1, -13004.899, -565461.6, -41432.508, 0.000047233167, -0.00014150536, -9914.875, -9914.875, 0.0, 2.5005796, 2.4987502 
4.613407e+2, 3.872632e+1, -23507.531, -570589.7, -40002.523, 0.00004587976, -0.00016652583, -20598.027, -20598.027, 0.0, 2.5005617, 2.4987502 
4.6134028e+2, 4.1225165e+1, 17653.174, -468191.38, -45566.965, -0.000016552356, 0.00005693943, 21889.916, 21889.916, 0.0, 2.5005434, 2.4989345 
4.613398e+2, 4.3724102e+1, 6906.052, -472754.75, -45172.86, -0.000009046506, -0.0000012155857, 11123.204, 11123.204, 0.0, 2.5005243, 2.498936 
4.6133935e+2, 4.6223038e+1, -4263.3394, -478187.94, -43790.18, 0.0000014676839, -0.00006665511, -251.1353, -251.1353, 0.0, 2.5005052, 2.498936 
4.613389e+2, 4.8721972e+1, -15435.101, -483622.25, -42408.055, 0.000014276745, -0.00013705723, -11624.818, -11624.818, 0.0, 2.5004861, 2.4989357 
4.613384e+2, 5.122101e+1, 25308.916, -381497.88, -43821.64, 0.00004421988, 0.00019858846, 29975.889, 29975.889, 0.0, 2.5004673, 2.49912 
4.6133795e+2, 5.372013e+1, 14828.368, -385382.94, -43548.566, 0.00007938522, 0.000117876174, 19512.24, 19512.24, 0.0, 2.500448, 2.4991226 
4.6133748e+2, 5.6219244e+1, 3579.9802, -390855.13, -42422.45, 0.00011826728, 0.000029345638, 8091.0254, 8091.0254, 0.0, 2.5004287, 2.4991226 
4.6133697e+2, 5.871837e+1, -7670.7944, -396328.5, -41296.07, 0.00016090203, -0.00006238702, -3331.4094, -3331.4094, 0.0, 2.5004094, 2.4991224 
4.613365e+2, 6.1217576e+1, 32000.75, -296384.13, -38948.973, 0.0003202364, 0.00019516345, 36557.176, 36557.176, 0.0, 2.5003905, 2.499303 
4.61336e+2, 6.371688e+1, 21878.92, -299555.56, -38480.973, 0.0000917686, 0.000075649616, 26421.525, 26421.525, 0.0, 2.5003715, 2.499307 
4.613355e+2, 6.621619e+1, 10660.906, -304992.53, -37506.17, -0.00013092413, -0.00004441539, 15056.215, 15056.215, 0.0, 2.5003521, 2.4993067 
4.6133506e+2, 6.8715495e+1, -561.6032, -310431.63, -36531.39, -0.00034460003, -0.00016041873, 3686.9277, 3686.9277, 0.0, 2.5003328, 2.4993067 
4.6133456e+2, 7.121489e+1, 38164.62, -212458.89, -30759.059, 0.000060272516, 0.0002702141, 41884.473, 41884.473, 0.0, 2.500314, 2.499484 
4.6133414e+2, 7.3714375e+1, 28738.707, -214219.39, -30177.492, 0.00017920221, 0.00020211136, 32430.902, 32430.902, 0.0, 2.500295, 2.4994903 
4.613337e+2, 7.6213866e+1, 17549.904, -219628.19, -29339.99, 0.00031280523, 0.00013294668, 21125.488, 21125.488, 0.0, 2.5002756, 2.49949 
4.6133322e+2, 7.871336e+1, 6355.507, -225039.69, -28502.754, 0.00046772233, 0.000069989765, 9814.701, 9814.701, 0.0, 2.5002565, 2.49949 
4.613328e+2, 8.1212926e+1, 44414.84, -128207.69, -19394.13, 0.00059610925, 0.00046507677, 46566.94, 46566.94, 0.0, 2.5002372, 2.4996655 
4.613324e+2, 8.37126e+1, 35394.945, -128405.64, -18767.271, 0.00007570821, 0.00031597068, 37517.676, 37517.676, 0.0, 2.5002174, 2.4996748 
4.61332e+2, 8.621227e+1, 23778.389, -133980.25, -18138.268, -0.00043148882, 0.00015827609, 25836.969, 25836.969, 0.0, 2.5001974, 2.4996748 
4.613316e+2, 8.871195e+1, 12155.22, -139558.05, -17509.096, -0.00092095096, -0.00000060693094, 14149.709, 14149.709, 0.0, 2.5001774, 2.4996748 
4.6133128e+2, 9.1211706e+1, 49057.65, -43428.438, -4261.8755, 0.0004614853, 0.0007540581, 49253.625, 49253.625, 0.0, 2.5001564, 2.49985 
4.6133092e+2, 9.371156e+1, 39448.02, -42068.332, -4110.6636, 0.00042333032, 0.0005169528, 39654.785, 39654.785, 0.0, 2.5001335, 2.4998634 
4.6133062e+2, 9.6211416e+1, 26080.594, -48471.027, -3528.1257, 0.00040630493, 0.00024124762, 26247.19, 26247.19, 0.0, 2.5001104, 2.4998636 
4.6133032e+2, 9.8711276e+1, 12691.254, -54884.27, -2945.816, 0.0004376826, -0.000058287354, 12819.428, 12819.428, 0.0, 2.5000875, 2.4998636 
4.6384528e+2, 1.24911465e+0, -62502.723, -823094.56, -10829.855, 0.00021717983, -0.0000036889528, -62348.55, -62348.55, 0.0, 2.5007463, 2.4982283 
4.638452e+2, 3.7473437e+0, -65045.37, -824507.94, -9654.147, 0.00020178789, -0.000013325816, -64922.668, -64922.668, 0.0, 2.500742, 2.4982278 
4.6384513e+2, 6.245573e+0, -67479.42, -825693.0, -8362.05, 0.0001895606, -0.000025974277, -67387.21, -67387.21, 0.0, 2.500738, 2.4982278 
4.6384504e+2, 8.7438023e+0, -69915.086, -826878.9, -7070.1055, 0.00018049884, -0.00004163426, -69849.055, -69849.055, 0.0, 2.5007336, 2.4982278 
4.6384487e+2, 1.1242116e+1, -27164.035, -731119.06, -27086.27, 0.00010247323, 0.000050149578, -26123.37, -26123.37, 0.0, 2.5007262, 2.4983957 
4.6384466e+2, 1.3740513e+1, -33566.047, -734064.9, -26175.432, 0.00012224531, 0.0000395719, -32589.316, -32589.316, 0.0, 2.500715, 2.498396 
4.6384445e+2, 1.623891e+1, -40086.52, -737253.9, -24768.225, 0.00014382735, 0.000035520563, -39207.688, -39207.688, 0.0, 2.5007038, 2.4983957 
4.6384424e+2, 1.8737307e+1, -46608.42, -740443.5, -23360.691, 0.00016698979, 0.00003823202, -45822.78, -45822.78, 0.0, 2.5006928, 2.4983957 
4.6384397e+2, 2.1235794e+1, -4008.3252, -639691.6, -38960.195, 0.000057423305, 0.0001535326, -1629.4086, -1629.4086, 0.0, 2.5006795, 2.4985747 
4.6384358e+2, 2.373437e+1, -13075.261, -643828.7, -38318.953, 0.000078363235, 0.00009219431, -10755.871, -10755.871, 0.0, 2.5006638, 2.4985754 
4.6384326e+2, 2.6232946e+1, -22326.578, -648344.6, -36819.797, 0.0001005331, 0.000034620298, -20168.432, -20168.432, 0.0, 2.500648, 2.4985752 
4.6384293e+2, 2.8731522e+1, -31579.33, -652861.25, -35320.91, 0.00012322003, -0.000018483708, -29577.727, -29577.727, 0.0, 2.500632, 2.4985752 
4.6384257e+2, 3.123019e+1, 10463.203, -550125.4, -45971.664, 0.000032599306, 0.00007224292, 14208.141, 14208.141, 0.0, 2.5006156, 2.4987593 
4.6384212e+2, 3.372895e+1, 190.06552, -554786.44, -45577.52, 0.000037265345, 0.000022756467, 3908.2148, 3908.2148, 0.0, 2.5005975, 2.49876 
4.638417e+2, 3.6227712e+1, -10310.569, -559914.7, -44144.406, 0.000040960764, -0.00001947697, -6787.4585, -6787.4585, 0.0, 2.5005796, 2.4987597 
4.638413e+2, 3.872647e+1, -20812.924, -565043.75, -42711.47, 0.000042832886, -0.00005342887, -17481.305, -17481.305, 0.0, 2.5005617, 2.4987597 
4.638408e+2, 4.1225323e+1, 20320.55, -462723.44, -48437.617, -0.000008896616, 0.00013101658, 25129.791, 25129.791, 0.0, 2.5005436, 2.498944 
4.6384034e+2, 4.3724266e+1, 9535.713, -467366.03, -48068.797, -0.000029950366, 0.00002485777, 14332.508, 14332.508, 0.0, 2.5005243, 2.4989452 
4.638399e+2, 4.6223208e+1, -1636.4078, -472805.53, -46679.973, -0.00005265845, -0.000087043845, 2943.7773, 2943.7773, 0.0, 2.5005052, 2.498945 
4.6383938e+2, 4.8722157e+1, -12810.897, -478246.2, -45291.703, -0.00007752329, -0.00020244821, -8444.506, -8444.506, 0.0, 2.5004861, 2.498945 
4.638389e+2, 5.122119e+1, 27592.555, -376862.8, -46740.85, -0.000013309047, 0.000028702414, 32923.883, 32923.883, 0.0, 2.5004673, 2.4991279 
4.6383837e+2, 5.372032e+1, 17001.875, -380972.4, -46465.855, 0.0000148627705, -0.000023306955, 22355.033, 22355.033, 0.0, 2.500448, 2.4991302 
4.638379e+2, 5.621945e+1, 5748.5854, -386450.13, -45334.77, 0.000040352534, -0.000079852514, 10920.685, 10920.685, 0.0, 2.500429, 2.49913 
4.638374e+2, 5.871858e+1, -5507.0923, -391928.97, -44203.426, 0.00006381513, -0.00013738687, -515.08057, -515.08057, 0.0, 2.5004096, 2.49913 
4.6383688e+2, 6.12178e+1, 33970.934, -292434.66, -41834.848, 0.00023212895, 0.00013046492, 39247.535, 39247.535, 0.0, 2.5003908, 2.4993098 
4.6383637e+2, 6.371711e+1, 23808.445, -295693.97, -41386.168, 0.00004851961, -0.00000057388814, 29082.275, 29082.275, 0.0, 2.5003715, 2.4993134 
4.6383587e+2, 6.621642e+1, 12592.294, -301129.78, -40406.527, -0.00014016291, -0.00013164675, 17712.96, 17712.96, 0.0, 2.5003524, 2.4993134 
4.6383536e+2, 6.871573e+1, 1371.6471, -306567.75, -39426.902, -0.0003307492, -0.00025818255, 6339.511, 6339.511, 0.0, 2.500333, 2.4993134 
4.638349e+2, 7.1215135e+1, 39939.434, -208966.08, -33643.777, 0.00006079918, 0.00012563354, 44406.777, 44406.777, 0.0, 2.5003142, 2.4994898 
4.638344e+2, 7.371463e+1, 30459.969, -210842.78, -33082.914, 0.00011544092, 0.000027624988, 34913.484, 34913.484, 0.0, 2.5002952, 2.4994957 
4.6383396e+2, 7.6214117e+1, 19275.459, -216247.0, -32237.771, 0.00016953112, -0.00006960439, 23608.377, 23608.377, 0.0, 2.5002759, 2.4994957 
4.638335e+2, 7.8713614e+1, 8085.3506, -221653.9, -31392.893, 0.00022976517, -0.00015915949, 12297.817, 12297.817, 0.0, 2.5002565, 2.4994957 
4.6383303e+2, 8.1213194e+1, 45917.76, -125369.3, -22355.982, 0.0003030093, 0.00021672237, 48787.53, 48787.53, 0.0, 2.5002377, 2.4996703 
4.6383262e+2, 8.371287e+1, 36823.06, -125719.85, -21786.027, -0.000104744744, 0.00005218172, 39692.44, 39692.44, 0.0, 2.5002177, 2.4996793 
4.638322e+2, 8.6212546e+1, 25202.809, -131298.27, -21150.621, -0.00051845424, -0.00011678523, 28010.863, 28010.863, 0.0, 2.5001976, 2.4996793 
4.6383178e+2, 8.871223e+1, 13575.949, -136879.84, -20515.047, -0.0009345073, -0.00028278749, 16323.071, 16323.071, 0.0, 2.5001776, 2.4996793 
4.6383142e+2, 9.121199e+1, 50746.605, -40416.86, -7709.121, 0.00049184187, 0.00040575274, 51393.92, 51393.92, 0.0, 2.5001569, 2.499855 
4.638311e+2, 9.3711853e+1, 41039.453, -39254.26, -7571.4697, 0.0003167155, 0.00020715024, 41747.184, 41747.184, 0.0, 2.500134, 2.499868 
4.6383074e+2, 9.621171e+1, 27664.143, -45664.73, -6969.0776, 0.000114706585, -0.00002856976, 28320.598, 28320.598, 0.0, 2.500111, 2.4998682 
4.6383038e+2, 9.871157e+1, 14266.919, -52085.746, -6366.9136, -0.00008633347, -0.000287946, 14872.337, 14872.337, 0.0, 2.500088, 2.4998682 
4.66346e+2, 1.24911904e+0, -60095.5, -818094.7, -11463.547, 0.00017425987, 0.000013613529, -59922.17, -59922.17, 0.0, 2.5007463, 2.498237 
4.6634594e+2, 3.747357e+0, -62637.45, -819510.56, -10284.52, 0.00025970017, 0.000037611706, -62497.727, -62497.727, 0.0, 2.500742, 2.4982364 
4.6634585e+2, 6.245595e+0, -65068.617, -820693.75, -8989.106, 0.00034157655, 0.000057305067, -64961.695, -64961.695, 0.0, 2.500738, 2.4982364 
4.6634576e+2, 8.7438333e+0, -67501.39, -821877.6, -7693.845, 0.0004198899, 0.000072693685, -67422.93, -67422.93, 0.0, 2.5007336, 2.4982364 
4.663456e+2, 1.1242156e+1, -24554.154, -725709.4, -28760.795, 0.00036047612, 0.00019166137, -23376.39, -23376.39, 0.0, 2.5007262, 2.498405 
4.663454e+2, 1.3740562e+1, -30939.31, -728615.6, -27863.746, 0.00030860087, 0.00014135867, -29828.26, -29828.26, 0.0, 2.500715, 2.4984052 
4.6634516e+2, 1.6238968e+1, -37462.12, -731804.94, -26450.26, 0.0002543853, 0.000098159995, -36455.984, -36455.984, 0.0, 2.5007038, 2.4984052 
4.6634492e+2, 1.8737373e+1, -43986.36, -734994.94, -25036.443, 0.00019763372, 0.00006238598, -43080.434, -43080.434, 0.0, 2.5006928, 2.498405 
4.6634462e+2, 2.123587e+1, -1202.5573, -633874.5, -41315.184, 0.000050599017, 0.00016101975, 1484.0275, 1484.0275, 0.0, 2.5006795, 2.4985847 
4.6634427e+2, 2.3734456e+1, -10276.055, -638028.8, -40713.22, 0.00006894393, 0.00014082498, -7646.5923, -7646.5923, 0.0, 2.5006638, 2.4985852 
4.6634394e+2, 2.6233044e+1, -19525.771, -642544.94, -39211.234, 0.000084496794, 0.00012368533, -17067.617, -17067.617, 0.0, 2.500648, 2.4985852 
4.6634358e+2, 2.873163e+1, -28776.924, -647061.75, -37709.52, 0.00009657371, 0.00011020383, -26485.492, -26485.492, 0.0, 2.500632, 2.498585 
4.6634316e+2, 3.1230307e+1, 13173.282, -544542.5, -48653.863, 0.000011624265, 0.00020694663, 17385.916, 17385.916, 0.0, 2.5006156, 2.4987688 
4.6634272e+2, 3.3729076e+1, 2882.4158, -549242.2, -48291.85, 0.000027364978, 0.00014189402, 7074.458, 7074.458, 0.0, 2.5005977, 2.4987695 
4.6634227e+2, 3.6227843e+1, -7617.9424, -554371.4, -46855.78, 0.00003852667, 0.00008387627, -3631.5515, -3631.5515, 0.0, 2.5005796, 2.4987693 
4.6634182e+2, 3.8726616e+1, -18120.021, -559501.44, -45419.89, 0.000044311608, 0.000033864573, -14335.911, -14335.911, 0.0, 2.5005617, 2.498769 
4.6634138e+2, 4.1225478e+1, 22930.068, -457375.75, -51303.43, -0.0000045829947, 0.00021362244, 28348.863, 28348.863, 0.0, 2.5005436, 2.498953 
4.6634084e+2, 4.372443e+1, 12162.903, -461982.5, -50963.457, -0.000049941154, 0.00004376235, 17578.84, 17578.84, 0.0, 2.5005245, 2.4989543 
4.6634036e+2, 4.6223384e+1, 988.054, -467428.34, -49568.49, -0.000101527614, -0.00013068791, 6176.002, 6176.002, 0.0, 2.5005052, 2.4989543 
4.663399e+2, 4.8722336e+1, -10189.165, -472875.38, -48174.066, -0.00015972265, -0.00030718057, -5226.593, -5226.593, 0.0, 2.5004861, 2.498954 
4.6633935e+2, 5.122138e+1, 29804.148, -372377.5, -49652.05, -0.00007289897, -0.00012223783, 35843.348, 35843.348, 0.0, 2.5004675, 2.4991355 
4.6633884e+2, 5.3720516e+1, 19173.33, -376566.2, -49382.742, -0.000048186062, -0.00015540981, 25242.525, 25242.525, 0.0, 2.5004482, 2.4991376 
4.663383e+2, 5.6219655e+1, 7915.1377, -382049.4, -48246.688, -0.000032383112, -0.00019060381, 13795.578, 13795.578, 0.0, 2.500429, 2.4991376 
4.6633777e+2, 5.8718795e+1, -3345.4429, -387533.78, -47110.375, -0.00002438736, -0.0002245729, 2347.034, 2347.034, 0.0, 2.5004096, 2.4991374 
4.663373e+2, 6.121802e+1, 35912.074, -288545.63, -44710.07, 0.00014733523, 0.00006304899, 41960.348, 41960.348, 0.0, 2.5003908, 2.4993165 
4.6633673e+2, 6.3717335e+1, 25736.723, -291835.06, -44291.23, 0.000006794556, -0.00008437406, 31798.254, 31798.254, 0.0, 2.5003717, 2.49932 
4.6633622e+2, 6.6216654e+1, 14522.435, -297269.72, -43306.75, -0.00014956357, -0.00023152877, 20425.807, 20425.807, 0.0, 2.5003524, 2.4993198 
4.6633568e+2, 6.871597e+1, 3303.6506, -302706.53, -42322.29, -0.00031874617, -0.00037367083, 9049.1, 9049.1, 0.0, 2.5003333, 2.4993198 
4.663352e+2, 7.121538e+1, 41672.344, -205560.38, -36525.61, 0.0000836122, -0.000007625549, 46955.652, 46955.652, 0.0, 2.5003145, 2.4994955 
4.6633473e+2, 7.3714876e+1, 32179.645, -207469.53, -35988.156, 0.00006778067, -0.00014470896, 37467.324, 37467.324, 0.0, 2.5002952, 2.4995015 
4.6633422e+2, 7.621438e+1, 20999.424, -212869.17, -35135.375, 0.000035855017, -0.00027963414, 26163.957, 26163.957, 0.0, 2.500276, 2.4995015 
4.6633375e+2, 7.8713876e+1, 9813.606, -218271.48, -34282.855, -0.000005096964, -0.00040541816, 14855.134, 14855.134, 0.0, 2.5002568, 2.4995015 
4.6633327e+2, 8.121346e+1, 47383.71, -122607.79, -25308.693, 0.000035621408, -0.000029960122, 51071.71, 51071.71, 0.0, 2.500238, 2.4996748 
4.6633282e+2, 8.3713144e+1, 38250.387, -123035.77, -24804.594, -0.00025944505, -0.00021280252, 41978.95, 41978.95, 0.0, 2.500218, 2.4996839 
4.663324e+2, 8.621282e+1, 26626.441, -128617.97, -24162.785, -0.0005800088, -0.00039625564, 30300.281, 30300.281, 0.0, 2.500198, 2.4996839 
4.6633196e+2, 8.87125e+1, 14995.891, -134203.36, -23520.807, -0.0009229947, -0.00057259086, 18616.035, 18616.035, 0.0, 2.5001779, 2.4996839 
4.6633157e+2, 9.121227e+1, 52413.293, -37451.684, -11114.295, 0.0005391378, 0.000077491124, 53767.48, 53767.48, 0.0, 2.5001576, 2.4998598 
4.663312e+2, 9.3712133e+1, 42629.45, -36443.26, -11031.756, 0.0002349345, -0.000092078546, 44139.69, 44139.69, 0.0, 2.5001345, 2.4998727 
4.6633083e+2, 9.6212006e+1, 29246.258, -42861.508, -10409.51, -0.00014405056, -0.0002977795, 30718.904, 30718.904, 0.0, 2.5001116, 2.4998727 
4.6633047e+2, 9.8711866e+1, 15841.149, -49290.297, -9787.491, -0.0005695016, -0.0005269628, 17280.152, 17280.152, 0.0, 2.5000885, 2.4998727 
4.6884677e+2, 1.2491236e+0, -63570.56, -815939.75, -12135.783, 0.0001572585, 0.000027078155, -63374.86, -63374.86, 0.0, 2.500736, 2.4982455 
4.6884668e+2, 3.7473705e+0, -65961.7, -817289.7, -11044.109, 0.0003406473, 0.00007754129, -65799.4, -65799.4, 0.0, 2.5007322, 2.498245 
4.688466e+2, 6.245617e+0, -68291.55, -818423.7, -9841.604, 0.0005146919, 0.00012307908, -68162.445, -68162.445, 0.0, 2.5007281, 2.498245 
4.6884653e+2, 8.743864e+0, -70676.85, -819584.4, -8646.673, 0.0006793907, 0.00016368978, -70577.03, -70577.03, 0.0, 2.500724, 2.498245 
4.6884635e+2, 1.1242196e+1, -27452.836, -723041.3, -30858.016, 0.00064149924, 0.00034613104, -26086.582, -26086.582, 0.0, 2.500717, 2.498414 
4.688461e+2, 1.3740611e+1, -33549.703, -725704.2, -30057.576, 0.0005169439, 0.00023843785, -32246.873, -32246.873, 0.0, 2.5007062, 2.4984145 
4.6884584e+2, 1.6239028e+1, -39874.78, -728797.0, -28719.92, 0.00038630856, 0.00013815246, -38679.574, -38679.574, 0.0, 2.5006952, 2.4984145 
4.688456e+2, 1.8737441e+1, -46227.145, -731902.94, -27380.582, 0.00024943682, 0.00004579732, -45135.516, -45135.516, 0.0, 2.5006845, 2.4984143 
4.688453e+2, 2.1235947e+1, -3056.9353, -630394.44, -44406.535, 0.00006418552, 0.000166084, 70.818634, 70.818634, 0.0, 2.5006716, 2.4985945 
4.6884495e+2, 2.3734544e+1, -11759.234, -634300.75, -43915.85, 0.000079035264, 0.00018025558, -8676.55, -8676.55, 0.0, 2.5006564, 2.4985952 
4.6884456e+2, 2.623314e+1, -20715.053, -638676.06, -42483.336, 0.00008753276, 0.00019686493, -17808.1, -17808.1, 0.0, 2.500641, 2.498595 
4.688442e+2, 2.8731737e+1, -29705.69, -643068.2, -41053.613, 0.0000890161, 0.0002166649, -26970.088, -26970.088, 0.0, 2.5006258, 2.498595 
4.688438e+2, 3.1230426e+1, 12443.476, -540646.25, -52352.438, 0.000009482723, 0.00032722225, 17355.25, 17355.25, 0.0, 2.5006099, 2.4987783 
4.688433e+2, 3.3729202e+1, 2502.6333, -545182.5, -52078.953, 0.00003560515, 0.00023991858, 7410.795, 7410.795, 0.0, 2.5005925, 2.4987788 
4.6884286e+2, 3.622798e+1, -7681.673, -550160.25, -50692.94, 0.000053924494, 0.00015942412, -2985.234, -2985.234, 0.0, 2.500575, 2.4987788 
4.6884242e+2, 3.8726762e+1, -17904.338, -555156.5, -49306.69, 0.00006369167, 0.00008675054, -13416.668, -13416.668, 0.0, 2.5005574, 2.4987786 
4.688419e+2, 4.1225633e+1, 23315.824, -453188.38, -55378.28, 0.000008643945, 0.00029678264, 29667.111, 29667.111, 0.0, 2.50054, 2.498962 
4.688414e+2, 4.3724594e+1, 12959.333, -457481.6, -55098.145, -0.000058319914, 0.000049110604, 19326.27, 19326.27, 0.0, 2.5005214, 2.4989636 
4.6884087e+2, 4.6223557e+1, 2077.2642, -462791.25, -53727.133, -0.0001354854, -0.00020162834, 8205.974, 8205.974, 0.0, 2.5005028, 2.4989634 
4.6884036e+2, 4.8722515e+1, -8849.476, -468122.4, -52359.305, -0.00022320778, -0.00045221293, -2955.893, -2955.893, 0.0, 2.500484, 2.4989634 
4.6883982e+2, 5.122157e+1, 30926.523, -368523.78, -53864.273, -0.00012631378, -0.000253616, 38062.426, 38062.426, 0.0, 2.5004659, 2.499143 
4.6883926e+2, 5.372071e+1, 20592.158, -372517.34, -53583.727, -0.00010269386, -0.00027793422, 27765.133, 27765.133, 0.0, 2.500447, 2.4991453 
4.6883875e+2, 5.621986e+1, 9533.03, -377907.34, -52415.55, -0.00009344407, -0.00030211388, 16498.918, 16498.918, 0.0, 2.500428, 2.499145 
4.6883819e+2, 5.8719003e+1, -1591.2814, -383328.75, -51244.45, -0.000097192715, -0.0003224634, 5168.0884, 5168.0884, 0.0, 2.5004091, 2.499145 
4.6883765e+2, 6.121824e+1, 37546.07, -284838.44, -48765.715, 0.000071731316, -0.0000041642325, 44761.17, 44761.17, 0.0, 2.5003905, 2.499323 
4.6883714e+2, 6.371756e+1, 27504.314, -288043.28, -48349.48, -0.000028647666, -0.00017073238, 34746.406, 34746.406, 0.0, 2.5003715, 2.4993265 
4.6883658e+2, 6.6216886e+1, 16336.115, -293455.63, -47323.516, -0.00015450767, -0.0003368728, 23403.963, 23403.963, 0.0, 2.5003524, 2.4993265 
4.6883604e+2, 6.871621e+1, 5088.85, -298906.06, -46298.62, -0.00030315056, -0.00049746124, 11983.775, 11983.775, 0.0, 2.500333, 2.4993265 
4.688355e+2, 7.1215624e+1, 43196.203, -202307.56, -40433.668, 0.0001343024, -0.00011795858, 49684.043, 49684.043, 0.0, 2.5003142, 2.4995012 
4.6883503e+2, 7.3715127e+1, 33707.645, -204176.81, -39858.26, 0.000041497962, -0.00030157503, 40208.367, 40208.367, 0.0, 2.5002952, 2.4995072 
4.688345e+2, 7.621463e+1, 22397.844, -209636.44, -38933.89, -0.00008202827, -0.00048284253, 28756.455, 28756.455, 0.0, 2.5002756, 2.4995072 
4.6883398e+2, 7.871413e+1, 10971.279, -215152.28, -38009.836, -0.0002285463, -0.0006542265, 17189.479, 17189.479, 0.0, 2.500256, 2.4995072 
4.688335e+2, 8.1213725e+1, 48058.82, -120269.47, -29000.855, -0.00019741956, -0.0002587516, 52915.195, 52915.195, 0.0, 2.500237, 2.4996793 
4.6883303e+2, 8.371341e+1, 38790.207, -120763.54, -28455.686, -0.00038038017, -0.00045954454, 43713.25, 43713.25, 0.0, 2.5002167, 2.4996881 
4.6883258e+2, 8.6213094e+1, 26867.807, -126491.16, -27680.246, -0.00060623174, -0.0006583261, 31710.953, 31710.953, 0.0, 2.5001962, 2.4996884 
4.6883214e+2, 8.8712776e+1, 14776.598, -132300.08, -26893.168, -0.0008721055, -0.0008466769, 19539.791, 19539.791, 0.0, 2.5001755, 2.4996884 
4.6883172e+2, 9.121255e+1, 52096.223, -35457.277, -14709.935, 0.00061981217, -0.00020620819, 54501.57, 54501.57, 0.0, 2.5001547, 2.4998646 
4.6883133e+2, 9.3712425e+1, 42027.152, -34670.355, -14611.552, 0.00019507793, -0.000354425, 44716.484, 44716.484, 0.0, 2.5001314, 2.4998772 
4.6883097e+2, 9.62123e+1, 28134.826, -41337.875, -13858.172, -0.00034823452, -0.0005379855, 30797.178, 30797.178, 0.0, 2.5001073, 2.4998772 
4.6883056e+2, 9.8712164e+1, 13948.464, -48146.97, -13106.121, -0.000981513, -0.0007445738, 16601.357, 16601.357, 0.0, 2.500083, 2.4998772 
4.713475e+2, 1.249129e+0, -47920.3, -803206.4, -12277.396, 0.0002819462, -0.0000022769964, -47720.777, -47720.777, 0.0, 2.5007575, 2.498257 
4.7134742e+2, 3.7473872e+0, -51286.67, -805031.56, -10037.82, 0.000420133, 0.0000010334834, -51153.02, -51153.02, 0.0, 2.5007517, 2.4982564 
4.7134733e+2, 6.245645e+0, -54537.83, -806614.9, -7683.94, 0.00057027687, 0.000014830518, -54459.33, -54459.33, 0.0, 2.5007463, 2.4982564 
4.7134724e+2, 8.743903e+0, -57790.496, -808198.94, -5330.142, 0.0007323789, 0.00003911445, -57752.637, -57752.637, 0.0, 2.5007408, 2.4982564 
4.7134706e+2, 1.12422474e+1, -15638.349, -711822.06, -27450.086, 0.00070155604, 0.00019107854, -14557.687, -14557.687, 0.0, 2.5007312, 2.4984262 
4.713468e+2, 1.3740674e+1, -23575.252, -715396.2, -25570.895, 0.0005944726, 0.000059052265, -22631.396, -22631.396, 0.0, 2.5007174, 2.498427 
4.7134656e+2, 1.62391e+1, -31693.139, -719342.5, -23134.031, 0.00048913475, -0.0000739676, -30915.738, -30915.738, 0.0, 2.5007033, 2.4984267 
4.7134632e+2, 1.8737528e+1, -39812.926, -723289.7, -20697.744, 0.00038537694, -0.00020751351, -39186.707, -39186.707, 0.0, 2.5006895, 2.4984267 
4.71346e+2, 2.1236046e+1, 1753.7686, -622422.6, -37251.49, 0.00022343069, -0.00011689148, 3969.1128, 3969.1128, 0.0, 2.5006738, 2.4986072 
4.7134557e+2, 2.3734656e+1, -8590.009, -627142.44, -35846.69, 0.00023680595, -0.00010804338, -6519.5317, -6519.5317, 0.0, 2.500656, 2.4986079 
4.7134522e+2, 2.6233262e+1, -19139.996, -632286.44, -33461.09, 0.0002534253, -0.00008672346, -17319.338, -17319.338, 0.0, 2.5006378, 2.4986076 
4.7134483e+2, 2.8731874e+1, -29691.273, -637431.06, -31075.559, 0.00027268086, -0.00005217442, -28106.42, -28106.42, 0.0, 2.5006196, 2.4986076 
4.7134438e+2, 3.1230572e+1, 10892.267, -536093.1, -41693.12, 0.0002089591, 0.00007078975, 14052.009, 14052.009, 0.0, 2.5006013, 2.4987903 
4.713439e+2, 3.3729362e+1, -204.53526, -541205.8, -40676.125, 0.0002242882, 0.000005477966, 2836.674, 2836.674, 0.0, 2.500582, 2.4987907 
4.7134343e+2, 3.6228153e+1, -11493.244, -546711.5, -38510.836, 0.00023835778, -0.00005099671, -8736.453, -8736.453, 0.0, 2.5005627, 2.4987905 
4.7134295e+2, 3.8726944e+1, -22783.72, -552218.0, -36346.273, 0.0002505089, -0.00009769715, -20300.156, -20300.156, 0.0, 2.5005434, 2.4987905 
4.7134244e+2, 4.1225827e+1, 17115.596, -451502.78, -41862.773, 0.00019557949, 0.00012683622, 20825.918, 20825.918, 0.0, 2.5005243, 2.4989724 
4.7134188e+2, 4.37248e+1, 6033.4224, -456183.06, -41283.855, 0.00011983703, -0.000051342147, 9691.822, 9691.822, 0.0, 2.5005045, 2.4989738 
4.7134137e+2, 4.6223772e+1, -5504.657, -461803.75, -39583.83, 0.00004545705, -0.0002121335, -2096.2305, -2096.2305, 0.0, 2.5004847, 2.4989738 
4.7134084e+2, 4.8722744e+1, -17044.863, -467425.47, -37883.69, -0.000027852395, -0.00035256028, -13880.515, -13880.515, 0.0, 2.500465, 2.4989736 
4.7134027e+2, 5.1221806e+1, 21535.76, -369109.06, -39072.566, 0.00007595429, -0.00010058482, 25405.492, 25405.492, 0.0, 2.5004454, 2.4991517 
4.7133973e+2, 5.372096e+1, 10642.382, -373388.4, -38591.945, 0.000054778204, -0.00014349015, 14482.163, 14482.163, 0.0, 2.5004256, 2.4991539 
4.7133914e+2, 5.6220114e+1, -892.19586, -378994.16, -37215.49, 0.000032539254, -0.0001780681, 2736.0022, 2736.0022, 0.0, 2.500406, 2.4991539 
4.713386e+2, 5.8719265e+1, -12428.988, -384600.94, -35839.77, 0.000010843324, -0.00020061925, -9009.081, -9009.081, 0.0, 2.5003862, 2.4991536 
4.7133803e+2, 6.121851e+1, 25689.89, -287213.53, -33220.156, 0.00017914646, 0.00013621237, 29177.906, 29177.906, 0.0, 2.5003667, 2.4993303 
4.7133747e+2, 6.3717836e+1, 15121.326, -290731.3, -32825.16, 0.000074314245, 0.000032035114, 18604.566, 18604.566, 0.0, 2.5003467, 2.4993339 
4.713369e+2, 6.621717e+1, 3539.5635, -296347.78, -31807.39, -0.00003327614, -0.000069554546, 6876.0757, 6876.0757, 0.0, 2.5003269, 2.4993336 
4.7133636e+2, 6.87165e+1, -8044.4106, -301965.3, -30790.158, -0.0001407866, -0.00016363291, -4853.5776, -4853.5776, 0.0, 2.500307, 2.4993336 
4.7133583e+2, 7.121592e+1, 29331.143, -206080.77, -24919.506, 0.00034318166, 0.00025682928, 31940.082, 31940.082, 0.0, 2.5002873, 2.4995077 
4.713353e+2, 7.371543e+1, 19472.977, -208243.69, -24524.854, 0.0002289762, 0.00010913536, 22084.332, 22084.332, 0.0, 2.5002677, 2.4995134 
4.7133476e+2, 7.6214945e+1, 7975.9487, -213803.83, -23768.45, 0.00011240754, -0.00005589167, 10494.643, 10494.643, 0.0, 2.500248, 2.4995134 
4.7133422e+2, 7.8714454e+1, -3524.1716, -219365.44, -23012.521, 0.0000016435785, -0.00023103974, -1097.9011, -1097.9011, 0.0, 2.5002282, 2.4995134 
4.7133374e+2, 8.121405e+1, 33053.926, -124928.75, -14137.335, 0.000014899635, 0.00019847114, 34309.055, 34309.055, 0.0, 2.5002084, 2.499685 
4.7133327e+2, 8.371374e+1, 23568.006, -125645.06, -13749.84, -0.0001658332, 0.000068772424, 24824.459, 24824.459, 0.0, 2.5001879, 2.4996936 
4.7133276e+2, 8.6213434e+1, 11678.008, -131342.17, -13113.62, -0.00032368017, -0.000083701896, 12870.462, 12870.462, 0.0, 2.5001674, 2.4996939 
4.713323e+2, 8.871312e+1, -217.99866, -137042.19, -12477.532, -0.00045609995, -0.00025060363, 910.56744, 910.56744, 0.0, 2.500147, 2.4996939 
4.7133186e+2, 9.12129e+1, 36590.18, -40461.992, -868.17163, 0.0011556299, 0.00038539543, 36599.96, 36599.96, 0.0, 2.5001254, 2.49987 
4.7133145e+2, 9.3712777e+1, 25880.4, -40118.84, -1191.7313, 0.00067788287, 0.00032249308, 25901.912, 25901.912, 0.0, 2.500101, 2.4998825 
4.7133106e+2, 9.6212655e+1, 11720.106, -46913.348, -772.7305, 0.00018075234, 0.00023649077, 11730.288, 11730.288, 0.0, 2.5000768, 2.4998825 
4.713306e+2, 9.871252e+1, -2452.5762, -53713.82, -353.6676, -0.00030612148, 0.00013897546, -2450.1362, -2450.1362, 0.0, 2.5000522, 2.4998825 
4.7384825e+2, 1.2491367e+0, -43540.184, -794106.7, -13129.198, -0.0006069091, -0.000011695564, -43310.59, -43310.59, 0.0, 2.5007575, 2.4982727 
4.7384816e+2, 3.7474102e+0, -46898.527, -795918.75, -10875.865, -0.0005449189, -0.000029821891, -46740.64, -46740.64, 0.0, 2.5007517, 2.4982722 
4.7384804e+2, 6.2456834e+0, -50144.508, -797494.9, -8517.684, -0.00047762235, -0.000040927906, -50047.445, -50047.445, 0.0, 2.5007463, 2.4982722 
4.7384796e+2, 8.743957e+0, -53392.004, -799071.75, -6159.5854, -0.0004050184, -0.00004501324, -53341.13, -53341.13, 0.0, 2.5007408, 2.4982722 
4.7384778e+2, 1.1242316e+1, -11051.369, -702256.8, -29545.416, -0.00041873383, 0.00004486424, -9790.756, -9790.756, 0.0, 2.5007312, 2.4984426 
4.7384754e+2, 1.374076e+1, -19048.93, -705972.6, -27674.508, -0.0003817069, -0.000032717686, -17935.793, -17935.793, 0.0, 2.5007172, 2.498443 
4.7384727e+2, 1.6239202e+1, -27155.895, -709911.94, -25231.125, -0.00034682345, -0.00011683469, -26224.754, -26224.754, 0.0, 2.5007033, 2.498443 
4.7384697e+2, 1.8737645e+1, -35264.76, -713852.2, -22788.314, -0.00031427003, -0.00020721955, -34500.344, -34500.344, 0.0, 2.5006895, 2.498443 
4.7384664e+2, 2.1236181e+1, 6267.323, -613064.0, -39957.297, -0.00036201032, -0.00014224897, 8834.6, 8834.6, 0.0, 2.500674, 2.4986231 
4.7384626e+2, 2.3734806e+1, -4134.324, -617904.75, -38575.54, -0.00028232828, -0.00017004115, -1719.3496, -1719.3496, 0.0, 2.500656, 2.4986236 
4.7384584e+2, 2.623343e+1, -14684.177, -623049.2, -36186.51, -0.00020239338, -0.00018539996, -12539.308, -12539.308, 0.0, 2.5006378, 2.4986236 
4.7384542e+2, 2.8732052e+1, -25235.318, -628194.2, -33797.555, -0.00012273775, -0.00018770105, -23346.785, -23346.785, 0.0, 2.5006196, 2.4986234 
4.73845e+2, 3.1230772e+1, 14984.744, -527649.56, -44570.906, -0.0001314889, -0.00007127023, 18621.338, 18621.338, 0.0, 2.5006015, 2.4988046 
4.7384447e+2, 3.3729577e+1, 3871.5317, -532803.44, -43589.31, -0.00009197238, -0.0000848059, 7388.8496, 7388.8496, 0.0, 2.5005822, 2.498805 
4.73844e+2, 3.622838e+1, -7413.5005, -538308.25, -41420.56, -0.00005672047, -0.000091594055, -4201.2925, -4201.2925, 0.0, 2.500563, 2.498805 
4.738435e+2, 3.8727185e+1, -18700.3, -543813.9, -39252.535, -0.000026297763, -0.000090801994, -15782.365, -15782.365, 0.0, 2.5005436, 2.4988048 
4.7384295e+2, 4.1226083e+1, 20426.705, -444698.63, -44844.8, -0.000016321063, 0.00013964255, 24710.93, 24710.93, 0.0, 2.5005243, 2.498984 
4.738424e+2, 4.3725067e+1, 9259.975, -449557.1, -44271.188, -0.000021992231, 0.00009322065, 13492.647, 13492.647, 0.0, 2.5005045, 2.4989853 
4.7384185e+2, 4.6224052e+1, -2274.3867, -455172.66, -42563.445, -0.000030386731, 0.000060538965, 1691.0123, 1691.0123, 0.0, 2.500485, 2.498985 
4.7384128e+2, 4.8723033e+1, -13810.874, -460789.2, -40855.594, -0.00004161317, 0.000043821296, -10107.199, -10107.199, 0.0, 2.5004652, 2.498985 
4.7384074e+2, 5.122211e+1, 24228.094, -363600.5, -42059.375, 0.00010765004, 0.0003001204, 28736.943, 28736.943, 0.0, 2.5004456, 2.4991612 
4.7384015e+2, 5.372127e+1, 13276.685, -368004.84, -41575.523, 0.0000575367, 0.00022847152, 17757.484, 17757.484, 0.0, 2.5004258, 2.4991632 
4.7383958e+2, 5.622043e+1, 1743.8635, -373611.34, -40194.95, 0.0000017945829, 0.00016332469, 5999.8857, 5999.8857, 0.0, 2.500406, 2.499163 
4.7383896e+2, 5.8719593e+1, -9791.172, -379218.9, -38815.113, -0.000057704583, 0.000107913555, -5756.9917, -5756.9917, 0.0, 2.5003862, 2.499163 
4.7383842e+2, 6.1218846e+1, 27738.47, -283058.75, -36243.08, 0.00013811389, 0.0004015854, 31908.932, 31908.932, 0.0, 2.5003667, 2.4993374 
4.7383782e+2, 6.371818e+1, 17101.113, -286719.38, -35821.836, 0.000049682494, 0.0003213451, 21267.537, 21267.537, 0.0, 2.500347, 2.4993408 
4.7383726e+2, 6.6217524e+1, 5516.5786, -292341.56, -34800.242, -0.000046773024, 0.0002462753, 9528.428, 9528.428, 0.0, 2.5003269, 2.4993405 
4.7383666e+2, 6.871686e+1, -6070.1665, -297964.78, -33779.184, -0.00014796604, 0.00018080311, -2212.1008, -2212.1008, 0.0, 2.500307, 2.4993405 
4.738361e+2, 7.1216285e+1, 31014.508, -202761.45, -27904.805, 0.0003638135, 0.0005739016, 34299.23, 34299.23, 0.0, 2.5002875, 2.4995134 
4.7383553e+2, 7.37158e+1, 21039.865, -205164.3, -27507.658, 0.00031410504, 0.00043453687, 24336.89, 24336.89, 0.0, 2.5002677, 2.4995186 
4.7383502e+2, 7.6215315e+1, 9536.8, -210733.95, -26742.004, 0.00025426009, 0.00028495904, 12736.926, 12736.926, 0.0, 2.5002482, 2.4995186 
4.7383448e+2, 7.871483e+1, -1969.3573, -216305.11, -25976.826, 0.00019231638, 0.0001317233, 1134.0192, 1134.0192, 0.0, 2.5002284, 2.4995186 
4.7383392e+2, 8.1214434e+1, 34617.555, -121962.14, -17237.39, 0.0001452311, 0.00054054643, 36492.71, 36492.71, 0.0, 2.5002086, 2.49969 
4.7383344e+2, 8.371413e+1, 25009.12, -122929.234, -16845.172, -0.00008746405, 0.00038115308, 26902.97, 26902.97, 0.0, 2.500188, 2.4996982 
4.7383294e+2, 8.621382e+1, 13113.061, -128633.64, -16203.066, -0.00031064826, 0.00020383048, 14941.645, 14941.645, 0.0, 2.5001678, 2.4996982 
4.7383243e+2, 8.8713515e+1, 1210.9943, -134340.94, -15561.093, -0.0005226795, 0.000016644393, 2974.4358, 2974.4358, 0.0, 2.5001473, 2.4996984 
4.73832e+2, 9.1213304e+1, 37853.15, -38229.656, -4497.073, 0.0012104387, 0.0005991762, 38118.035, 38118.035, 0.0, 2.5001256, 2.4998736 
4.7383153e+2, 9.371318e+1, 27043.965, -38107.047, -4860.4053, 0.0007505234, 0.0005652357, 27404.564, 27404.564, 0.0, 2.5001016, 2.4998856 
4.7383112e+2, 9.621306e+1, 12895.521, -44889.0, -4429.1377, 0.00024354545, 0.0005036425, 13233.04, 13233.04, 0.0, 2.500077, 2.4998858 
4.738307e+2, 9.871294e+1, -1265.3097, -51676.92, -3997.808, -0.0002791878, 0.00042500935, -950.2394, -950.2394, 0.0, 2.5000527, 2.4998858 
4.76349e+2, 1.2491443e+0, -39159.254, -785005.25, -13980.881, -0.0014975704, -0.000025520485, -38897.277, -38897.277, 0.0, 2.5007575, 2.4982882 
4.763489e+2, 3.747433e+0, -42513.434, -786812.25, -11714.129, -0.001515389, -0.00007389636, -42329.117, -42329.117, 0.0, 2.5007517, 2.4982877 
4.7634882e+2, 6.2457216e+0, -45754.242, -788381.2, -9351.6455, -0.0015345521, -0.00011871818, -45636.496, -45636.496, 0.0, 2.5007463, 2.4982877 
4.763487e+2, 8.744011e+0, -48996.563, -789950.9, -6989.247, -0.0015550585, -0.00015998553, -48930.64, -48930.64, 0.0, 2.5007408, 2.4982877 
4.7634852e+2, 1.1242386e+1, -6538.064, -692844.7, -31655.73, -0.0015325563, -0.000069221074, -5081.044, -5081.044, 0.0, 2.5007312, 2.4984589 
4.7634822e+2, 1.3740845e+1, -14526.004, -696556.1, -29778.016, -0.0013535982, -0.000111058325, -13228.34, -13228.34, 0.0, 2.5007172, 2.498459 
4.7634795e+2, 1.6239305e+1, -22622.05, -700488.5, -27328.111, -0.0011807285, -0.00016516187, -21522.105, -21522.105, 0.0, 2.5007033, 2.498459 
4.7634766e+2, 1.8737766e+1, -30719.994, -704421.75, -24878.781, -0.001014099, -0.0002312748, -29802.508, -29802.508, 0.0, 2.5006895, 2.498459 
4.7634733e+2, 2.1236317e+1, 10727.292, -603816.8, -42665.734, -0.0009464922, -0.00016373263, 13675.289, 13675.289, 0.0, 2.500674, 2.498639 
4.7634688e+2, 2.3734957e+1, 318.76675, -608672.56, -41304.035, -0.0008001673, -0.00023745553, 3107.3892, 3107.3892, 0.0, 2.500656, 2.4986393 
4.7634646e+2, 2.6233596e+1, -10230.95, -613817.4, -38911.58, -0.00065659086, -0.00029898592, -7732.766, -7732.766, 0.0, 2.5006378, 2.4986393 
4.7634605e+2, 2.8732234e+1, -20781.957, -618962.75, -36519.195, -0.0005162092, -0.00034762977, -18560.693, -18560.693, 0.0, 2.5006196, 2.498639 
4.7634557e+2, 3.1230965e+1, 19054.748, -519252.72, -47442.19, -0.0004732618, -0.00022272526, 23203.95, 23203.95, 0.0, 2.5006015, 2.498819 
4.7634506e+2, 3.3729786e+1, 7945.376, -524405.75, -46501.676, -0.000409399, -0.00019358683, 11976.838, 11976.838, 0.0, 2.5005822, 2.4988194 
4.7634456e+2, 3.6228606e+1, -3335.98, -529909.7, -44329.465, -0.00035278467, -0.00015996628, 369.80402, 369.80402, 0.0, 2.500563, 2.4988194 
4.7634402e+2, 3.8727424e+1, -14619.104, -535414.5, -42157.977, -0.0003039103, -0.00012095929, -11228.522, -11228.522, 0.0, 2.5005436, 2.498819 
4.7634348e+2, 4.1226336e+1, 23653.424, -438069.84, -47831.41, -0.00022042987, 0.00018339515, 28556.373, 28556.373, 0.0, 2.5005243, 2.4989955 
4.763429e+2, 4.3725336e+1, 12483.035, -442938.47, -47258.48, -0.00015732297, 0.00024781376, 17335.287, 17335.287, 0.0, 2.5005047, 2.4989965 
4.7634232e+2, 4.6224332e+1, 952.39166, -448548.88, -45543.027, -0.0001011, 0.0003216119, 5520.3457, 5520.3457, 0.0, 2.500485, 2.4989965 
4.7634172e+2, 4.8723328e+1, -10580.378, -454160.25, -43827.465, -0.000051611496, 0.0004069741, -6291.5166, -6291.5166, 0.0, 2.5004652, 2.4989963 
4.7634116e+2, 5.1222414e+1, 26851.652, -358234.9, -45047.344, 0.00014213861, 0.0007048134, 32051.078, 32051.078, 0.0, 2.5004456, 2.4991703 
4.7634056e+2, 5.372158e+1, 15909.302, -362624.84, -44558.063, 0.00006497295, 0.00059435616, 21083.598, 21083.598, 0.0, 2.5004258, 2.4991722 
4.7633997e+2, 5.622075e+1, 4378.2373, -368232.13, -43173.37, -0.0000223786, 0.00048803177, 9315.208, 9315.208, 0.0, 2.500406, 2.4991722 
4.7633937e+2, 5.871992e+1, -7155.0425, -373840.47, -41789.418, -0.00011778739, 0.0003891523, -2452.798, -2452.798, 0.0, 2.5003865, 2.499172 
4.7633877e+2, 6.121918e+1, 29748.201, -278984.78, -39266.0, 0.00009849428, 0.0006665656, 34663.95, 34663.95, 0.0, 2.5003667, 2.4993443 
4.7633818e+2, 6.371853e+1, 19079.113, -282711.25, -38817.54, 0.00002847965, 0.0006023517, 23992.01, 23992.01, 0.0, 2.500347, 2.4993474 
4.7633755e+2, 6.6217875e+1, 7491.808, -288339.13, -37792.117, -0.000054717333, 0.00054544397, 12243.396, 12243.396, 0.0, 2.500327, 2.4993474 
4.76337e+2, 6.871722e+1, -4097.7085, -293968.03, -36767.234, -0.00014746937, 0.00050022046, 493.14984, 493.14984, 0.0, 2.5003073, 2.4993472 
4.763364e+2, 7.1216655e+1, 32617.447, -199609.31, -30873.582, 0.00038563804, 0.0009206787, 36651.87, 36651.87, 0.0, 2.5002878, 2.4995186 
4.7633582e+2, 7.371617e+1, 22603.28, -202092.17, -30489.309, 0.0004033901, 0.0007682503, 26666.934, 26666.934, 0.0, 2.500268, 2.4995239 
4.7633526e+2, 7.621569e+1, 11094.178, -207671.38, -29714.406, 0.00040336518, 0.0006118698, 15058.38, 15058.38, 0.0, 2.5002482, 2.4995239 
4.763347e+2, 7.871521e+1, -418.01718, -213252.06, -28939.977, 0.00039333792, 0.0004582952, 3446.8943, 3446.8943, 0.0, 2.5002286, 2.4995236 
4.7633412e+2, 8.121482e+1, 36097.434, -119169.6, -20312.836, 0.00027797726, 0.0008894889, 38710.875, 38710.875, 0.0, 2.5002089, 2.4996946 
4.7633362e+2, 8.3714515e+1, 26448.967, -120216.11, -19939.832, -0.0000048555817, 0.00069623324, 29111.547, 29111.547, 0.0, 2.5001886, 2.4997027 
4.763331e+2, 8.621422e+1, 14546.848, -125927.805, -19291.84, -0.00029143755, 0.000489136, 17148.09, 17148.09, 0.0, 2.500168, 2.4997027 
4.7633258e+2, 8.8713914e+1, 2638.7205, -131642.39, -18643.982, -0.00058114075, 0.0002767393, 5179.24, 5179.24, 0.0, 2.5001476, 2.499703 
4.7633213e+2, 9.12137e+1, 39086.895, -36058.17, -8105.21, 0.0012898296, 0.0008346218, 39951.188, 39951.188, 0.0, 2.5001261, 2.4998772 
4.7633165e+2, 9.371359e+1, 28205.906, -36098.73, -8530.085, 0.00084179925, 0.0008182152, 29318.193, 29318.193, 0.0, 2.5001018, 2.499889 
4.763312e+2, 9.621346e+1, 14069.315, -42868.133, -8086.551, 0.00031883895, 0.0007690717, 15195.532, 15195.532, 0.0, 2.5000775, 2.499889 
4.7633073e+2, 9.871335e+1, -79.66536, -49643.5, -7642.9546, -0.00024588848, 0.0006973619, 1072.144, 1072.144, 0.0, 2.5000532, 2.4998891 
4.7884977e+2, 1.24915205e+0, -39869.47, -778375.06, -14910.606, -0.0023801937, -0.000042304404, -39568.543, -39568.543, 0.0, 2.5007486, 2.4983037 
4.7884965e+2, 3.747456e+0, -43131.02, -780140.75, -12790.067, -0.002481273, -0.00012679855, -42909.13, -42909.13, 0.0, 2.5007432, 2.4983034 
4.7884956e+2, 6.24576e+0, -46336.465, -781688.25, -10590.795, -0.0025896155, -0.00021113957, -46183.965, -46183.965, 0.0, 2.5007377, 2.4983034 
4.7884944e+2, 8.7440646e+0, -49605.516, -783266.44, -8398.656, -0.0027052227, -0.00029532754, -49509.383, -49509.383, 0.0, 2.5007322, 2.4983034 
4.7884923e+2, 1.1242455e+1, -7016.8975, -685968.06, -34487.5, -0.0026275958, -0.00014145115, -5269.593, -5269.593, 0.0, 2.5007226, 2.4984748 
4.7884893e+2, 1.3740933e+1, -14718.88, -689430.0, -32681.57, -0.0023109275, -0.0001689036, -13139.551, -13139.551, 0.0, 2.500709, 2.4984753 
4.7884864e+2, 1.6239409e+1, -22628.018, -693270.56, -30330.889, -0.002003761, -0.0002123395, -21259.049, -21259.049, 0.0, 2.5006957, 2.4984753 
4.7884837e+2, 1.8737884e+1, -30569.283, -697126.56, -27992.889, -0.0017061654, -0.0002713488, -29395.754, -29395.754, 0.0, 2.500682, 2.498475 
4.7884798e+2, 2.123645e+1, 10953.319, -596703.8, -46508.773, -0.0015229658, -0.00017087917, 14492.389, 14492.389, 0.0, 2.5006669, 2.4986548 
4.7884753e+2, 2.3735106e+1, 866.0769, -601334.44, -45255.555, -0.0013107584, -0.00029894867, 4248.0527, 4248.0527, 0.0, 2.5006492, 2.4986553 
4.7884712e+2, 2.623376e+1, -9432.077, -606357.6, -42944.82, -0.0011039793, -0.00041562322, -6358.3105, -6358.3105, 0.0, 2.5006316, 2.498655 
4.7884664e+2, 2.8732416e+1, -19757.408, -611393.94, -40627.887, -0.0009029841, -0.0005199388, -16980.512, -16980.512, 0.0, 2.500614, 2.498655 
4.788462e+2, 3.1231162e+1, 19943.686, -512425.28, -51753.6, -0.0008121416, -0.00037174413, 24928.18, 24928.18, 0.0, 2.500596, 2.4988334 
4.7884566e+2, 3.3729994e+1, 9154.922, -517391.97, -50908.348, -0.0007243186, -0.0003089299, 14031.746, 14031.746, 0.0, 2.5005774, 2.498834 
4.788451e+2, 3.6228833e+1, -1869.9574, -522772.72, -48781.258, -0.00064626284, -0.00024373211, 2658.912, 2658.912, 0.0, 2.5005584, 2.4988337 
4.7884458e+2, 3.8727665e+1, -12940.389, -528175.4, -46654.957, -0.00057842233, -0.00017501178, -8749.826, -8749.826, 0.0, 2.5005395, 2.4988334 
4.78844e+2, 4.122659e+1, 24668.746, -432632.06, -52413.176, -0.00041356363, 0.00026993116, 30599.135, 30599.135, 0.0, 2.5005207, 2.4990065 
4.7884342e+2, 4.37256e+1, 13887.268, -437193.6, -51800.11, -0.00028470575, 0.00042115952, 19759.32, 19759.32, 0.0, 2.5005016, 2.499008 
4.788428e+2, 4.622461e+1, 2601.0989, -442683.56, -50053.926, -0.0001664923, 0.0005773046, 8158.248, 8158.248, 0.0, 2.5004823, 2.4990077 
4.7884223e+2, 4.8723617e+1, -8758.246, -448208.8, -48320.81, -0.000058453716, 0.0007411951, -3507.7512, -3507.7512, 0.0, 2.5004628, 2.4990077 
4.788416e+2, 5.122271e+1, 28205.309, -353577.44, -49510.848, 0.00017817935, 0.0011166405, 34521.543, 34521.543, 0.0, 2.5004437, 2.4991794 
4.7884098e+2, 5.372189e+1, 17579.152, -357698.66, -48931.836, 0.00007558696, 0.0009570031, 23854.361, 23854.361, 0.0, 2.5004244, 2.4991815 
4.7884035e+2, 5.6221074e+1, 6224.418, -363223.0, -47468.35, -0.00004109219, 0.000798907, 12225.886, 12225.886, 0.0, 2.5004048, 2.4991815 
4.7883976e+2, 5.8720255e+1, -5198.197, -368780.03, -46012.992, -0.00016949464, 0.00064626284, 534.5725, 534.5725, 0.0, 2.5003853, 2.4991813 
4.788391e+2, 6.121952e+1, 31158.693, -275247.94, -43460.42, 0.000060486967, 0.000933722, 37203.813, 37203.813, 0.0, 2.500366, 2.4993513 
4.788385e+2, 6.371887e+1, 20631.037, -278897.3, -42883.35, 0.000010488309, 0.00087528274, 26649.691, 26649.691, 0.0, 2.5003462, 2.4993544 
4.7883788e+2, 6.621822e+1, 9105.368, -284499.47, -41743.453, -0.000056962257, 0.00082499854, 14924.92, 14924.92, 0.0, 2.5003266, 2.4993541 
4.7883728e+2, 6.8717575e+1, -2494.3218, -290137.28, -40593.82, -0.00013801834, 0.0007876494, 3124.7424, 3124.7424, 0.0, 2.5003066, 2.4993541 
4.7883666e+2, 7.121701e+1, 33767.625, -196791.89, -34572.676, 0.000410557, 0.0012876404, 38840.24, 38840.24, 0.0, 2.5002873, 2.4995236 
4.788361e+2, 7.371654e+1, 23795.576, -199191.53, -34149.77, 0.0004986756, 0.0011003856, 28908.28, 28908.28, 0.0, 2.5002675, 2.4995291 
4.7883552e+2, 7.6216066e+1, 12183.34, -204825.66, -33274.895, 0.00056234974, 0.00091418024, 17170.889, 17170.889, 0.0, 2.5002477, 2.499529 
4.788349e+2, 7.871559e+1, 465.9152, -210510.47, -32376.523, 0.000608945, 0.0007368285, 5322.628, 5322.628, 0.0, 2.5002277, 2.499529 
4.7883436e+2, 8.12152e+1, 36624.285, -116956.49, -23735.58, 0.00041894207, 0.0012312678, 40208.9, 40208.9, 0.0, 2.5002077, 2.499699 
4.788338e+2, 8.37149e+1, 26801.598, -118015.125, -23333.896, 0.00008950387, 0.0009968834, 30468.473, 30468.473, 0.0, 2.500187, 2.4997072 
4.788333e+2, 8.621461e+1, 14517.741, -123914.4, -22593.264, -0.0002554371, 0.00075153506, 18111.834, 18111.834, 0.0, 2.5001657, 2.4997072 
4.7883272e+2, 8.871431e+1, 2068.4595, -129893.33, -21837.693, -0.00061640097, 0.00050498196, 5588.38, 5588.38, 0.0, 2.5001445, 2.4997075 
4.7883224e+2, 9.12141e+1, 38050.23, -35008.43, -11664.057, 0.0014097188, 0.0010627294, 39867.246, 39867.246, 0.0, 2.5001228, 2.4998808 
4.7883177e+2, 9.3713987e+1, 27049.594, -35194.5, -12055.665, 0.00096706365, 0.0010491202, 29303.0, 29303.0, 0.0, 2.5000982, 2.4998922 
4.7883126e+2, 9.621388e+1, 12482.074, -42167.824, -11536.501, 0.00042605982, 0.0009982698, 14817.599, 14817.599, 0.0, 2.5000732, 2.4998922 
4.7883078e+2, 9.871376e+1, -2465.3599, -49324.047, -11070.382, -0.00017818589, 0.0009203991, 18.372492, 18.372492, 0.0, 2.5000474, 2.4998922 
4.813505e+2, 1.2491628e+0, -32563.604, -765542.56, -14864.465, -0.00091079925, -0.000008186395, -32262.283, -32262.283, 0.0, 2.5007513, 2.4983246 
4.813504e+2, 3.7474883e+0, -36898.67, -767836.06, -10733.215, -0.001025291, -0.000026064748, -36741.098, -36741.098, 0.0, 2.5007439, 2.4983242 
4.8135027e+2, 6.245814e+0, -41115.87, -769879.06, -6520.337, -0.00113484, -0.00004594933, -41057.535, -41057.535, 0.0, 2.5007367, 2.4983242 
4.8135015e+2, 8.7441385e+0, -45336.477, -771923.6, -2307.643, -0.0012394442, -0.00006783913, -45329.15, -45329.15, 0.0, 2.5007296, 2.498324 
4.8134997e+2, 1.1242552e+1, -4195.528, -675198.4, -27792.416, -0.0012201524, 0.00007893537, -3046.3557, -3046.3557, 0.0, 2.5007174, 2.4984958 
4.8134965e+2, 1.3741049e+1, -14208.204, -679800.44, -24294.098, -0.0010386585, 0.000029612062, -13322.648, -13322.648, 0.0, 2.5007, 2.4984963 
4.8134935e+2, 1.6239546e+1, -24382.52, -684734.3, -20221.773, -0.00085369335, 0.000020211472, -23763.852, -23763.852, 0.0, 2.5006826, 2.498496 
4.8134902e+2, 1.8738045e+1, -34558.934, -689669.06, -16148.688, -0.00066530635, 0.000051145882, -34161.1, -34161.1, 0.0, 2.500665, 2.498496 
4.8134866e+2, 2.1236631e+1, 5027.7734, -590859.25, -33469.55, -0.00058418565, 0.00021652429, 6901.784, 6901.784, 0.0, 2.5006473, 2.4986742 
4.813482e+2, 2.3735306e+1, -5850.695, -595910.2, -30973.637, -0.00049656426, 0.00011241744, -4229.27, -4229.27, 0.0, 2.5006282, 2.4986746 
4.813477e+2, 2.623398e+1, -16878.613, -601267.7, -27392.957, -0.00040761987, 0.000011608199, -15597.391, -15597.391, 0.0, 2.5006094, 2.4986744 
4.8134726e+2, 2.8732654e+1, -27907.674, -606625.7, -23812.504, -0.00031763484, -0.00008503751, -26929.516, -26929.516, 0.0, 2.5005906, 2.4986744 
4.813468e+2, 3.1231418e+1, 10488.216, -509636.1, -33986.746, -0.00031711406, 0.000019806523, 12699.626, 12699.626, 0.0, 2.500572, 2.4988496 
4.8134622e+2, 3.373027e+1, -462.90125, -514693.3, -32525.398, -0.0003156097, -0.0000071573822, 1586.1857, 1586.1857, 0.0, 2.500553, 2.49885 
4.8134565e+2, 3.622912e+1, -11591.909, -520112.84, -29733.813, -0.00031327602, -0.000023315439, -9859.242, -9859.242, 0.0, 2.5005338, 2.49885 
4.813451e+2, 3.872797e+1, -22723.416, -525533.56, -26942.627, -0.0003104687, -0.00002750929, -21283.84, -21283.84, 0.0, 2.5005147, 2.4988499 
4.8134452e+2, 4.1226906e+1, 13924.035, -432000.44, -32139.363, -0.00019296931, 0.00034071517, 16228.523, 16228.523, 0.0, 2.5004961, 2.4990194 
4.813439e+2, 4.372593e+1, 3218.7808, -436523.2, -31224.885, -0.00013170572, 0.00035982468, 5424.907, 5424.907, 0.0, 2.500477, 2.4990208 
4.813433e+2, 4.622495e+1, -7933.4116, -441965.47, -29153.615, -0.00007510445, 0.00038876585, -5983.9404, -5983.9404, 0.0, 2.500458, 2.4990208 
4.8134264e+2, 4.872397e+1, -19089.428, -447409.6, -27083.742, -0.000022532491, 0.0004305707, -17383.65, -17383.65, 0.0, 2.500439, 2.4990206 
4.8134205e+2, 5.1223075e+1, 17093.719, -354570.44, -28113.271, 0.00018129141, 0.0007135207, 19208.223, 19208.223, 0.0, 2.5004199, 2.4991891 
4.813414e+2, 5.372226e+1, 6513.344, -358734.16, -27676.992, 0.000062505474, 0.000546876, 8598.689, 8598.689, 0.0, 2.5004005, 2.499191 
4.8134077e+2, 5.622145e+1, -4692.2827, -364191.4, -26366.875, -0.000057073747, 0.0003901715, -2768.7397, -2768.7397, 0.0, 2.5003815, 2.499191 
4.813401e+2, 5.872064e+1, -15900.626, -369649.97, -25057.5, -0.00017505456, 0.00024701486, -14134.52, -14134.52, 0.0, 2.5003624, 2.4991908 
4.8133948e+2, 6.121991e+1, 19696.98, -277731.8, -22760.201, 0.00006452761, 0.0005218464, 21428.584, 21428.584, 0.0, 2.5003428, 2.499358 
4.8133883e+2, 6.371927e+1, 9323.084, -281315.94, -22521.916, -0.00002680016, 0.00038381075, 11057.974, 11057.974, 0.0, 2.5003235, 2.499361 
4.813382e+2, 6.6218626e+1, -1964.4956, -286795.5, -21759.242, -0.00011646266, 0.00023386996, -311.81995, -311.81995, 0.0, 2.5003042, 2.499361 
4.8133755e+2, 6.8717986e+1, -13254.165, -292276.1, -20997.246, -0.00020035729, 0.000076860226, -11682.907, -11682.907, 0.0, 2.500285, 2.4993608 
4.8133695e+2, 7.121743e+1, 22172.572, -200243.03, -15409.304, 0.00037918953, 0.00051864865, 23235.076, 23235.076, 0.0, 2.5002651, 2.4995284 
4.8133633e+2, 7.371696e+1, 11856.017, -202821.61, -15434.15, 0.00043774888, 0.00036216454, 12959.971, 12959.971, 0.0, 2.5002449, 2.499534 
4.8133573e+2, 7.621649e+1, 34.06156, -208523.36, -15047.223, 0.0004908033, 0.00019307838, 1114.1115, 1114.1115, 0.0, 2.5002246, 2.4995337 
4.813351e+2, 7.8716016e+1, -11790.716, -214226.47, -14660.411, 0.0005461798, 0.000019002007, -10734.519, -10734.519, 0.0, 2.500204, 2.4995337 
4.8133454e+2, 8.121564e+1, 23847.254, -121198.805, -6468.1865, 0.00033990789, 0.00050702645, 24135.125, 24135.125, 0.0, 2.5001838, 2.4997034 
4.8133397e+2, 8.371535e+1, 14132.669, -122328.016, -6563.1377, -0.000011082828, 0.00023037959, 14447.6, 14447.6, 0.0, 2.5001633, 2.4997113 
4.813334e+2, 8.621505e+1, 2206.0498, -128041.24, -6328.943, -0.00034146314, -0.00007312938, 2512.8613, 2512.8613, 0.0, 2.5001428, 2.4997113 
4.8133287e+2, 8.871476e+1, -9727.615, -133757.86, -6094.4424, -0.0006517592, -0.00039372698, -9428.874, -9428.874, 0.0, 2.500122, 2.4997113 
4.8133236e+2, 9.1214556e+1, 26827.75, -38635.08, 3382.9473, 0.0015287756, 0.00005614592, 27002.107, 27002.107, 0.0, 2.5001016, 2.4998846 
4.8133186e+2, 9.371444e+1, 16742.393, -38609.457, 2525.2517, 0.0010443514, -0.000040663188, 16857.36, 16857.36, 0.0, 2.500079, 2.4998956 
4.8133132e+2, 9.6214324e+1, 3545.7458, -45004.4, 2711.0662, 0.0005819038, -0.00014197813, 3696.664, 3696.664, 0.0, 2.5000563, 2.4998956 
4.813308e+2, 9.871422e+1, -9669.739, -51408.418, 2899.343, 0.00017869378, -0.00023783471, -9469.301, -9469.301, 0.0, 2.5000336, 2.4998953 
4.8385128e+2, 1.249177e+0, -24728.795, -749271.2, -15958.479, 0.0022119165, 0.000010159899, -24377.47, -24377.47, 0.0, 2.5007513, 2.4983525 
4.8385116e+2, 3.7475306e+0, -29050.203, -751553.56, -11822.863, 0.0021511412, 0.000023136807, -28856.79, -28856.79, 0.0, 2.5007439, 2.498352 
4.8385105e+2, 6.2458843e+0, -33253.945, -753585.9, -7604.0737, 0.0020844627, 0.000026324458, -33173.68, -33173.68, 0.0, 2.5007367, 2.498352 
4.8385093e+2, 8.744238e+0, -37461.098, -755619.75, -3385.4683, 0.0020118824, 0.000019723948, -37445.137, -37445.137, 0.0, 2.5007296, 2.498352 
4.8385072e+2, 1.1242678e+1, 3453.4731, -659325.75, -30398.848, 0.0018770467, 0.00015710955, 4844.8174, 4844.8174, 0.0, 2.5007174, 2.498523 
4.8385036e+2, 1.3741203e+1, -6619.476, -664046.56, -26932.508, 0.0017650131, 0.00017448906, -5517.99, -5517.99, 0.0, 2.5007, 2.4985232 
4.8385003e+2, 1.623973e+1, -16793.264, -668972.9, -22848.732, 0.0016522058, 0.00022950137, -15993.752, -15993.752, 0.0, 2.5006826, 2.4985232 
4.838497e+2, 1.8738252e+1, -26969.15, -673900.1, -18764.195, 0.0015385299, 0.00032245112, -26425.354, -26425.354, 0.0, 2.500665, 2.4985232 
4.8384932e+2, 2.1236868e+1, 11762.32, -576894.5, -36279.574, 0.001357649, 0.000521653, 13989.841, 13989.841, 0.0, 2.5006473, 2.498698 
4.8384884e+2, 2.3735565e+1, 829.154, -582058.56, -33832.063, 0.0011946461, 0.0004895435, 2786.269, 2786.269, 0.0, 2.5006282, 2.4986982 
4.8384836e+2, 2.6234263e+1, -10200.0625, -587418.1, -30248.145, 0.0010301218, 0.00046200122, -8619.289, -8619.289, 0.0, 2.5006094, 2.4986982 
4.8384786e+2, 2.8732964e+1, -21230.422, -592778.25, -26664.451, 0.0008638728, 0.00043974005, -19989.139, -19989.139, 0.0, 2.5005906, 2.4986982 
4.8384735e+2, 3.1231746e+1, 15775.528, -498716.72, -36818.324, 0.00068068283, 0.00045099301, 18396.98, 18396.98, 0.0, 2.500572, 2.4988685 
4.8384678e+2, 3.3730614e+1, 4785.486, -503862.38, -35401.824, 0.00052846875, 0.00020859457, 7237.6265, 7237.6265, 0.0, 2.500553, 2.4988687 
4.838462e+2, 3.622948e+1, -6338.413, -509278.5, -32606.422, 0.00037143368, -0.000024963529, -4233.297, -4233.297, 0.0, 2.500534, 2.4988687 
4.8384562e+2, 3.8728347e+1, -17464.81, -514695.84, -29811.422, 0.00020936747, -0.00024872157, -15683.849, -15683.849, 0.0, 2.500515, 2.4988685 
4.83845e+2, 4.12273e+1, 17936.146, -423767.34, -34994.15, 0.00018559519, -0.00013575591, 20691.387, 20691.387, 0.0, 2.5004961, 2.4990335 
4.8384437e+2, 4.372633e+1, 7181.4805, -428416.72, -34091.51, 0.00013671267, -0.00031216835, 9833.461, 9833.461, 0.0, 2.500477, 2.4990346 
4.8384374e+2, 4.6225366e+1, -3952.7058, -433845.4, -32010.277, 0.00007302893, -0.00048870425, -1582.2565, -1582.2565, 0.0, 2.500458, 2.4990346 
4.8384312e+2, 4.8724395e+1, -15090.717, -439275.97, -29930.438, -0.000004869641, -0.0006627594, -12989.241, -12989.241, 0.0, 2.500439, 2.4990344 
4.8384246e+2, 5.122351e+1, 19669.902, -349283.47, -31074.709, 0.00016465597, -0.0005187309, 22268.83, 22268.83, 0.0, 2.5004199, 2.499198 
4.838418e+2, 5.372271e+1, 9019.097, -353605.28, -30577.287, 0.00005320798, -0.00065485557, 11579.365, 11579.365, 0.0, 2.5004008, 2.4991999 
4.8384112e+2, 5.622191e+1, -2174.6729, -359050.8, -29258.873, -0.00006923462, -0.00078746525, 208.23634, 208.23634, 0.0, 2.5003815, 2.4991999 
4.838405e+2, 5.87211e+1, -13371.159, -364497.66, -27941.203, -0.00020007402, -0.0009134184, -11161.617, -11161.617, 0.0, 2.5003624, 2.4991996 
4.838398e+2, 6.1220384e+1, 21257.273, -274618.13, -25710.59, 0.000030373716, -0.00065948965, 23474.818, 23474.818, 0.0, 2.500343, 2.4993632 
4.8383918e+2, 6.371975e+1, 10858.49, -278256.56, -25437.84, -0.000120558354, -0.0008392226, 13079.579, 13079.579, 0.0, 2.5003238, 2.4993663 
4.838385e+2, 6.621911e+1, -433.59076, -283747.84, -24668.643, -0.0002762458, -0.0010277929, 1698.3065, 1698.3065, 0.0, 2.5003045, 2.499366 
4.8383784e+2, 6.8718475e+1, -11727.762, -289240.16, -23900.123, -0.00043238178, -0.0012205006, -9684.463, -9684.463, 0.0, 2.5002851, 2.499366 
4.8383722e+2, 7.1217924e+1, 23152.049, -198419.44, -18547.94, 0.00014138171, -0.00081267254, 24693.982, 24693.982, 0.0, 2.5002654, 2.4995315 
4.838366e+2, 7.371745e+1, 12770.188, -201120.17, -18502.824, 0.000094936215, -0.0008870954, 14358.994, 14358.994, 0.0, 2.500245, 2.4995365 
4.8383594e+2, 7.621699e+1, 933.112, -206838.88, -18102.861, 0.000035061148, -0.00096843793, 2498.5918, 2498.5918, 0.0, 2.5002246, 2.4995365 
4.8383534e+2, 7.871652e+1, -10906.787, -212558.95, -17703.012, -0.000029565535, -0.0010497798, -9364.439, -9364.439, 0.0, 2.5002043, 2.4995365 
4.838347e+2, 8.121614e+1, 24693.01, -119733.16, -9602.118, -0.00030789658, -0.00048758677, 25328.605, 25328.605, 0.0, 2.500184, 2.4997058 
4.8383415e+2, 8.371585e+1, 14827.882, -121156.76, -9670.215, -0.00072305906, -0.0006897999, 15512.112, 15512.112, 0.0, 2.5001636, 2.4997132 
4.8383355e+2, 8.621556e+1, 2878.9954, -126896.234, -9425.001, -0.0011334512, -0.0009105421, 3559.9187, 3559.9187, 0.0, 2.500143, 2.4997132 
4.83833e+2, 8.8715273e+1, -9076.9375, -132639.1, -9179.481, -0.0015393068, -0.001140309, -8398.713, -8398.713, 0.0, 2.5001223, 2.4997132 
4.8383245e+2, 9.121506e+1, 27635.621, -37324.656, 47.762173, 0.00074104604, -0.00066412624, 27635.656, 27635.656, 0.0, 2.5001018, 2.4998868 
4.838319e+2, 9.371496e+1, 17452.441, -37518.297, -874.19653, 0.00022084001, -0.00077008235, 17466.34, 17466.34, 0.0, 2.5000794, 2.4998972 
4.8383138e+2, 9.621484e+1, 4277.386, -43882.18, -666.6145, -0.00031216355, -0.0008788805, 4286.612, 4286.612, 0.0, 2.5000567, 2.4998972 
4.8383084e+2, 9.871474e+1, -8916.506, -50255.14, -456.5701, -0.0008190423, -0.0009809273, -8911.464, -8911.464, 0.0, 2.500034, 2.4998972 
4.863521e+2, 1.249191e+0, -16893.209, -732998.25, -17053.117, 0.0053326203, 0.000023634399, -16487.342, -16487.342, 0.0, 2.5007513, 2.4983804 
4.8635197e+2, 3.747573e+0, -21204.998, -735277.9, -12913.101, 0.0053215385, 0.00005772276, -20971.557, -20971.557, 0.0, 2.500744, 2.49838 
4.8635185e+2, 6.245955e+0, -25395.281, -737299.5, -8688.398, 0.0052937064, 0.00007423861, -25289.262, -25289.262, 0.0, 2.5007367, 2.49838 
4.863517e+2, 8.7443364e+0, -29588.98, -739322.7, -4463.881, 0.005249126, 0.00007318311, -29560.906, -29560.906, 0.0, 2.5007296, 2.49838 
4.8635146e+2, 1.1242805e+1, 11001.9795, -643661.94, -33017.883, 0.004976855, 0.0002810277, 12663.018, 12663.018, 0.0, 2.5007174, 2.4985497 
4.863511e+2, 1.3741356e+1, 963.18506, -648305.3, -29571.615, 0.0045672473, 0.0003323996, 2307.273, 2307.273, 0.0, 2.5007, 2.4985502 
4.8635077e+2, 1.623991e+1, -9210.076, -653224.06, -25476.39, 0.004152571, 0.00041887845, -8203.834, -8203.834, 0.0, 2.5006826, 2.4985502 
4.8635042e+2, 1.8738462e+1, -19385.436, -658143.75, -21380.4, 0.0037327353, 0.000540898, -18670.596, -18670.596, 0.0, 2.500665, 2.4985502 
4.8634997e+2, 2.1237102e+1, 18386.639, -563158.8, -39084.266, 0.0032990447, 0.00085124816, 21001.639, 21001.639, 0.0, 2.5006473, 2.4987216 
4.863495e+2, 2.3735827e+1, 7506.3867, -568212.5, -36690.023, 0.0028858646, 0.0008818539, 9835.1875, 9835.1875, 0.0, 2.5006285, 2.498722 
4.8634896e+2, 2.623455e+1, -3524.128, -573574.1, -33102.863, 0.0024682693, 0.00091782934, -1608.2799, -1608.2799, 0.0, 2.5006094, 2.498722 
4.8634848e+2, 2.873327e+1, -14555.784, -578936.25, -29515.93, 0.002046184, 0.0009602037, -13016.361, -13016.361, 0.0, 2.5005906, 2.4987218 
4.8634794e+2, 3.1232077e+1, 21041.604, -487841.53, -39642.125, 0.0016849373, 0.0008849164, 24111.219, 24111.219, 0.0, 2.5005722, 2.498887 
4.8634732e+2, 3.373096e+1, 10031.582, -493036.22, -38277.965, 0.0013770832, 0.0004188665, 12927.447, 12927.447, 0.0, 2.5005531, 2.4988873 
4.8634675e+2, 3.6229843e+1, -1087.2074, -498449.03, -35478.746, 0.0010587267, -0.00004041922, 1430.8802, 1430.8802, 0.0, 2.500534, 2.498887 
4.8634613e+2, 3.8728726e+1, -12208.495, -503862.97, -32679.93, 0.0007298341, -0.0004920688, -10045.796, -10045.796, 0.0, 2.500515, 2.498887 
4.8634553e+2, 4.1227692e+1, 21909.389, -415615.06, -37850.625, 0.0005645469, -0.0006112197, 25159.732, 25159.732, 0.0, 2.5004964, 2.4990475 
4.8634484e+2, 4.3726733e+1, 11140.617, -420317.7, -36957.676, 0.00039981367, -0.0010047164, 14283.43, 14283.43, 0.0, 2.5004773, 2.4990485 
4.8634422e+2, 4.622578e+1, 24.436987, -425732.84, -34866.477, 0.00021013123, -0.0014085744, 2860.8557, 2860.8557, 0.0, 2.5004582, 2.4990485 
4.8634353e+2, 4.8724824e+1, -11095.567, -431149.78, -32776.67, -0.000003951582, -0.0018203343, -8553.401, -8553.401, 0.0, 2.5004392, 2.4990482 
4.8634288e+2, 5.122395e+1, 22115.824, -344267.13, -34069.64, 0.00017665663, -0.0017122473, 25257.0, 25257.0, 0.0, 2.5004199, 2.4992065 
4.863422e+2, 5.3723156e+1, 11521.767, -348482.9, -33477.473, 0.000066964574, -0.001834361, 14608.432, 14608.432, 0.0, 2.5004008, 2.4992087 
4.8634154e+2, 5.622236e+1, 339.85403, -353916.7, -32150.762, -0.00006442283, -0.0019605951, 3234.07, 3234.07, 0.0, 2.5003817, 2.4992085 
4.8634082e+2, 5.8721566e+1, -10844.774, -359351.8, -30824.797, -0.00021420217, -0.0020870636, -8139.381, -8139.381, 0.0, 2.5003624, 2.4992085 
4.8634014e+2, 6.1220855e+1, 22774.236, -271594.56, -28657.912, -0.0000037837149, -0.0018340915, 25538.24, 25538.24, 0.0, 2.5003433, 2.4993684 
4.8633948e+2, 6.3720226e+1, 12390.966, -275203.34, -28352.559, -0.0002082638, -0.002071364, 15159.459, 15159.459, 0.0, 2.5003238, 2.4993715 
4.863388e+2, 6.621959e+1, 1094.3838, -280706.38, -27576.838, -0.00042382703, -0.0023148197, 3767.6753, 3767.6753, 0.0, 2.5003045, 2.4993713 
4.8633814e+2, 6.871896e+1, -10204.289, -286210.38, -26801.797, -0.00064605556, -0.00255948, -7625.7676, -7625.7676, 0.0, 2.5002851, 2.499371 
4.8633745e+2, 7.1218413e+1, 24011.266, -196845.75, -21666.35, -0.00011153435, -0.0020953317, 26116.69, 26116.69, 0.0, 2.5002656, 2.4995341 
4.8633683e+2, 7.371795e+1, 13680.037, -199427.78, -21570.434, -0.00025169645, -0.0021202716, 15841.44, 15841.44, 0.0, 2.500245, 2.4995394 
4.8633617e+2, 7.6217484e+1, 1827.839, -205163.45, -21157.432, -0.00041272677, -0.0021477567, 3968.2932, 3968.2932, 0.0, 2.5002248, 2.4995394 
4.8633552e+2, 7.871702e+1, -10027.183, -210900.48, -20744.547, -0.0005855829, -0.0021702491, -7907.229, -7907.229, 0.0, 2.5002046, 2.4995394 
4.863349e+2, 8.1216645e+1, 25372.336, -118613.33, -12694.605, -0.0009904966, -0.0014440723, 26482.998, 26482.998, 0.0, 2.5001843, 2.4997075 
4.863343e+2, 8.3716357e+1, 15519.697, -119992.625, -12774.913, -0.0014564854, -0.0015863355, 16713.486, 16713.486, 0.0, 2.5001638, 2.499715 
4.8633367e+2, 8.6216074e+1, 3548.544, -125758.34, -12518.681, -0.0019327101, -0.0017403001, 4749.372, 4749.372, 0.0, 2.5001433, 2.499715 
4.8633307e+2, 8.871578e+1, -8429.656, -131527.45, -12262.144, -0.0024199465, -0.001895225, -7220.0728, -7220.0728, 0.0, 2.5001228, 2.4997149 
4.8633254e+2, 9.1215575e+1, 28409.404, -36085.207, -3246.141, -0.00004581866, -0.0013636054, 28572.377, 28572.377, 0.0, 2.5001023, 2.4998887 
4.8633197e+2, 9.371547e+1, 18158.324, -36435.89, -4278.9155, -0.0006280854, -0.0015058314, 18491.656, 18491.656, 0.0, 2.5000799, 2.499899 
4.8633143e+2, 9.621536e+1, 5004.861, -42768.715, -4049.566, -0.0012575769, -0.0016499102, 5345.694, 5345.694, 0.0, 2.5000572, 2.499899 
4.8633087e+2, 9.871526e+1, -8167.4395, -49110.62, -3817.7537, -0.0018940553, -0.0017859436, -7814.495, -7814.495, 0.0, 2.5000346, 2.499899 
4.888529e+2, 1.249205e+0, -12554.918, -718432.8, -18236.525, 0.008535519, 0.000024380637, -12084.087, -12084.087, 0.0, 2.5007453, 2.498408 
4.888527e+2, 3.747615e+0, -16627.873, -720606.7, -14295.918, 0.008563842, 0.000056658166, -16337.681, -16337.681, 0.0, 2.5007384, 2.4984078 
4.888526e+2, 6.2460244e+0, -20667.822, -722552.6, -10295.008, 0.008566802, 0.000066948, -20516.852, -20516.852, 0.0, 2.5007315, 2.4984078 
4.8885244e+2, 8.744434e+0, -24807.533, -724546.56, -6321.6313, 0.008544395, 0.000055238128, -24750.426, -24750.426, 0.0, 2.5007243, 2.4984078 
4.888522e+2, 1.1242931e+1, 15437.295, -629680.06, -36676.758, 0.008150078, 0.00041059926, 17515.777, 17515.777, 0.0, 2.5007124, 2.4985762 
4.8885185e+2, 1.3741511e+1, 5653.256, -633990.25, -33467.566, 0.00743716, 0.00046103768, 7399.5854, 7399.5854, 0.0, 2.500695, 2.498577 
4.8885146e+2, 1.6240092e+1, -4454.854, -638870.94, -29588.986, 0.006715803, 0.000541819, -3077.8208, -3077.8208, 0.0, 2.5006776, 2.498577 
4.888511e+2, 1.873867e+1, -14627.059, -643782.44, -25708.768, 0.0059859585, 0.0006537517, -13578.286, -13578.286, 0.0, 2.5006602, 2.498577 
4.8885065e+2, 2.1237338e+1, 22143.254, -550988.6, -43754.457, 0.005307088, 0.0011458321, 25464.346, 25464.346, 0.0, 2.5006425, 2.4987447 
4.8885012e+2, 2.3736084e+1, 11556.804, -555643.6, -41518.14, 0.0046407674, 0.0012251511, 14579.753, 14579.753, 0.0, 2.500624, 2.498746 
4.888496e+2, 2.6234832e+1, 618.64294, -560961.25, -38020.063, 0.0039679147, 0.0013107508, 3180.9846, 3180.9846, 0.0, 2.500605, 2.4987457 
4.888491e+2, 2.8733578e+1, -10360.686, -566298.6, -34514.63, 0.0032886167, 0.0014044088, -8226.089, -8226.089, 0.0, 2.5005863, 2.4987457 
4.888485e+2, 3.1232405e+1, 23952.422, -478127.9, -44651.89, 0.0027512023, 0.0012497222, 27892.56, 27892.56, 0.0, 2.5005682, 2.4989057 
4.888479e+2, 3.3731306e+1, 13153.527, -483230.22, -43371.375, 0.002280485, 0.0005562816, 16914.59, 16914.59, 0.0, 2.5005496, 2.498906 
4.8884726e+2, 3.62302e+1, 2174.4026, -488574.78, -40597.52, 0.0017950628, -0.00013131365, 5510.182, 5510.182, 0.0, 2.5005307, 2.4989057 
4.8884666e+2, 3.8729104e+1, -8885.017, -493957.97, -37829.223, 0.0012950827, -0.00081219577, -5952.5693, -5952.5693, 0.0, 2.500512, 2.4989057 
4.88846e+2, 4.122808e+1, 24047.61, -408391.63, -42988.785, 0.0009845363, -0.0011323876, 28279.707, 28279.707, 0.0, 2.5004933, 2.4990613 
4.8884535e+2, 4.372714e+1, 13468.243, -412993.66, -42079.344, 0.00069459097, -0.0017549904, 17580.592, 17580.592, 0.0, 2.5004747, 2.4990623 
4.8884466e+2, 4.6226192e+1, 2396.8289, -418382.34, -39960.79, 0.00037242429, -0.002396845, 6158.2236, 6158.2236, 0.0, 2.5004556, 2.4990623 
4.8884398e+2, 4.872525e+1, -8820.189, -423841.16, -37850.156, 0.00001849539, -0.0030554153, -5396.477, -5396.477, 0.0, 2.5004365, 2.499062 
4.888433e+2, 5.1224387e+1, 22803.543, -340279.88, -39204.957, 0.00025309366, -0.0028742922, 26988.57, 26988.57, 0.0, 2.5004172, 2.499215 
4.8884258e+2, 5.3723603e+1, 12648.409, -344005.53, -38292.266, 0.00013270699, -0.0029992247, 16713.342, 16713.342, 0.0, 2.5003984, 2.4992175 
4.888419e+2, 5.622282e+1, 1571.7158, -349385.03, -36799.914, -0.000017695857, -0.0031353033, 5388.8896, 5388.8896, 0.0, 2.5003796, 2.4992173 
4.8884118e+2, 5.872204e+1, -9669.605, -354843.78, -35343.164, -0.00019369647, -0.0032767914, -6087.905, -6087.905, 0.0, 2.5003603, 2.4992173 
4.8884052e+2, 6.122133e+1, 22960.139, -269259.78, -33106.33, -0.000016112046, -0.0029985888, 26663.895, 26663.895, 0.0, 2.5003412, 2.4993734 
4.888398e+2, 6.37207e+1, 12873.451, -272640.06, -32616.457, -0.0002718917, -0.003300195, 16552.09, 16552.09, 0.0, 2.500322, 2.4993765 
4.8883912e+2, 6.622007e+1, 1706.5524, -278090.97, -31686.537, -0.0005437932, -0.0036047124, 5250.1143, 5250.1143, 0.0, 2.500303, 2.4993765 
4.888384e+2, 6.8719447e+1, -9569.063, -283594.22, -30763.307, -0.00082739984, -0.003906519, -6157.899, -6157.899, 0.0, 2.5002837, 2.4993763 
4.8883775e+2, 7.12189e+1, 23903.041, -195908.86, -25673.352, -0.0003665903, -0.003285077, 26861.783, 26861.783, 0.0, 2.5002642, 2.4995363 
4.8883706e+2, 7.3718446e+1, 13808.563, -198099.72, -25388.38, -0.00058955915, -0.0032832506, 16807.852, 16807.852, 0.0, 2.5002441, 2.4995422 
4.888364e+2, 7.621798e+1, 1902.3303, -203872.81, -24806.543, -0.0008388717, -0.0032811929, 4850.5605, 4850.5605, 0.0, 2.5002236, 2.4995422 
4.8883572e+2, 7.8717524e+1, -10116.24, -209699.98, -24226.36, -0.0011056178, -0.0032695052, -7217.634, -7217.634, 0.0, 2.5002031, 2.499542 
4.888351e+2, 8.1217146e+1, 24784.514, -118356.625, -16068.235, -0.0016900795, -0.0022784101, 26566.072, 26566.072, 0.0, 2.5001829, 2.4997087 
4.8883444e+2, 8.3716863e+1, 15010.665, -119400.586, -16113.371, -0.0021923776, -0.0023616825, 16915.363, 16915.363, 0.0, 2.5001621, 2.4997168 
4.8883384e+2, 8.621658e+1, 2813.637, -125291.24, -15749.037, -0.0027167522, -0.0024517695, 4721.3916, 4721.3916, 0.0, 2.5001411, 2.4997168 
4.888332e+2, 8.871629e+1, -9497.7, -131236.95, -15373.614, -0.0032653708, -0.00253525, -7586.2827, -7586.2827, 0.0, 2.50012, 2.4997168 
4.8883265e+2, 9.1216093e+1, 27158.104, -35863.688, -6443.1226, -0.00079898466, -0.0019042803, 27810.08, 27810.08, 0.0, 2.5000992, 2.4998906 
4.8883206e+2, 9.371599e+1, 16599.135, -36442.527, -7606.425, -0.001465463, -0.0020934097, 17668.377, 17668.377, 0.0, 2.5000763, 2.4999006 
4.888315e+2, 9.621588e+1, 3000.2766, -42972.586, -7367.9966, -0.0022091267, -0.0022853806, 4152.267, 4152.267, 0.0, 2.500053, 2.4999006 
4.8883086e+2, 9.8715776e+1, -10814.664, -49606.66, -7166.4194, -0.0029888346, -0.0024693192, -9533.082, -9533.082, 0.0, 2.500029, 2.4999006 
4.9135354e+2, 1.2492241e+0, -17955.734, -702963.4, -17330.012, 0.003427287, -0.0000906195, -17517.584, -17517.584, 0.0, 2.5007164, 2.4984486 
4.913534e+2, 3.7476724e+0, -23399.49, -705831.5, -9108.442, 0.0034445005, -0.00023292651, -23277.941, -23277.941, 0.0, 2.5007074, 2.498448 
4.9135327e+2, 6.246121e+0, -28709.469, -708416.56, -812.5493, 0.0034811907, -0.00032332283, -28708.498, -28708.498, 0.0, 2.5006983, 2.498448 
4.9135312e+2, 8.74457e+0, -34022.47, -711002.75, 7483.0767, 0.0035373603, -0.0003618075, -33939.766, -33939.766, 0.0, 2.5006893, 2.498448 
4.9135286e+2, 1.1243103e+1, 4616.6826, -619217.3, -20466.832, 0.0034241097, -0.00015382581, 5287.44, 5287.44, 0.0, 2.5006769, 2.4986112 
4.9135247e+2, 1.3741714e+1, -4470.3813, -623320.44, -14385.869, 0.0031631514, -0.00032991866, -4136.146, -4136.146, 0.0, 2.500661, 2.498612 
4.9135208e+2, 1.6240326e+1, -13748.177, -627814.25, -7654.2876, 0.0029097956, -0.0005280397, -13652.782, -13652.782, 0.0, 2.500645, 2.498612 
4.913517e+2, 1.8738937e+1, -23029.129, -632309.4, -923.5404, 0.0026640196, -0.0007475824, -23027.729, -23027.729, 0.0, 2.5006292, 2.4986117 
4.9135125e+2, 2.1237631e+1, 12353.513, -543782.4, -17016.924, 0.0024341517, -0.0005145711, 12873.719, 12873.719, 0.0, 2.500613, 2.4987714 
4.913507e+2, 2.3736404e+1, 2822.8262, -547967.9, -13720.4795, 0.0021520616, -0.0005475903, 3164.3984, 3164.3984, 0.0, 2.500596, 2.4987724 
4.9135014e+2, 2.6235178e+1, -6982.9023, -552718.3, -9159.994, 0.0018776741, -0.00056309125, -6829.1978, -6829.1978, 0.0, 2.5005794, 2.4987721 
4.9134964e+2, 2.873395e+1, -16791.912, -557470.25, -4600.512, 0.0016111567, -0.00055937574, -16752.77, -16752.77, 0.0, 2.5005624, 2.4987721 
4.9134907e+2, 3.1232798e+1, 16100.49, -473600.28, -14244.867, 0.0014772556, -0.00052384543, 16514.508, 16514.508, 0.0, 2.5005457, 2.498924 
4.9134842e+2, 3.3731723e+1, 6211.072, -478395.63, -13078.279, 0.0013409238, -0.00071114505, 6563.7637, 6563.7637, 0.0, 2.5005288, 2.498924 
4.913478e+2, 3.6230645e+1, -3694.8208, -483219.3, -10433.736, 0.0012175094, -0.00086274004, -3467.9058, -3467.9058, 0.0, 2.500512, 2.498924 
4.9134713e+2, 3.872957e+1, -13603.48, -488044.25, -7789.378, 0.0011074268, -0.0009778077, -13475.628, -13475.628, 0.0, 2.500495, 2.4989238 
4.913465e+2, 4.1228566e+1, 18502.684, -405571.47, -13365.346, 0.00098584, -0.00086641306, 18923.496, 18923.496, 0.0, 2.5004778, 2.4990735 
4.913458e+2, 4.372764e+1, 8634.763, -410073.63, -13344.285, 0.00067376, -0.0011119491, 9059.616, 9059.616, 0.0, 2.5004606, 2.499074 
4.913451e+2, 4.6226707e+1, -1429.052, -414974.72, -12122.599, 0.00039198372, -0.001326318, -1073.9973, -1073.9973, 0.0, 2.5004435, 2.499074 
4.9134442e+2, 4.872578e+1, -11497.116, -419877.88, -10901.359, 0.00014115166, -0.00150726, -11206.321, -11206.321, 0.0, 2.5004263, 2.4990737 
4.913437e+2, 5.122493e+1, 19655.764, -338444.2, -13189.374, 0.00045854587, -0.0010753288, 20140.89, 20140.89, 0.0, 2.5004082, 2.4992223 
4.91343e+2, 5.372416e+1, 9094.313, -342552.94, -13345.98, 0.0004107888, -0.0011424319, 9600.103, 9600.103, 0.0, 2.500389, 2.4992244 
4.9134228e+2, 5.6223375e+1, -2148.9294, -348065.13, -12927.957, 0.00039313565, -0.0011836238, -1666.4448, -1666.4448, 0.0, 2.5003698, 2.4992242 
4.9134156e+2, 5.87226e+1, -13398.898, -353580.56, -12510.454, 0.00040995103, -0.0011934732, -12939.4375, -12939.4375, 0.0, 2.5003505, 2.499224 
4.9134085e+2, 6.1221904e+1, 18083.797, -270030.6, -11316.745, 0.0006141895, -0.00075011974, 18527.62, 18527.62, 0.0, 2.500331, 2.4993768 
4.9134013e+2, 6.372128e+1, 7519.805, -273690.75, -11836.478, 0.00022669016, -0.0008222514, 8017.1367, 8017.1367, 0.0, 2.5003114, 2.49938 
4.9133942e+2, 6.622066e+1, -3996.7788, -279321.63, -11960.803, -0.00015834821, -0.00086856785, -3478.1484, -3478.1484, 0.0, 2.5002916, 2.4993799 
4.9133867e+2, 6.872003e+1, -15518.702, -284955.13, -12085.447, -0.0005367807, -0.0008837331, -14977.701, -14977.701, 0.0, 2.500272, 2.4993796 
4.9133798e+2, 7.12195e+1, 17383.148, -198406.89, -7957.7607, 0.000052633168, -0.00017422118, 17676.21, 17676.21, 0.0, 2.5002522, 2.4995377 
4.913373e+2, 7.371904e+1, 8003.7344, -200252.7, -8625.335, 0.00016115537, -0.00024598208, 8360.358, 8360.358, 0.0, 2.5002334, 2.4995437 
4.913366e+2, 7.6218575e+1, -3094.8118, -205665.89, -9035.329, 0.00027690578, -0.00032530553, -2692.6055, -2692.6055, 0.0, 2.5002143, 2.4995434 
4.9133593e+2, 7.8718114e+1, -14197.326, -211081.0, -9446.861, 0.00040885565, -0.0004033835, -13745.086, -13745.086, 0.0, 2.5001955, 2.4995434 
4.9133527e+2, 8.121775e+1, 20147.025, -120388.05, -2427.8345, -0.000107532265, 0.0006289148, 20188.955, 20188.955, 0.0, 2.5001745, 2.4997091 
4.9133462e+2, 8.371746e+1, 9223.002, -121885.29, -3187.9407, -0.0006581432, 0.0007028336, 9300.472, 9300.472, 0.0, 2.5001516, 2.4997175 
4.9133396e+2, 8.6217177e+1, -4079.237, -128311.19, -3570.7405, -0.0011749787, 0.0007529535, -3976.6897, -3976.6897, 0.0, 2.500129, 2.4997175 
4.913333e+2, 8.8716894e+1, -17388.758, -134740.6, -3958.2341, -0.0016614922, 0.00079259626, -17255.4, -17255.4, 0.0, 2.500106, 2.4997175 
4.9133274e+2, 9.1216695e+1, 19413.646, -39116.973, 4390.086, 0.001161532, 0.0016866638, 19741.094, 19741.094, 0.0, 2.5000854, 2.4998915 
4.913321e+2, 9.37166e+1, 11041.297, -38798.203, 2618.7449, 0.00054478855, 0.0017722589, 11178.518, 11178.518, 0.0, 2.5000663, 2.4999013 
4.9133155e+2, 9.6216494e+1, -151.27669, -44292.996, 2351.4497, -0.000062672065, 0.001836486, -26.367332, -26.367332, 0.0, 2.5000472, 2.499901 
4.9133092e+2, 9.8716384e+1, -11367.793, -49799.3, 2090.7053, -0.0006162074, 0.0018908101, -11254.392, -11254.392, 0.0, 2.5000281, 2.4999008 
4.938541e+2, 1.2492527e+0, -2539.3013, -670931.75, -18732.695, -0.012550124, 0.00002397079, -2014.7012, -2014.7012, 0.0, 2.5007164, 2.4985034 
4.9385396e+2, 3.7477583e+0, -7981.3794, -673799.5, -10469.686, -0.012310044, 0.00010700248, -7816.789, -7816.789, 0.0, 2.5007074, 2.498503 
4.9385378e+2, 6.246264e+0, -13284.664, -676373.8, -2159.4146, -0.012062339, 0.0002368223, -13277.632, -13277.632, 0.0, 2.5006983, 2.498503 
4.9385363e+2, 8.74477e+0, -18590.97, -678949.3, 6150.5894, -0.011807009, 0.00041343123, -18533.69, -18533.69, 0.0, 2.5006893, 2.498503 
4.938534e+2, 1.1243351e+1, 17241.89, -592973.8, -22936.814, -0.011223448, 0.0004412493, 18102.826, 18102.826, 0.0, 2.5006769, 2.4986563 
4.93853e+2, 1.3742004e+1, 8063.836, -597274.4, -16795.107, -0.010273066, -0.000051588006, 8529.458, 8529.458, 0.0, 2.500661, 2.4986565 
4.938526e+2, 1.6240658e+1, -1207.722, -601763.7, -10046.213, -0.009324447, -0.00056975504, -1039.7141, -1039.7141, 0.0, 2.500645, 2.4986565 
4.938522e+2, 1.873931e+1, -10482.436, -606254.3, -3298.1528, -0.008377625, -0.0011129474, -10464.178, -10464.178, 0.0, 2.5006292, 2.4986565 
4.9385175e+2, 2.123804e+1, 21012.553, -525792.4, -19600.646, -0.007476953, -0.0012486565, 21714.252, 21714.252, 0.0, 2.500613, 2.4988022 
4.938512e+2, 2.373684e+1, 11303.169, -530360.4, -16254.921, -0.006667015, -0.0013690143, 11790.528, 11790.528, 0.0, 2.500596, 2.4988024 
4.9385068e+2, 2.6235643e+1, 1502.6573, -535111.3, -11685.16, -0.0058583315, -0.0014726187, 1756.9896, 1756.9896, 0.0, 2.5005794, 2.4988024 
4.9385014e+2, 2.8734446e+1, -8301.136, -539863.75, -7116.4033, -0.005050787, -0.0015585285, -8205.881, -8205.881, 0.0, 2.5005624, 2.4988024 
4.9384955e+2, 3.1233323e+1, 21163.813, -463126.7, -16887.307, -0.004124867, -0.0010651333, 21751.96, 21751.96, 0.0, 2.5005457, 2.4989421 
4.9384892e+2, 3.3732274e+1, 11156.878, -468166.28, -15619.333, -0.0032733125, -0.00024043961, 11665.314, 11665.314, 0.0, 2.5005288, 2.4989417 
4.9384826e+2, 3.6231223e+1, 1250.8429, -472990.3, -12967.463, -0.002418035, 0.0006215869, 1605.1554, 1605.1554, 0.0, 2.500512, 2.4989414 
4.9384764e+2, 3.8730174e+1, -8657.959, -477815.63, -10315.777, -0.0015584076, 0.0015217983, -8431.246, -8431.246, 0.0, 2.500495, 2.4989414 
4.9384695e+2, 4.1229194e+1, 21029.23, -400370.16, -16012.275, -0.0010467861, 0.0023804144, 21636.787, 21636.787, 0.0, 2.5004778, 2.4990823 
4.9384624e+2, 4.372828e+1, 10965.372, -405291.63, -15936.071, -0.001139253, 0.0026690129, 11574.58, 11574.58, 0.0, 2.5004606, 2.4990823 
4.9384552e+2, 4.6227363e+1, 912.17, -410182.9, -14701.368, -0.0012179, 0.0029823522, 1437.242, 1437.242, 0.0, 2.5004435, 2.499082 
4.938448e+2, 4.8726448e+1, -9145.281, -415076.25, -13467.113, -0.0012818229, 0.003322428, -8698.988, -8698.988, 0.0, 2.5004263, 2.499082 
4.9384412e+2, 5.122561e+1, 20787.4, -336146.53, -16043.558, -0.00077034853, 0.003892983, 21507.078, 21507.078, 0.0, 2.5004082, 2.499226 
4.9384335e+2, 5.372484e+1, 9956.208, -340834.03, -16221.82, -0.00036406174, 0.003968522, 10704.767, 10704.767, 0.0, 2.500389, 2.4992273 
4.9384263e+2, 5.622406e+1, -1265.1947, -346319.53, -15783.715, 0.000049682796, 0.004062773, -544.7094, -544.7094, 0.0, 2.5003698, 2.4992273 
4.938419e+2, 5.872329e+1, -12493.323, -351808.28, -15346.131, 0.00047399098, 0.004179197, -11800.681, -11800.681, 0.0, 2.5003507, 2.499227 
4.9384114e+2, 6.122259e+1, 17994.533, -270315.53, -14365.193, 0.00085999584, 0.0046656425, 18708.518, 18708.518, 0.0, 2.5003312, 2.4993763 
4.9384043e+2, 6.3721967e+1, 7395.3896, -274043.13, -14783.923, 0.00042402543, 0.004661549, 8169.856, 8169.856, 0.0, 2.5003114, 2.4993794 
4.9383968e+2, 6.622135e+1, -4124.33, -279675.22, -14894.537, -0.000027319638, 0.004687723, -3321.5645, -3321.5645, 0.0, 2.5002918, 2.4993792 
4.9383897e+2, 6.872073e+1, -15649.39, -285309.88, -15005.471, -0.00048996706, 0.004748828, -14816.968, -14816.968, 0.0, 2.500272, 2.499379 
4.9383825e+2, 7.1220183e+1, 16865.104, -199655.0, -10886.653, 0.0004619394, 0.005048402, 17411.11, 17411.11, 0.0, 2.5002525, 2.4995353 
4.9383757e+2, 7.371971e+1, 7466.632, -201549.77, -11473.179, 0.001302038, 0.0042897146, 8094.5234, 8094.5234, 0.0, 2.5002337, 2.4995413 
4.9383685e+2, 7.621925e+1, -3631.224, -206969.95, -11857.34, 0.0021362752, 0.003519518, -2942.1194, -2942.1194, 0.0, 2.5002146, 2.499541 
4.9383616e+2, 7.8718776e+1, -14733.048, -212392.05, -12243.039, 0.0029738983, 0.0027452128, -13977.599, -13977.599, 0.0, 2.5001955, 2.499541 
4.9383545e+2, 8.12184e+1, 19552.277, -121755.45, -6001.6113, 0.002677946, 0.0030792793, 19806.72, 19806.72, 0.0, 2.5001748, 2.4997067 
4.9383476e+2, 8.3718103e+1, 8714.639, -123112.914, -6616.4116, 0.0020197227, 0.002684093, 9045.883, 9045.883, 0.0, 2.5001519, 2.4997153 
4.938341e+2, 8.621781e+1, -4565.1743, -129532.73, -6981.316, 0.0013733456, 0.0022451377, -4176.3726, -4176.3726, 0.0, 2.5001292, 2.4997153 
4.9383342e+2, 8.871752e+1, -17852.27, -135956.05, -7350.9146, 0.0007341662, 0.0017740198, -17396.498, -17396.498, 0.0, 2.5001063, 2.499715 
4.9383286e+2, 9.121732e+1, 19014.352, -40037.605, 1366.747, 0.0039431383, 0.0022974776, 19045.967, 19045.967, 0.0, 2.5000856, 2.4998899 
4.938322e+2, 9.371721e+1, 10600.294, -39685.918, -244.10538, 0.0033810406, 0.002050114, 10601.479, 10601.479, 0.0, 2.5000663, 2.4998999 
4.938316e+2, 9.62171e+1, -689.7462, -45266.758, -467.23032, 0.002757721, 0.0018383405, -684.8495, -684.8495, 0.0, 2.5000472, 2.4998994 
4.9383098e+2, 9.8716986e+1, -12003.73, -50859.113, -683.8044, 0.0021229922, 0.0016744741, -11991.7, -11991.7, 0.0, 2.500028, 2.4998991 
4.9635464e+2, 1.2492812e+0, 12881.105, -638891.9, -20144.303, -0.028529672, 0.00012328888, 13503.11, 13503.11, 0.0, 2.5007164, 2.4985585 
4.963545e+2, 3.7478438e+0, 7427.5195, -641786.7, -11830.906, -0.028070996, 0.0004011147, 7643.048, 7643.048, 0.0, 2.5007074, 2.4985578 
4.9635434e+2, 6.2464064e+0, 2130.9292, -644350.25, -3506.2583, -0.027616551, 0.0007206061, 2149.9453, 2149.9453, 0.0, 2.5006983, 2.4985578 
4.963542e+2, 8.7449694e+0, -3168.6838, -646914.94, 4818.1235, -0.027166335, 0.0010817641, -3132.6245, -3132.6245, 0.0, 2.5006893, 2.4985578 
4.9635392e+2, 1.12436e+1, 29594.145, -567297.56, -25412.451, -0.025870502, 0.0011396295, 30674.117, 30674.117, 0.0, 2.5006769, 2.4987004 
4.963535e+2, 1.3742295e+1, 20590.248, -571244.6, -19203.754, -0.023710338, 0.00028682197, 21212.713, 21212.713, 0.0, 2.500661, 2.4987013 
4.9635312e+2, 1.6240987e+1, 11324.927, -575729.44, -12437.548, -0.021561347, -0.0005951726, 11588.315, 11588.315, 0.0, 2.500645, 2.498701 
4.9635273e+2, 1.8739681e+1, 2056.4507, -580215.56, -5672.175, -0.019423528, -0.001505795, 2111.7004, 2111.7004, 0.0, 2.5006292, 2.498701 
4.9635226e+2, 2.1238445e+1, 29542.633, -508070.3, -22190.205, -0.017392352, -0.0019599136, 30456.988, 30456.988, 0.0, 2.500613, 2.4988327 
4.9635172e+2, 2.3737276e+1, 19776.967, -512766.53, -18788.455, -0.015490977, -0.0021889945, 20439.012, 20439.012, 0.0, 2.500596, 2.4988327 
4.9635115e+2, 2.6236108e+1, 9981.671, -517517.97, -14209.419, -0.013599817, -0.0024024788, 10364.157, 10364.157, 0.0, 2.5005794, 2.4988327 
4.9635062e+2, 2.873494e+1, 183.09433, -522270.88, -9631.387, -0.011718806, -0.0025997902, 360.5877, 360.5877, 0.0, 2.5005624, 2.4988325 
4.9635005e+2, 3.1233847e+1, 26161.867, -452788.75, -19528.193, -0.009736408, -0.001622043, 26956.768, 26956.768, 0.0, 2.5005457, 2.4989598 
4.963494e+2, 3.3732826e+1, 16098.568, -457945.53, -18159.969, -0.007897988, 0.0001999528, 16793.234, 16793.234, 0.0, 2.5005288, 2.498959 
4.9634874e+2, 3.6231804e+1, 6192.3906, -462769.9, -15500.7705, -0.0060650017, 0.0020606373, 6704.1846, 6704.1846, 0.0, 2.500512, 2.498959 
4.9634808e+2, 3.8730782e+1, -3716.554, -467595.63, -12841.758, -0.004236648, 0.003961165, -3361.3223, -3361.3223, 0.0, 2.500495, 2.4989588 
4.963474e+2, 4.1229823e+1, 23416.402, -395458.44, -18660.709, -0.0030865078, 0.00564241, 24246.086, 24246.086, 0.0, 2.500478, 2.499091 
4.9634668e+2, 4.372892e+1, 13290.894, -400520.28, -18528.016, -0.0029653274, 0.006439633, 14118.8125, 14118.8125, 0.0, 2.5004609, 2.4990904 
4.9634594e+2, 4.6228018e+1, 3248.3044, -405401.75, -17280.297, -0.00284684, 0.0072544673, 3977.7224, 3977.7224, 0.0, 2.5004435, 2.4990902 
4.9634522e+2, 4.8727116e+1, -6798.5337, -410285.25, -16033.026, -0.002729849, 0.008089349, -6162.445, -6162.445, 0.0, 2.5004263, 2.4990902 
4.9634448e+2, 5.122628e+1, 21778.873, -334140.13, -18917.404, -0.001989406, 0.008907096, 22781.523, 22781.523, 0.0, 2.5004082, 2.4992297 
4.9634376e+2, 5.3725517e+1, 10809.531, -339133.0, -19099.188, -0.001143341, 0.009091269, 11848.842, 11848.842, 0.0, 2.500389, 2.4992301 
4.96343e+2, 5.6224746e+1, -390.03027, -344591.84, -18641.002, -0.00031286868, 0.00928564, 616.5701, 616.5701, 0.0, 2.50037, 2.4992301 
4.9634224e+2, 5.872398e+1, -11596.317, -350053.9, -18183.334, 0.0005042625, 0.009493015, -10622.237, -10622.237, 0.0, 2.5003507, 2.49923 
4.963415e+2, 6.1223286e+1, 17777.742, -270865.44, -17432.988, 0.0011216388, 0.010080919, 18826.818, 18826.818, 0.0, 2.5003312, 2.4993753 
4.9634072e+2, 6.3722664e+1, 7266.0786, -274405.72, -17731.291, 0.000637193, 0.010121405, 8377.878, 8377.878, 0.0, 2.5003116, 2.4993787 
4.9633998e+2, 6.6222036e+1, -4256.777, -280039.0, -17828.193, 0.00011893025, 0.010195682, -3109.034, -3109.034, 0.0, 2.5002918, 2.4993784 
4.9633923e+2, 6.872142e+1, -15784.973, -285674.88, -17925.416, -0.00042854305, 0.010308669, -14599.617, -14599.617, 0.0, 2.500272, 2.4993784 
4.963385e+2, 7.122087e+1, 16104.76, -201406.55, -13798.422, 0.0008686332, 0.010383762, 16976.605, 16976.605, 0.0, 2.5002527, 2.4995322 
4.9633777e+2, 7.372039e+1, 6918.7305, -202869.33, -14319.446, 0.0024483025, 0.008877018, 7891.6177, 7891.6177, 0.0, 2.5002337, 2.499539 
4.9633706e+2, 7.621991e+1, -4178.435, -208296.52, -14677.775, 0.004009188, 0.0073522627, -3128.3835, -3128.3835, 0.0, 2.5002148, 2.4995387 
4.9633637e+2, 7.871944e+1, -15279.568, -213725.61, -15037.643, 0.005560646, 0.0058180466, -14146.53, -14146.53, 0.0, 2.5001957, 2.4995387 
4.9633566e+2, 8.121905e+1, 18665.852, -123728.81, -9597.921, 0.0054432466, 0.005578931, 19309.873, 19309.873, 0.0, 2.5001748, 2.4997032 
4.9633497e+2, 8.371875e+1, 8199.058, -124355.64, -10041.693, 0.00468374, 0.004687601, 8955.451, 8955.451, 0.0, 2.500152, 2.4997132 
4.9633425e+2, 8.6218446e+1, -5058.3286, -130769.37, -10388.702, 0.003914509, 0.0037304242, -4205.5957, -4205.5957, 0.0, 2.5001295, 2.499713 
4.9633357e+2, 8.8718146e+1, -18322.998, -137186.6, -10740.405, 0.0031293507, 0.0027194011, -17360.3, -17360.3, 0.0, 2.5001066, 2.499713 
4.9633294e+2, 9.121794e+1, 18520.813, -41153.902, -1707.1575, 0.006714259, 0.0029068028, 18569.611, 18569.611, 0.0, 2.5000856, 2.499888 
4.9633232e+2, 9.3717825e+1, 10147.988, -40597.117, -3104.2053, 0.0062383283, 0.0022624324, 10337.175, 10337.175, 0.0, 2.5000663, 2.4998982 
4.9633166e+2, 9.621771e+1, -1239.5176, -46264.008, -3283.1604, 0.005631306, 0.0017096282, -1001.371, -1001.371, 0.0, 2.500047, 2.4998977 
4.9633104e+2, 9.87176e+1, -12650.97, -51942.41, -3455.5647, 0.0049475394, 0.0012625436, -12349.379, -12349.379, 0.0, 2.5000277, 2.4998975 
4.988559e+2, 1.2493052e+0, -4570.822, -622625.0, -21749.805, 0.02444955, -0.00024516645, -3806.3752, -3806.3752, 0.0, 2.50066, 2.4986136 
4.9885574e+2, 3.7479156e+0, -10914.153, -625938.25, -13688.626, 0.024230711, -0.00072685955, -10609.636, -10609.636, 0.0, 2.5006495, 2.4986129 
4.9885556e+2, 6.246526e+0, -17088.791, -628918.44, -5662.9307, 0.023881651, -0.0011938893, -17036.38, -17036.38, 0.0, 2.5006387, 2.4986129 
4.9885538e+2, 8.7451375e+0, -23253.256, -631893.5, 2374.951, 0.023403537, -0.0016424785, -23243.99, -23243.99, 0.0, 2.5006282, 2.4986129 
4.9885508e+2, 1.1243823e+1, 3943.601, -560346.9, -29693.666, 0.022352021, -0.0008287938, 5501.816, 5501.816, 0.0, 2.500612, 2.4987435 
4.988546e+2, 1.3742578e+1, -8031.208, -565061.56, -24452.416, 0.020646062, -0.000045353667, -6959.861, -6959.861, 0.0, 2.5005903, 2.498746 
4.988542e+2, 1.6241334e+1, -20534.924, -571103.8, -18700.012, 0.018804427, 0.0007106512, -19900.512, -19900.512, 0.0, 2.5005689, 2.4987457 
4.9885374e+2, 1.8740089e+1, -32902.695, -577080.44, -12934.276, 0.016833283, 0.0014420159, -32595.44, -32595.44, 0.0, 2.5005476, 2.4987457 
4.988532e+2, 2.12389e+1, -9674.095, -513514.7, -30320.543, 0.015088135, 0.0020610949, -7856.0, -7856.0, 0.0, 2.500531, 2.4988627 
4.988526e+2, 2.3737766e+1, -16593.723, -516795.13, -27186.19, 0.013519939, 0.0022822262, -15120.4795, -15120.4795, 0.0, 2.500519, 2.4988627 
4.9885198e+2, 2.6236632e+1, -23464.08, -520140.06, -22907.555, 0.011816577, 0.0024429862, -22409.781, -22409.781, 0.0, 2.5005074, 2.4988627 
4.9885142e+2, 2.8735498e+1, -30240.041, -523439.44, -18613.576, 0.009985927, 0.0025473484, -29538.555, -29538.555, 0.0, 2.5004957, 2.4988627 
4.9885076e+2, 3.123441e+1, -4365.0664, -459510.25, -27653.422, 0.008485213, 0.0017471373, -2691.0742, -2691.0742, 0.0, 2.5004847, 2.4989777 
4.9885008e+2, 3.3733368e+1, -10789.297, -462935.63, -23915.541, 0.0068505453, -0.00030941382, -9527.843, -9527.843, 0.0, 2.5004742, 2.498977 
4.9884936e+2, 3.6232325e+1, -16978.11, -465971.9, -18985.06, 0.0049257986, -0.0021221417, -16176.782, -16176.782, 0.0, 2.5004635, 2.4989767 
4.9884865e+2, 3.873129e+1, -23113.479, -468982.34, -14066.028, 0.0027244538, -0.0036930437, -22670.172, -22670.172, 0.0, 2.500453, 2.4989767 
4.9884793e+2, 4.123032e+1, 3667.734, -401244.4, -17213.816, 0.0022633714, -0.004494962, 4398.218, 4398.218, 0.0, 2.5004401, 2.4990993 
4.988472e+2, 4.372941e+1, -5615.38, -405806.34, -13642.331, 0.0028806676, -0.005519503, -5150.858, -5150.858, 0.0, 2.5004241, 2.499099 
4.9884644e+2, 4.6228495e+1, -14820.9, -410282.1, -9040.829, 0.0029027704, -0.0063712276, -14614.322, -14614.322, 0.0, 2.5004084, 2.4990988 
4.988457e+2, 4.872759e+1, -23985.082, -414737.84, -4481.4517, 0.002348722, -0.007046667, -23933.691, -23933.691, 0.0, 2.5003927, 2.4990988 
4.9884495e+2, 5.1226753e+1, 5245.4717, -340680.13, -4793.98, 0.0019890592, -0.0073191277, 5311.896, 5311.896, 0.0, 2.5003784, 2.4992328 
4.9884415e+2, 5.372598e+1, -2262.095, -344029.78, -2467.8447, 0.001276842, -0.007977516, -2244.276, -2244.276, 0.0, 2.5003653, 2.4992332 
4.9884334e+2, 5.622521e+1, -10012.34, -347811.63, 471.4991, -0.000075789096, -0.008467427, -10011.682, -10011.682, 0.0, 2.500352, 2.4992332 
4.9884257e+2, 5.872444e+1, -17811.746, -351617.13, 3380.174, -0.002045679, -0.008783726, -17777.521, -17777.521, 0.0, 2.5003386, 2.499233 
4.988418e+2, 6.122374e+1, 13215.677, -273754.94, 5028.8105, -0.001611024, -0.008679053, 13303.773, 13303.773, 0.0, 2.500324, 2.4993737 
4.9884105e+2, 6.372311e+1, 5514.0576, -275588.16, 4751.889, -0.00017345053, -0.009358818, 5594.363, 5594.363, 0.0, 2.500309, 2.499378 
4.9884027e+2, 6.622248e+1, -3450.5195, -279988.06, 4560.8774, 0.00022077632, -0.00982918, -3375.3184, -3375.3184, 0.0, 2.5002935, 2.4993777 
4.9883947e+2, 6.8721855e+1, -12455.03, -284407.2, 4385.9136, -0.00039372692, -0.010085337, -12384.315, -12384.315, 0.0, 2.5002782, 2.4993775 
4.9883875e+2, 7.1221316e+1, 18267.459, -202221.86, 8073.1797, -0.00025252657, -0.0086779725, 18562.662, 18562.662, 0.0, 2.5002584, 2.4995282 
4.9883798e+2, 7.3720855e+1, 6448.568, -204238.33, 6827.604, -0.0009249396, -0.007893791, 6669.594, 6669.594, 0.0, 2.5002341, 2.4995363 
4.9883723e+2, 7.62204e+1, -7627.5015, -211105.39, 5746.6904, -0.0024495837, -0.007116302, -7465.331, -7465.331, 0.0, 2.50021, 2.4995363 
4.9883646e+2, 7.871994e+1, -21604.328, -217924.66, 4694.4893, -0.0047846846, -0.006336846, -21492.135, -21492.135, 0.0, 2.5001862, 2.499536 
4.988357e+2, 8.121957e+1, 11233.429, -129478.516, 7977.053, -0.0056083016, -0.004280732, 11684.209, 11684.209, 0.0, 2.5001645, 2.4996984 
4.9883503e+2, 8.3719283e+1, 3441.4412, -127801.6, 5719.0244, -0.0042261914, -0.0038026762, 3690.1812, 3690.1812, 0.0, 2.5001452, 2.4997106 
4.9883428e+2, 8.6218995e+1, -7835.12, -133262.75, 3405.0154, -0.004657729, -0.0038366707, -7742.7515, -7742.7515, 0.0, 2.500126, 2.4997103 
4.9883357e+2, 8.8718694e+1, -19181.768, -138757.7, 1114.714, -0.006857467, -0.0043575787, -19171.377, -19171.377, 0.0, 2.5001063, 2.4997103 
4.988329e+2, 9.1218495e+1, 19475.035, -41883.832, 8452.013, -0.0030221054, -0.0028494035, 20617.986, 20617.986, 0.0, 2.5000885, 2.4998853 
4.988323e+2, 9.37184e+1, 13016.639, -40081.19, 5413.2607, -0.0024143094, -0.0019986401, 13562.895, 13562.895, 0.0, 2.5000722, 2.4998963 
4.988316e+2, 9.6218294e+1, 3001.7493, -45124.496, 3459.868, -0.0040199338, -0.0018336773, 3249.212, 3249.212, 0.0, 2.5000553, 2.4998958 
4.9883094e+2, 9.871817e+1, -7355.9053, -50332.8, 1607.065, -0.0077136657, -0.0023199513, -7295.895, -7295.895, 0.0, 2.5000377, 2.4998953 
